          x          y   sigma_xx   sigma_yy   sigma_xy        max        min
  0.0426469  0.0327533  1.4460562 -0.0117659  0.0279863  1.4465933 -0.0123030
  0.0443695  0.0328771  1.4472123 -0.0110911  0.0228715  1.4475709 -0.0114498
  0.0427346  0.0307378  1.4645762 -0.0062282  0.0281084  1.4651132 -0.0067652
  0.0443930  0.0307709  1.4649927 -0.0057616  0.0227872  1.4653457 -0.0061146
  0.0426025  0.0342139  1.4345376 -0.0089651  0.0306993  1.4351901 -0.0096177
  0.0425691  0.0361888  1.4173826 -0.0141047  0.0307514  1.4180429 -0.0147650
  0.0443576  0.0343829  1.4361207 -0.0081355  0.0253564  1.4365657 -0.0085806
  0.0443486  0.0363909  1.4192022 -0.0132092  0.0254815  1.4196554 -0.0136624
  0.0413147  0.0341054  1.4401636 -0.0081219  0.0232622  1.4405371 -0.0084955
  0.0395512  0.0339779  1.4389875 -0.0086826  0.0286281  1.4395534 -0.0092485
  0.0412671  0.0360488  1.4238803 -0.0130014  0.0232078  1.4242551 -0.0133761
  0.0394896  0.0358683  1.4222717 -0.0136899  0.0285247  1.4228381 -0.0142563
  0.0413667  0.0326768  1.4508115 -0.0119358  0.0208144  1.4511076 -0.0122319
  0.0414614  0.0307173  1.4678339 -0.0068039  0.0213029  1.4681416 -0.0071116
  0.0395918  0.0325916  1.4501926 -0.0116214  0.0265145  1.4506734 -0.0121021
  0.0396413  0.0306944  1.4677949 -0.0063267  0.0268827  1.4682850 -0.0068168
  0.0425058  0.0396033  1.3891283 -0.0164326  0.0330786  1.3899063 -0.0172107
  0.0443317  0.0398813  1.3916464 -0.0150389  0.0277377  1.3921932 -0.0155857
  0.0425432  0.0376329  1.4060909 -0.0113575  0.0329164  1.4068549 -0.0121215
  0.0443417  0.0378641  1.4082837 -0.0100513  0.0274970  1.4088166 -0.0105842
  0.0424742  0.0410407  1.3777559 -0.0138029  0.0351764  1.3786446 -0.0146916
  0.0424250  0.0429974  1.3612699 -0.0187282  0.0353446  1.3621745 -0.0196329
  0.0443232  0.0413576  1.3806612 -0.0121672  0.0297079  1.3812946 -0.0128005
  0.0443100  0.0433737  1.3645451 -0.0169967  0.0299771  1.3651952 -0.0176468
  0.0411266  0.0408151  1.3867944 -0.0124329  0.0274042  1.3873309 -0.0129694
  0.0392939  0.0405157  1.3842631 -0.0133537  0.0327236  1.3850288 -0.0141195
  0.0410529  0.0427340  1.3715052 -0.0170133  0.0272614  1.3720402 -0.0175483
  0.0391893  0.0423905  1.3687089 -0.0180106  0.0324835  1.3694694 -0.0187711
  0.0411738  0.0394042  1.3974396 -0.0149867  0.0253110  1.3978931 -0.0154402
  0.0412294  0.0374686  1.4132551 -0.0102479  0.0253932  1.4137080 -0.0107008
  0.0393607  0.0391386  1.3951843 -0.0158521  0.0305607  1.3958459 -0.0165137
  0.0394386  0.0372511  1.4113476 -0.0110116  0.0307158  1.4120106 -0.0116746
  0.0408818  0.0460409  1.3459971 -0.0193083  0.0290639  1.3466155 -0.0199267
  0.0409873  0.0441342  1.3607604 -0.0148752  0.0293791  1.3613876 -0.0155024
  0.0389486  0.0456313  1.3428790 -0.0201672  0.0342506  1.3437391 -0.0210273
  0.0390968  0.0437612  1.3577871 -0.0156888  0.0346935  1.3586629 -0.0165645
  0.0423101  0.0463603  1.3342597 -0.0209757  0.0376082  1.3353025 -0.0220185
  0.0442793  0.0468234  1.3381302 -0.0189154  0.0322080  1.3388942 -0.0196794
  0.0423811  0.0444228  1.3498956 -0.0163189  0.0374527  1.3509215 -0.0173448
  0.0442983  0.0448382  1.3535853 -0.0142877  0.0319081  1.3543292 -0.0150316
  0.0422457  0.0477598  1.3232671 -0.0189430  0.0397484  1.3244432 -0.0201191
  0.0421407  0.0496460  1.3091138 -0.0231479  0.0397549  1.3102991 -0.0243332
  0.0442620  0.0482357  1.3273085 -0.0169024  0.0340846  1.3281723 -0.0177661
  0.0442338  0.0501090  1.3127828 -0.0212487  0.0342980  1.3136640 -0.0221299
  0.0407862  0.0474284  1.3350361 -0.0177882  0.0312029  1.3357554 -0.0185075
  0.0388149  0.0469987  1.3318971 -0.0179485  0.0365908  1.3328883 -0.0189396
  0.0406305  0.0493125  1.3206159 -0.0221738  0.0305087  1.3213087 -0.0228666
  0.0385978  0.0488642  1.3175352 -0.0223406  0.0357303  1.3184873 -0.0232928
  0.0355020  0.0462913  1.3397060 -0.0173968  0.0335334  1.3405340 -0.0182249
  0.0352181  0.0480849  1.3258777 -0.0217744  0.0322145  1.3266473 -0.0225440
  0.0373991  0.0466940  1.3422845 -0.0181522  0.0285755  1.3428844 -0.0187522
  0.0371475  0.0485353  1.3286983 -0.0224225  0.0273814  1.3292530 -0.0229771
  0.0341458  0.0460035  1.3492003 -0.0183927  0.0258525  1.3496888 -0.0188813
  0.0323374  0.0456199  1.3470161 -0.0169495  0.0304258  1.3476945 -0.0176279
  0.0338481  0.0477614  1.3363580 -0.0225792  0.0243397  1.3367938 -0.0230150
  0.0320345  0.0473280  1.3338401 -0.0212607  0.0288378  1.3344536 -0.0218741
  0.0343333  0.0447096  1.3596332 -0.0197212  0.0232690  1.3600256 -0.0201136
  0.0345479  0.0429322  1.3733389 -0.0154587  0.0243268  1.3737649 -0.0158847
  0.0325300  0.0443578  1.3573196 -0.0191315  0.0280833  1.3578923 -0.0197042
  0.0327534  0.0426178  1.3712844 -0.0147787  0.0291980  1.3718992 -0.0153935
  0.0356797  0.0449742  1.3504178 -0.0195938  0.0310806  1.3511226 -0.0202986
  0.0375547  0.0453455  1.3530179 -0.0196281  0.0260727  1.3535129 -0.0201232
  0.0358810  0.0431693  1.3648758 -0.0151661  0.0319558  1.3656153 -0.0159056
  0.0377285  0.0435027  1.3672647 -0.0152788  0.0268496  1.3677859 -0.0158000
  0.0331341  0.0508032  1.3141018 -0.0260870  0.0252957  1.3145791 -0.0265642
  0.0335770  0.0490475  1.3254609 -0.0218565  0.0275292  1.3260232 -0.0224188
  0.0313493  0.0502262  1.3114117 -0.0233969  0.0290214  1.3120424 -0.0240276
  0.0317697  0.0485622  1.3233951 -0.0189326  0.0313792  1.3241283 -0.0196658
  0.0345215  0.0512223  1.3008455 -0.0241495  0.0329974  1.3016668 -0.0249707
  0.0365272  0.0517901  1.3039675 -0.0257613  0.0283771  1.3045728 -0.0263666
  0.0349554  0.0494061  1.3145076 -0.0194650  0.0350668  1.3154288 -0.0203862
  0.0369139  0.0499008  1.3173025 -0.0212699  0.0302434  1.3179855 -0.0219528
  0.0340957  0.0525164  1.2891645 -0.0204891  0.0356837  1.2901360 -0.0214606
  0.0333661  0.0542360  1.2776075 -0.0268232  0.0315088  1.2783681 -0.0275838
  0.0361049  0.0532744  1.2909602 -0.0267835  0.0329193  1.2917820 -0.0276053
  0.0353379  0.0554403  1.2813708 -0.0316730  0.0296269  1.2820390 -0.0323412
  0.0327285  0.0520117  1.3024659 -0.0250904  0.0296507  1.3031278 -0.0257523
  0.0310023  0.0513907  1.3010171 -0.0212583  0.0318381  1.3017832 -0.0220244
  0.0320630  0.0535575  1.2946580 -0.0291115  0.0270577  1.2952108 -0.0296643
  0.0304748  0.0529081  1.2927247 -0.0252058  0.0292726  1.2933746 -0.0258556
  0.0402449  0.0526709  1.2952048 -0.0257143  0.0316022  1.2959605 -0.0264699
  0.0404855  0.0507172  1.3092696 -0.0212545  0.0329560  1.3100854 -0.0220703
  0.0380608  0.0521783  1.2925121 -0.0244278  0.0366708  1.2935324 -0.0254481
  0.0383957  0.0502521  1.3064996 -0.0198948  0.0382604  1.3076023 -0.0209975
  0.0418802  0.0529717  1.2838140 -0.0258863  0.0418163  1.2851478 -0.0272201
  0.0441641  0.0533009  1.2863163 -0.0250924  0.0357740  1.2872914 -0.0260675
  0.0420427  0.0510425  1.2982501 -0.0215586  0.0422280  1.2995999 -0.0229083
  0.0442076  0.0514662  1.3018087 -0.0204457  0.0358878  1.3027821 -0.0214190
  0.0417855  0.0544294  1.2731733 -0.0248978  0.0446456  1.2747070 -0.0264315
  0.0416894  0.0564828  1.2576006 -0.0295467  0.0445776  1.2591426 -0.0310887
  0.0441387  0.0546792  1.2754536 -0.0236018  0.0377692  1.2765508 -0.0246990
  0.0441129  0.0566101  1.2587989 -0.0285912  0.0378916  1.2599132 -0.0297055
  0.0400612  0.0541718  1.2818636 -0.0237191  0.0342634  1.2827622 -0.0246177
  0.0377034  0.0537180  1.2789638 -0.0218174  0.0409927  1.2802543 -0.0231079
  0.0398001  0.0563189  1.2646179 -0.0291845  0.0326107  1.2654393 -0.0300060
  0.0370619  0.0559984  1.2633717 -0.0271007  0.0386490  1.2645282 -0.0282571
  0.0310258  0.0556365  1.2760400 -0.0301343  0.0266322  1.2765828 -0.0306771
  0.0316068  0.0545288  1.2850622 -0.0261252  0.0291646  1.2857106 -0.0267736
  0.0297052  0.0553288  1.2746042 -0.0275519  0.0300113  1.2752955 -0.0282432
  0.0301272  0.0539633  1.2826690 -0.0244328  0.0317295  1.2834388 -0.0252025
  0.0317633  0.0562006  1.2691056 -0.0273734  0.0320375  1.2698968 -0.0281646
  0.0324574  0.0574342  1.2625306 -0.0332814  0.0357670  1.2635171 -0.0342679
  0.0327411  0.0552232  1.2666919 -0.0224133  0.0327217  1.2675220 -0.0232433
  0.0343606  0.0565549  1.2624330 -0.0281732  0.0353231  1.2633991 -0.0291392
  0.0309027  0.0565088  1.2667781 -0.0267152  0.0274324  1.2673596 -0.0272967
  0.0295293  0.0563733  1.2653457 -0.0272930  0.0323462  1.2661547 -0.0281019
  0.0311473  0.0577843  1.2543821 -0.0304590  0.0283140  1.2550057 -0.0310826
  0.0294709  0.0578614  1.2548600 -0.0304343  0.0322447  1.2556684 -0.0312427
  0.0332125  0.0606205  1.2339260 -0.0363595  0.0391882  1.2351338 -0.0375673
  0.0355023  0.0603516  1.2336139 -0.0308419  0.0329970  1.2344744 -0.0317024
  0.0328457  0.0586185  1.2533779 -0.0294579  0.0357249  1.2543720 -0.0304520
  0.0351004  0.0579290  1.2497740 -0.0251905  0.0302112  1.2504895 -0.0259060
  0.0333983  0.0621239  1.2224153 -0.0339034  0.0405549  1.2237231 -0.0352112
  0.0335394  0.0642294  1.2051761 -0.0392264  0.0418266  1.2065804 -0.0406307
  0.0356957  0.0620333  1.2224850 -0.0315124  0.0342764  1.2234212 -0.0324486
  0.0358225  0.0642051  1.2057714 -0.0366542  0.0354593  1.2067826 -0.0376654
  0.0317649  0.0621879  1.2230957 -0.0320459  0.0295035  1.2237889 -0.0327390
  0.0295996  0.0622722  1.2235054 -0.0327793  0.0357164  1.2245200 -0.0337939
  0.0318811  0.0642465  1.2072767 -0.0368344  0.0301083  1.2080050 -0.0375626
  0.0296334  0.0642691  1.2071767 -0.0376911  0.0361153  1.2082235 -0.0387380
  0.0316198  0.0607617  1.2325291 -0.0327939  0.0295584  1.2332192 -0.0334840
  0.0313394  0.0589239  1.2464185 -0.0283729  0.0281803  1.2470412 -0.0289956
  0.0295581  0.0608787  1.2327718 -0.0344504  0.0345344  1.2337123 -0.0353908
  0.0294786  0.0590686  1.2470193 -0.0301008  0.0336553  1.2479056 -0.0309871
  0.0397866  0.0602478  1.2337787 -0.0333444  0.0357434  1.2347862 -0.0343519
  0.0397265  0.0579469  1.2538733 -0.0272788  0.0350099  1.2548293 -0.0282348
  0.0372638  0.0602518  1.2332908 -0.0350769  0.0435406  1.2347837 -0.0365698
  0.0369441  0.0577491  1.2519412 -0.0293129  0.0422002  1.2533296 -0.0307013
  0.0416166  0.0602454  1.2306532 -0.0328324  0.0469544  1.2323957 -0.0345750
  0.0440934  0.0602428  1.2307387 -0.0324870  0.0402722  1.2320213 -0.0337696
  0.0416442  0.0580412  1.2472942 -0.0278437  0.0469199  1.2490183 -0.0295678
  0.0441008  0.0581009  1.2478679 -0.0273494  0.0401825  1.2491328 -0.0286143
  0.0416322  0.0618865  1.2192387 -0.0321520  0.0490347  1.2211571 -0.0340704
  0.0417024  0.0641657  1.2001208 -0.0379303  0.0497781  1.2021190 -0.0399285
  0.0440976  0.0618665  1.2195604 -0.0305845  0.0420029  1.2209701 -0.0319942
  0.0441164  0.0641604  1.2005705 -0.0362928  0.0425916  1.2020354 -0.0377577
  0.0398437  0.0619163  1.2211852 -0.0309895  0.0374387  1.2223035 -0.0321079
  0.0374228  0.0619777  1.2211476 -0.0325691  0.0440414  1.2226928 -0.0341143
  0.0399395  0.0641737  1.2037310 -0.0362871  0.0382538  1.2049100 -0.0374660
  0.0375374  0.0641902  1.2033397 -0.0379877  0.0449311  1.2049639 -0.0396119
  0.0269341  0.0546937  1.2798900 -0.0271236  0.0271366  1.2804532 -0.0276868
  0.0286088  0.0550762  1.2814319 -0.0297716  0.0234760  1.2818521 -0.0301918
  0.0273892  0.0531601  1.2903100 -0.0231646  0.0292701  1.2909620 -0.0238165
  0.0289971  0.0535966  1.2923728 -0.0257134  0.0255948  1.2928696 -0.0262102
  0.0266487  0.0558784  1.2696715 -0.0263045  0.0304677  1.2703874 -0.0270204
  0.0263238  0.0575814  1.2571656 -0.0303712  0.0290046  1.2578186 -0.0310243
  0.0283895  0.0562044  1.2717268 -0.0275959  0.0255890  1.2722306 -0.0280997
  0.0281785  0.0578071  1.2582336 -0.0318790  0.0242838  1.2586905 -0.0323359
  0.0253652  0.0555464  1.2778378 -0.0273330  0.0229498  1.2782412 -0.0277364
  0.0235995  0.0549657  1.2753319 -0.0226133  0.0268433  1.2758869 -0.0231682
  0.0248333  0.0572956  1.2658336 -0.0323973  0.0198730  1.2661378 -0.0327014
  0.0226160  0.0567405  1.2645857 -0.0281477  0.0233031  1.2650057 -0.0285677
  0.0257403  0.0543503  1.2903591 -0.0296412  0.0205741  1.2906797 -0.0299618
  0.0262334  0.0528315  1.2988385 -0.0258001  0.0230260  1.2992386 -0.0262002
  0.0241536  0.0537947  1.2887740 -0.0258982  0.0229805  1.2891756 -0.0262998
  0.0246837  0.0523703  1.2976336 -0.0216978  0.0256626  1.2981326 -0.0221968
  0.0243949  0.0607184  1.2378495 -0.0353951  0.0211774  1.2382016 -0.0357473
  0.0245733  0.0586815  1.2557378 -0.0299054  0.0222660  1.2561234 -0.0302909
  0.0221781  0.0605814  1.2372001 -0.0341603  0.0274880  1.2377942 -0.0347543
  0.0222351  0.0582452  1.2530161 -0.0293851  0.0281025  1.2536317 -0.0300007
  0.0259664  0.0608009  1.2338787 -0.0333217  0.0304211  1.2346086 -0.0340516
  0.0280433  0.0608892  1.2341963 -0.0341875  0.0252151  1.2346974 -0.0346886
  0.0261410  0.0589004  1.2478282 -0.0290546  0.0312135  1.2485908 -0.0298172
  0.0280857  0.0590624  1.2488121 -0.0297810  0.0256956  1.2493283 -0.0302972
  0.0258898  0.0622369  1.2244675 -0.0325583  0.0323087  1.2252974 -0.0333882
  0.0258548  0.0642596  1.2091069 -0.0371686  0.0321661  1.2099365 -0.0379983
  0.0280254  0.0622853  1.2248001 -0.0325993  0.0264563  1.2253565 -0.0331557
  0.0280187  0.0642726  1.2091600 -0.0372916  0.0263872  1.2097184 -0.0378500
  0.0243128  0.0622112  1.2267657 -0.0329472  0.0225457  1.2271691 -0.0333506
  0.0221401  0.0621895  1.2263170 -0.0339371  0.0283893  1.2269562 -0.0345763
  0.0242671  0.0642528  1.2109759 -0.0376659  0.0227333  1.2113897 -0.0380797
  0.0220933  0.0642469  1.2106494 -0.0386190  0.0285733  1.2113026 -0.0392722
  0.0184247  0.0622223  1.2278050 -0.0358469  0.0246747  1.2282866 -0.0363286
  0.0184222  0.0642557  1.2117895 -0.0406504  0.0250079  1.2122887 -0.0411495
  0.0205624  0.0621925  1.2278750 -0.0349197  0.0189372  1.2281589 -0.0352037
  0.0205271  0.0642477  1.2120297 -0.0396582  0.0191786  1.2123235 -0.0399520
  0.0168917  0.0622580  1.2280874 -0.0356372  0.0136256  1.2282343 -0.0357841
  0.0148412  0.0623256  1.2288849 -0.0346128  0.0193497  1.2291811 -0.0349090
  0.0168898  0.0642653  1.2127404 -0.0402419  0.0133365  1.2128823 -0.0403839
  0.0148082  0.0642834  1.2131353 -0.0393503  0.0189656  1.2134224 -0.0396374
  0.0168254  0.0608251  1.2378430 -0.0349025  0.0135301  1.2379868 -0.0350464
  0.0166421  0.0589178  1.2516777 -0.0306487  0.0126516  1.2518025 -0.0307735
  0.0148244  0.0609435  1.2383284 -0.0358896  0.0185823  1.2385993 -0.0361606
  0.0147457  0.0591254  1.2529513 -0.0314535  0.0179224  1.2532013 -0.0317036
  0.0183627  0.0607288  1.2393006 -0.0371308  0.0235107  1.2397335 -0.0375637
  0.0205618  0.0605842  1.2390589 -0.0342610  0.0171378  1.2392895 -0.0344917
  0.0181906  0.0586819  1.2575716 -0.0314054  0.0218581  1.2579421 -0.0317759
  0.0205249  0.0582453  1.2552671 -0.0293578  0.0160534  1.2554677 -0.0295584
  0.0219536  0.0529084  1.2941618 -0.0261145  0.0212582  1.2945040 -0.0264567
  0.0231389  0.0534083  1.2969863 -0.0287742  0.0185237  1.2972451 -0.0290330
  0.0221972  0.0517206  1.3041905 -0.0223604  0.0233585  1.3046017 -0.0227716
  0.0236022  0.0520726  1.3053019 -0.0252516  0.0206319  1.3056217 -0.0255715
  0.0214392  0.0536165  1.2880738 -0.0203093  0.0200496  1.2883810 -0.0206165
  0.0202774  0.0543631  1.2862077 -0.0290125  0.0184823  1.2864674 -0.0292722
  0.0225475  0.0544486  1.2845271 -0.0293065  0.0227744  1.2849218 -0.0297011
  0.0213952  0.0559547  1.2840002 -0.0336713  0.0208898  1.2843313 -0.0340024
  0.0210385  0.0528410  1.2954603 -0.0279226  0.0173221  1.2956870 -0.0281493
  0.0210525  0.0515543  1.3105516 -0.0234090  0.0168899  1.3107654 -0.0236228
  0.0197240  0.0531566  1.2985312 -0.0282199  0.0222708  1.2989049 -0.0285936
  0.0193300  0.0514520  1.3095255 -0.0247089  0.0210329  1.3098569 -0.0250404
  0.0173402  0.0554382  1.2813973 -0.0279628  0.0189318  1.2816709 -0.0282365
  0.0179167  0.0572643  1.2674738 -0.0337992  0.0224316  1.2678603 -0.0341858
  0.0191791  0.0548513  1.2785759 -0.0229618  0.0144420  1.2787362 -0.0231220
  0.0201544  0.0567092  1.2659457 -0.0291904  0.0184022  1.2662071 -0.0294518
  0.0160314  0.0558133  1.2737430 -0.0263411  0.0112997  1.2738412 -0.0264393
  0.0142946  0.0562512  1.2761464 -0.0288728  0.0158091  1.2763379 -0.0290643
  0.0164294  0.0575749  1.2611758 -0.0307695  0.0133971  1.2613147 -0.0309084
  0.0146038  0.0578681  1.2623030 -0.0336412  0.0179599  1.2625518 -0.0338901
  0.0156414  0.0545890  1.2843895 -0.0272405  0.0136904  1.2845323 -0.0273834
  0.0149739  0.0530057  1.2942838 -0.0223635  0.0105819  1.2943689 -0.0224486
  0.0139677  0.0551171  1.2859833 -0.0318056  0.0166905  1.2861947 -0.0320169
  0.0133839  0.0536356  1.2966950 -0.0266527  0.0134084  1.2968309 -0.0267886
  0.0168856  0.0541583  1.2944166 -0.0315069  0.0194855  1.2947029 -0.0317932
  0.0186113  0.0535096  1.2924050 -0.0257792  0.0165846  1.2926137 -0.0259878
  0.0162202  0.0524877  1.3055792 -0.0257595  0.0157233  1.3057649 -0.0259451
  0.0180352  0.0517021  1.3031642 -0.0206750  0.0131888  1.3032956 -0.0208064
  0.0116657  0.0558736  1.2804718 -0.0321988  0.0135526  1.2806117 -0.0323387
  0.0129024  0.0554613  1.2790454 -0.0282475  0.0111008  1.2791396 -0.0283418
  0.0109615  0.0548400  1.2884899 -0.0272996  0.0104288  1.2885726 -0.0273822
  0.0123088  0.0541271  1.2860951 -0.0246480  0.0087958  1.2861541 -0.0247071
  0.0118768  0.0567163  1.2716236 -0.0286146  0.0140746  1.2717759 -0.0287669
  0.0117494  0.0579852  1.2592503 -0.0322065  0.0140976  1.2594042 -0.0323604
  0.0131814  0.0564932  1.2697957 -0.0279009  0.0095665  1.2698662 -0.0279714
  0.0133498  0.0579781  1.2595426 -0.0310882  0.0103501  1.2596256 -0.0311712
  0.0110222  0.0564798  1.2737032 -0.0286657  0.0096774  1.2737751 -0.0287376
  0.0099919  0.0556105  1.2712398 -0.0241175  0.0097063  1.2713126 -0.0241902
  0.0105009  0.0577238  1.2669664 -0.0332983  0.0064187  1.2669981 -0.0333300
  0.0086904  0.0570025  1.2667573 -0.0288121  0.0072229  1.2667976 -0.0288524
  0.0099984  0.0608128  1.2405538 -0.0359617  0.0056850  1.2405791 -0.0359870
  0.0102265  0.0588848  1.2583682 -0.0302560  0.0075927  1.2584129 -0.0303007
  0.0079461  0.0606264  1.2399921 -0.0332749  0.0113751  1.2400937 -0.0333765
  0.0081422  0.0583465  1.2551968 -0.0284889  0.0128351  1.2553252 -0.0286172
  0.0114559  0.0609034  1.2377498 -0.0340405  0.0141918  1.2379082 -0.0341988
  0.0133857  0.0609645  1.2377711 -0.0352810  0.0094287  1.2378409 -0.0353508
  0.0116366  0.0591071  1.2515520 -0.0297735  0.0151596  1.2517313 -0.0299529
  0.0134045  0.0591762  1.2516855 -0.0310934  0.0099686  1.2517629 -0.0311708
  0.0113593  0.0622877  1.2289648 -0.0326352  0.0153639  1.2291519 -0.0328223
  0.0112760  0.0642732  1.2142412 -0.0371244  0.0144862  1.2144089 -0.0372921
  0.0133588  0.0623336  1.2287260 -0.0344943  0.0100366  1.2288057 -0.0345740
  0.0133040  0.0642855  1.2137509 -0.0390358  0.0092160  1.2138187 -0.0391036
  0.0098807  0.0622542  1.2297171 -0.0333061  0.0061756  1.2297473 -0.0333363
  0.0078407  0.0622088  1.2294257 -0.0331930  0.0117848  1.2295357 -0.0333030
  0.0097875  0.0642643  1.2136353 -0.0381399  0.0058373  1.2136625 -0.0381671
  0.0077487  0.0642521  1.2136055 -0.0379479  0.0114595  1.2137104 -0.0380528
  0.0042818  0.0606364  1.2414692 -0.0358848  0.0085890  1.2415269 -0.0359425
  0.0064144  0.0605791  1.2412872 -0.0349696  0.0020627  1.2412905 -0.0349730
  0.0042254  0.0585397  1.2601960 -0.0302407  0.0080389  1.2602461 -0.0302908
  0.0065342  0.0582540  1.2583523 -0.0298959  0.0020297  1.2583555 -0.0298991
  0.0042852  0.0621638  1.2300052 -0.0340429  0.0084510  1.2300617 -0.0340994
  0.0042381  0.0642400  1.2145399 -0.0386887  0.0082232  1.2145938 -0.0387426
  0.0063414  0.0621845  1.2300700 -0.0342915  0.0031400  1.2300778 -0.0342993
  0.0062617  0.0642456  1.2144924 -0.0389753  0.0028236  1.2144988 -0.0389817
  0.0027860  0.0621671  1.2293752 -0.0342876 -0.0017268  1.2293775 -0.0342900
  0.0007465  0.0621968  1.2300645 -0.0327615  0.0043890  1.2300798 -0.0327767
  0.0027583  0.0642409  1.2116323 -0.0396283 -0.0023256  1.2116366 -0.0396327
  0.0007391  0.0642489  1.2121410 -0.0381433  0.0038452  1.2121529 -0.0381551
  0.0027613  0.0606760  1.2401045 -0.0347283 -0.0008012  1.2401050 -0.0347288
  0.0026659  0.0586762  1.2558045 -0.0299871 -0.0013155  1.2558058 -0.0299884
  0.0007399  0.0607270  1.2402829 -0.0353284  0.0046604  1.2403000 -0.0353454
  0.0007143  0.0587635  1.2563042 -0.0305134  0.0043297  1.2563187 -0.0305280
  0.0023446  0.0555013  1.2794677 -0.0267984 -0.0015729  1.2794696 -0.0268003
  0.0006282  0.0556516  1.2804073 -0.0276831  0.0036816  1.2804177 -0.0276934
  0.0025543  0.0572897  1.2653152 -0.0311717 -0.0005754  1.2653154 -0.0311719
  0.0006844  0.0574035  1.2658095 -0.0320984  0.0042779  1.2658236 -0.0321125
  0.0021486  0.0543162  1.2881645 -0.0276753  0.0000240  1.2881645 -0.0276753
  0.0018227  0.0528669  1.2994606 -0.0238361 -0.0016239  1.2994626 -0.0238381
  0.0005757  0.0544876  1.2886958 -0.0294361  0.0036828  1.2887061 -0.0294464
  0.0004884  0.0530597  1.3005236 -0.0257584  0.0026159  1.3005288 -0.0257635
  0.0032927  0.0540457  1.2960672 -0.0301452  0.0065904  1.2960999 -0.0301780
  0.0048453  0.0534781  1.2946256 -0.0261979  0.0044436  1.2946405 -0.0262128
  0.0028051  0.0525923  1.3053114 -0.0257509  0.0037091  1.3053218 -0.0257612
  0.0041548  0.0520351  1.3032913 -0.0214824  0.0014085  1.3032928 -0.0214839
  0.0036261  0.0552528  1.2844217 -0.0272529  0.0058250  1.2844475 -0.0272787
  0.0040497  0.0570972  1.2696135 -0.0327847  0.0088112  1.2696731 -0.0328443
  0.0054108  0.0547241  1.2815878 -0.0231528  0.0011126  1.2815888 -0.0231538
  0.0062653  0.0566852  1.2686040 -0.0288218  0.0045694  1.2686201 -0.0288379
  0.0082502  0.0531967  1.2910316 -0.0210093  0.0052245  1.2910524 -0.0210301
  0.0066498  0.0541732  1.2924704 -0.0280223  0.0057104  1.2924951 -0.0280470
  0.0092492  0.0547308  1.2829133 -0.0283774  0.0096177  1.2829838 -0.0284479
  0.0076585  0.0560511  1.2852948 -0.0339020  0.0094972  1.2853632 -0.0339704
  0.0075294  0.0521017  1.3042172 -0.0249115  0.0073401  1.3042578 -0.0249520
  0.0065591  0.0506443  1.3112277 -0.0192356  0.0039169  1.3112392 -0.0192471
  0.0059805  0.0529572  1.3057310 -0.0300498  0.0082794  1.3057823 -0.0301011
  0.0051606  0.0515131  1.3132389 -0.0244518  0.0047401  1.3132557 -0.0244686
  0.0086839  0.0514322  1.3185769 -0.0303001  0.0098961  1.3186495 -0.0303727
  0.0102892  0.0504588  1.3172812 -0.0234542  0.0094592  1.3173479 -0.0235209
  0.0076682  0.0498839  1.3260817 -0.0233833  0.0057908  1.3261065 -0.0234081
  0.0092999  0.0486753  1.3242313 -0.0175965  0.0057353  1.3242558 -0.0176210
  0.0094040  0.0525194  1.3053170 -0.0260438  0.0077033  1.3053615 -0.0260883
  0.0103554  0.0539413  1.2987409 -0.0315832  0.0110181  1.2988322 -0.0316744
  0.0109557  0.0516457  1.3039904 -0.0209339  0.0069431  1.3040268 -0.0209703
  0.0117872  0.0531047  1.2972049 -0.0261892  0.0102578  1.2972844 -0.0262687
  0.0056011  0.0476029  1.3429484 -0.0214681  0.0044105  1.3429627 -0.0214823
  0.0068422  0.0488578  1.3404781 -0.0278058  0.0068035  1.3405119 -0.0278396
  0.0068769  0.0464757  1.3444290 -0.0146433  0.0063318  1.3444585 -0.0146728
  0.0083856  0.0476080  1.3418585 -0.0216445  0.0083712  1.3419099 -0.0216959
  0.0047092  0.0483931  1.3275870 -0.0172422  0.0034902  1.3275961 -0.0172513
  0.0035483  0.0494250  1.3274901 -0.0224461  0.0023544  1.3274943 -0.0224502
  0.0058034  0.0496506  1.3244437 -0.0224814  0.0059151  1.3244697 -0.0225073
  0.0045089  0.0505667  1.3239855 -0.0281992  0.0050793  1.3240046 -0.0282183
  0.0038694  0.0475335  1.3437881 -0.0212909  0.0036166  1.3437977 -0.0213004
  0.0026692  0.0464425  1.3455329 -0.0149386  0.0016467  1.3455349 -0.0149406
  0.0026475  0.0486080  1.3416532 -0.0278779  0.0015359  1.3416549 -0.0278796
  0.0011468  0.0475174  1.3434403 -0.0214902 -0.0000313  1.3434403 -0.0214902
  0.0047425  0.0467298  1.3581835 -0.0258070  0.0044015  1.3581975 -0.0258210
  0.0059061  0.0456083  1.3594990 -0.0198698  0.0062703  1.3595275 -0.0198983
  0.0036379  0.0455993  1.3605148 -0.0196568  0.0020731  1.3605179 -0.0196599
  0.0047623  0.0443707  1.3616550 -0.0142474  0.0040329  1.3616668 -0.0142592
  0.0014310  0.0502653  1.3237487 -0.0276176 -0.0002992  1.3237488 -0.0276177
  0.0019941  0.0493400  1.3322708 -0.0224872  0.0029619  1.3322773 -0.0224937
  0.0003834  0.0500210  1.3232518 -0.0224518  0.0025990  1.3232568 -0.0224568
  0.0005343  0.0484763  1.3299678 -0.0200818  0.0042235  1.3299810 -0.0200950
  0.0019861  0.0507152  1.3202963 -0.0231685  0.0016676  1.3202984 -0.0231706
  0.0024550  0.0516999  1.3140119 -0.0275547  0.0045974  1.3140276 -0.0275704
  0.0028187  0.0500472  1.3180666 -0.0194176  0.0014230  1.3180681 -0.0194191
  0.0036117  0.0511158  1.3132081 -0.0236825  0.0038995  1.3132194 -0.0236938
  0.0013260  0.0509701  1.3157951 -0.0224236 -0.0014176  1.3157966 -0.0224251
  0.0003553  0.0509986  1.3153549 -0.0247110  0.0017801  1.3153573 -0.0247134
  0.0016023  0.0519703  1.3070681 -0.0255943  0.0001781  1.3070682 -0.0255944
  0.0004293  0.0521248  1.3074696 -0.0271973  0.0026671  1.3074749 -0.0272027
  0.0020129  0.0443028  1.3669635 -0.0199674  0.0020427  1.3669665 -0.0199704
  0.0029065  0.0449490  1.3698718 -0.0232855  0.0011320  1.3698728 -0.0232864
  0.0024360  0.0432982  1.3746239 -0.0155934  0.0049666  1.3746416 -0.0156112
  0.0038325  0.0437518  1.3751228 -0.0192792  0.0035455  1.3751319 -0.0192882
  0.0014653  0.0447637  1.3632127 -0.0148177 -0.0005961  1.3632130 -0.0148179
  0.0003926  0.0450184  1.3639663 -0.0199836  0.0026423  1.3639714 -0.0199886
  0.0020250  0.0457003  1.3539645 -0.0201341  0.0027990  1.3539702 -0.0201398
  0.0005426  0.0465556  1.3565670 -0.0225626  0.0043074  1.3565805 -0.0225760
  0.0013295  0.0440669  1.3713761 -0.0196743 -0.0015497  1.3713778 -0.0196760
  0.0015181  0.0430999  1.3801440 -0.0168299 -0.0005339  1.3801442 -0.0168301
  0.0003562  0.0440688  1.3717804 -0.0183813  0.0017010  1.3717825 -0.0183834
  0.0004068  0.0430116  1.3798425 -0.0159142  0.0022261  1.3798461 -0.0159177
  0.0082150  0.0447048  1.3629199 -0.0146597  0.0089805  1.3629785 -0.0147183
  0.0075774  0.0456992  1.3536830 -0.0204351  0.0053277  1.3537036 -0.0204558
  0.0094047  0.0449842  1.3634036 -0.0202957  0.0059409  1.3634291 -0.0203212
  0.0090722  0.0465701  1.3561905 -0.0232862  0.0039151  1.3562016 -0.0232973
  0.0076067  0.0442218  1.3668185 -0.0198332  0.0058358  1.3668431 -0.0198578
  0.0071345  0.0431816  1.3744816 -0.0150645  0.0026551  1.3744867 -0.0150696
  0.0066736  0.0449363  1.3697784 -0.0236131  0.0065180  1.3698089 -0.0236435
  0.0056992  0.0437229  1.3751095 -0.0192040  0.0039342  1.3751206 -0.0192151
  0.0083600  0.0439590  1.3708078 -0.0201960  0.0093632  1.3708708 -0.0202591
  0.0094847  0.0439554  1.3712049 -0.0187638  0.0054921  1.3712266 -0.0187855
  0.0081184  0.0429157  1.3813675 -0.0167406  0.0080372  1.3814137 -0.0167868
  0.0093709  0.0427305  1.3803360 -0.0159242  0.0047810  1.3803524 -0.0159406
  0.0076685  0.0407760  1.3983460 -0.0158017  0.0073720  1.3983844 -0.0158401
  0.0079331  0.0420628  1.3881246 -0.0193474  0.0089929  1.3881820 -0.0194049
  0.0090208  0.0405463  1.3973659 -0.0136660  0.0038609  1.3973765 -0.0136765
  0.0092466  0.0418171  1.3869371 -0.0172182  0.0054178  1.3869580 -0.0172391
  0.0066455  0.0409301  1.3943379 -0.0136317  0.0018581  1.3943404 -0.0136341
  0.0052027  0.0411215  1.3954058 -0.0155142  0.0064798  1.3954356 -0.0155440
  0.0068770  0.0422996  1.3810786 -0.0179711  0.0034585  1.3810872 -0.0179796
  0.0053051  0.0427007  1.3835115 -0.0192076  0.0074913  1.3835516 -0.0192476
  0.0065094  0.0399489  1.4025333 -0.0162489  0.0022795  1.4025370 -0.0162525
  0.0063691  0.0386377  1.4138673 -0.0127823  0.0016167  1.4138691 -0.0127841
  0.0051315  0.0400618  1.4032654 -0.0166594  0.0062722  1.4032931 -0.0166871
  0.0050396  0.0387461  1.4146209 -0.0132092  0.0057551  1.4146441 -0.0132324
  0.0075088  0.0398296  1.4055573 -0.0173068  0.0084065  1.4056069 -0.0173564
  0.0088612  0.0396167  1.4044245 -0.0157691  0.0046263  1.4044396 -0.0157842
  0.0073367  0.0385310  1.4164593 -0.0137943  0.0072023  1.4164956 -0.0138306
  0.0086509  0.0383478  1.4154950 -0.0121412  0.0032781  1.4155025 -0.0121488
  0.0027382  0.0411115  1.3942196 -0.0141431  0.0048769  1.3942365 -0.0141600
  0.0026304  0.0424431  1.3808294 -0.0182619  0.0040147  1.3808410 -0.0182734
  0.0041557  0.0411701  1.3943563 -0.0153536  0.0002454  1.3943563 -0.0153536
  0.0041672  0.0427392  1.3827888 -0.0188157 -0.0001439  1.3827888 -0.0188158
  0.0017503  0.0410706  1.3956719 -0.0156339 -0.0007830  1.3956724 -0.0156343
  0.0004690  0.0410174  1.3956172 -0.0145736  0.0026566  1.3956222 -0.0145786
  0.0016309  0.0422970  1.3859745 -0.0186457 -0.0015177  1.3859762 -0.0186473
  0.0004370  0.0421940  1.3854439 -0.0176556  0.0021337  1.3854472 -0.0176589
  0.0017910  0.0401502  1.4020057 -0.0168109 -0.0013383  1.4020069 -0.0168122
  0.0017828  0.0388619  1.4131359 -0.0134732 -0.0012844  1.4131371 -0.0134744
  0.0004799  0.0401253  1.4018572 -0.0166435  0.0026931  1.4018623 -0.0166486
  0.0004777  0.0388646  1.4132294 -0.0132322  0.0027666  1.4132348 -0.0132376
  0.0027689  0.0401474  1.4021117 -0.0168164  0.0047166  1.4021274 -0.0168321
  0.0041293  0.0401150  1.4020390 -0.0162315  0.0007117  1.4020393 -0.0162318
  0.0027450  0.0388451  1.4134914 -0.0133916  0.0044119  1.4135050 -0.0134052
  0.0040685  0.0388017  1.4133110 -0.0128223  0.0003001  1.4133111 -0.0128224
  0.0070737  0.0363819  1.4340739 -0.0120315  0.0066496  1.4341045 -0.0120621
  0.0072202  0.0376072  1.4235612 -0.0153486  0.0076126  1.4236014 -0.0153888
  0.0083160  0.0362341  1.4332318 -0.0108349  0.0028329  1.4332374 -0.0108405
  0.0085048  0.0374414  1.4226414 -0.0142269  0.0039373  1.4226522 -0.0142377
  0.0061558  0.0364698  1.4319428 -0.0112446  0.0014818  1.4319443 -0.0112461
  0.0048904  0.0365622  1.4325079 -0.0118835  0.0054458  1.4325284 -0.0119040
  0.0062743  0.0377055  1.4210217 -0.0145950  0.0021450  1.4210249 -0.0145982
  0.0049750  0.0378084  1.4216400 -0.0151961  0.0059998  1.4216651 -0.0152211
  0.0060783  0.0355834  1.4387253 -0.0132277  0.0019019  1.4387278 -0.0132302
  0.0059850  0.0343974  1.4493877 -0.0099802  0.0013701  1.4493890 -0.0099815
  0.0048357  0.0356666  1.4392398 -0.0137014  0.0056570  1.4392618 -0.0137234
  0.0047709  0.0344660  1.4497995 -0.0105003  0.0052211  1.4498182 -0.0105190
  0.0069772  0.0355046  1.4407895 -0.0137991  0.0070725  1.4408239 -0.0138335
  0.0081904  0.0353724  1.4400238 -0.0129417  0.0035067  1.4400323 -0.0129501
  0.0068599  0.0343330  1.4509418 -0.0106468  0.0063080  1.4509690 -0.0106740
  0.0080359  0.0342255  1.4503367 -0.0097023  0.0026070  1.4503413 -0.0097069
  0.0026846  0.0366611  1.4315502 -0.0118512  0.0041579  1.4315622 -0.0118632
  0.0027224  0.0379109  1.4205002 -0.0151795  0.0044441  1.4205140 -0.0151932
  0.0039603  0.0366134  1.4312723 -0.0114771  0.0001444  1.4312723 -0.0114771
  0.0040233  0.0378634  1.4202371 -0.0148097  0.0005078  1.4202373 -0.0148099
  0.0017490  0.0366835  1.4310473 -0.0117367 -0.0012624  1.4310484 -0.0117378
  0.0004686  0.0366973  1.4311123 -0.0118945  0.0027490  1.4311175 -0.0118997
  0.0017716  0.0379330  1.4200101 -0.0150509 -0.0011270  1.4200110 -0.0150517
  0.0004747  0.0379460  1.4200657 -0.0152092  0.0028334  1.4200713 -0.0152148
  0.0017345  0.0357800  1.4378045 -0.0136198 -0.0011898  1.4378055 -0.0136208
  0.0017172  0.0345609  1.4486887 -0.0103532 -0.0012808  1.4486899 -0.0103544
  0.0004647  0.0357933  1.4378898 -0.0136938  0.0027321  1.4378949 -0.0136990
  0.0004601  0.0345724  1.4487591 -0.0104328  0.0026805  1.4487640 -0.0104377
  0.0026603  0.0357586  1.4383221 -0.0136947  0.0042184  1.4383344 -0.0137069
  0.0039199  0.0357135  1.4380336 -0.0134571  0.0003524  1.4380337 -0.0134571
  0.0026315  0.0345428  1.4491035 -0.0104529  0.0040078  1.4491145 -0.0104639
  0.0038723  0.0345050  1.4488697 -0.0101938  0.0000811  1.4488697 -0.0101938
  0.0067247  0.0323530  1.4671890 -0.0092466  0.0061431  1.4672145 -0.0092722
  0.0067922  0.0334885  1.4573146 -0.0122503  0.0066163  1.4573444 -0.0122801
  0.0078361  0.0322935  1.4668801 -0.0086168  0.0025784  1.4668846 -0.0086213
  0.0079410  0.0334006  1.4567893 -0.0117114  0.0031860  1.4567962 -0.0117183
  0.0058891  0.0323892  1.4663558 -0.0089264  0.0013962  1.4663571 -0.0089277
  0.0047178  0.0324285  1.4666434 -0.0090583  0.0051369  1.4666612 -0.0090762
  0.0059343  0.0335415  1.4558958 -0.0120727  0.0016217  1.4558975 -0.0120745
  0.0047393  0.0335984  1.4563238 -0.0121579  0.0052841  1.4563428 -0.0121770
  0.0058897  0.0315516  1.4727349 -0.0113744  0.0012142  1.4727359 -0.0113754
  0.0059363  0.0304158  1.4833348 -0.0081661  0.0016327  1.4833366 -0.0081679
  0.0047257  0.0315776  1.4732051 -0.0105327  0.0049697  1.4732218 -0.0105494
  0.0047687  0.0304227  1.4836284 -0.0073804  0.0053675  1.4836478 -0.0073997
  0.0067079  0.0315279  1.4731794 -0.0106222  0.0059364  1.4732031 -0.0106460
  0.0077792  0.0314893  1.4729358 -0.0104591  0.0028217  1.4729412 -0.0104645
  0.0067294  0.0304094  1.4829136 -0.0077070  0.0059028  1.4829370 -0.0077304
  0.0077289  0.0303991  1.4828981 -0.0074583  0.0025592  1.4829025 -0.0074627
  0.0095976  0.0314087  1.4734598 -0.0099991  0.0043793  1.4734727 -0.0100121
  0.0094373  0.0303775  1.4829329 -0.0069727  0.0034105  1.4829407 -0.0069805
  0.0085535  0.0314573  1.4735030 -0.0110772  0.0073878  1.4735397 -0.0111139
  0.0084544  0.0303905  1.4826705 -0.0082200  0.0066479  1.4827001 -0.0082496
  0.0103724  0.0313747  1.4740305 -0.0118563  0.0084736  1.4740788 -0.0119046
  0.0114452  0.0313303  1.4742007 -0.0099806  0.0048542  1.4742166 -0.0099965
  0.0102129  0.0303683  1.4830694 -0.0088960  0.0073734  1.4831059 -0.0089325
  0.0113490  0.0303565  1.4835381 -0.0070189  0.0039082  1.4835483 -0.0070291
  0.0104850  0.0321092  1.4685923 -0.0095690  0.0079195  1.4686347 -0.0096114
  0.0106330  0.0331094  1.4601539 -0.0123038  0.0088817  1.4602075 -0.0123574
  0.0115246  0.0320332  1.4684211 -0.0081351  0.0047968  1.4684366 -0.0081507
  0.0116455  0.0329796  1.4594765 -0.0110048  0.0057551  1.4594990 -0.0110273
  0.0097111  0.0321655  1.4676605 -0.0082079  0.0037030  1.4676698 -0.0082172
  0.0086363  0.0322433  1.4678977 -0.0095312  0.0070323  1.4679312 -0.0095647
  0.0098606  0.0332016  1.4581923 -0.0112450  0.0047021  1.4582073 -0.0112601
  0.0087632  0.0333237  1.4587842 -0.0124195  0.0079100  1.4588267 -0.0124620
  0.0102470  0.0350500  1.4423385 -0.0124176  0.0053076  1.4423579 -0.0124370
  0.0100042  0.0339746  1.4518118 -0.0091818  0.0038983  1.4518222 -0.0091922
  0.0090665  0.0352506  1.4433575 -0.0138685  0.0084847  1.4434069 -0.0139179
  0.0088785  0.0341295  1.4525712 -0.0108188  0.0072943  1.4526076 -0.0108551
  0.0110525  0.0348686  1.4475774 -0.0138132  0.0096141  1.4476406 -0.0138765
  0.0120726  0.0345734  1.4463290 -0.0116736  0.0073817  1.4463664 -0.0117110
  0.0107850  0.0338488  1.4545352 -0.0111055  0.0080844  1.4545797 -0.0111501
  0.0117923  0.0336602  1.4539844 -0.0085822  0.0055914  1.4540058 -0.0086036
  0.0112939  0.0356604  1.4396754 -0.0117150  0.0085525  1.4397258 -0.0117654
  0.0116859  0.0368040  1.4313147 -0.0153707  0.0107978  1.4313953 -0.0154513
  0.0124129  0.0353014  1.4379478 -0.0082641  0.0057295  1.4379705 -0.0082868
  0.0130625  0.0363774  1.4299825 -0.0125150  0.0084688  1.4300322 -0.0125647
  0.0104376  0.0358738  1.4352469 -0.0103043  0.0040487  1.4352583 -0.0103156
  0.0092174  0.0360980  1.4365446 -0.0120411  0.0077069  1.4365856 -0.0120821
  0.0107156  0.0370490  1.4250011 -0.0138444  0.0056427  1.4250232 -0.0138666
  0.0094415  0.0372918  1.4263124 -0.0154814  0.0091308  1.4263702 -0.0155392
  0.0136925  0.0345350  1.4448263 -0.0080835  0.0089344  1.4448812 -0.0081384
  0.0130557  0.0349999  1.4430197 -0.0128317  0.0075522  1.4430589 -0.0128709
  0.0143690  0.0349384  1.4436872 -0.0130162  0.0097677  1.4437527 -0.0130817
  0.0137815  0.0358775  1.4426438 -0.0152322  0.0085067  1.4426935 -0.0152818
  0.0134155  0.0341300  1.4481735 -0.0120868  0.0077536  1.4482147 -0.0121279
  0.0133349  0.0334268  1.4560363 -0.0095152  0.0067266  1.4560671 -0.0095461
  0.0127057  0.0343755  1.4501767 -0.0132727  0.0101388  1.4502469 -0.0133430
  0.0124756  0.0335472  1.4564470 -0.0109851  0.0089793  1.4565020 -0.0110400
  0.0139350  0.0341090  1.4485249 -0.0120773  0.0097821  1.4485904 -0.0121428
  0.0146446  0.0342971  1.4501792 -0.0126860  0.0072294  1.4502149 -0.0127217
  0.0139605  0.0334099  1.4561935 -0.0097362  0.0103071  1.4562660 -0.0098087
  0.0148103  0.0334840  1.4564550 -0.0106195  0.0080195  1.4564988 -0.0106634
  0.0139843  0.0319422  1.4688057 -0.0091283  0.0103484  1.4688781 -0.0092007
  0.0139737  0.0328293  1.4606090 -0.0115878  0.0102971  1.4606810 -0.0116598
  0.0149499  0.0319569  1.4689184 -0.0091400  0.0074234  1.4689556 -0.0091773
  0.0148921  0.0328570  1.4608581 -0.0115608  0.0072254  1.4608936 -0.0115963
  0.0132662  0.0319513  1.4689622 -0.0090536  0.0061399  1.4689877 -0.0090791
  0.0122698  0.0319909  1.4692014 -0.0092873  0.0091300  1.4692578 -0.0093437
  0.0132949  0.0328430  1.4605610 -0.0115836  0.0063499  1.4605884 -0.0116109
  0.0123588  0.0329082  1.4610861 -0.0117499  0.0095164  1.4611476 -0.0118114
  0.0132767  0.0312815  1.4741251 -0.0113855  0.0055984  1.4741462 -0.0114066
  0.0133341  0.0303434  1.4829871 -0.0087021  0.0059443  1.4830108 -0.0087258
  0.0122233  0.0313053  1.4745263 -0.0107776  0.0093235  1.4745848 -0.0108362
  0.0121853  0.0303498  1.4831886 -0.0081948  0.0093556  1.4832473 -0.0082535
  0.0140185  0.0312757  1.4737631 -0.0101920  0.0096307  1.4738256 -0.0102545
  0.0149920  0.0312836  1.4736497 -0.0107786  0.0066629  1.4736796 -0.0108085
  0.0141015  0.0303418  1.4821944 -0.0076139  0.0101031  1.4822629 -0.0076825
  0.0150492  0.0303439  1.4820266 -0.0082324  0.0070507  1.4820599 -0.0082658
  0.0167073  0.0313168  1.4729778 -0.0104669  0.0077671  1.4730184 -0.0105075
  0.0166685  0.0303528  1.4816907 -0.0078566  0.0076782  1.4817303 -0.0078962
  0.0157124  0.0312946  1.4728152 -0.0104290  0.0107615  1.4728933 -0.0105071
  0.0157370  0.0303469  1.4816628 -0.0077724  0.0108762  1.4817422 -0.0078519
  0.0174496  0.0313005  1.4735787 -0.0109748  0.0122610  1.4736800 -0.0110760
  0.0184828  0.0312337  1.4734325 -0.0097067  0.0091623  1.4734891 -0.0097633
  0.0173828  0.0303485  1.4815627 -0.0084977  0.0116166  1.4816533 -0.0085882
  0.0184028  0.0303306  1.4818438 -0.0070745  0.0084300  1.4818915 -0.0071222
  0.0174616  0.0320320  1.4672508 -0.0081248  0.0124026  1.4673550 -0.0082291
  0.0174275  0.0330785  1.4562665 -0.0114321  0.0121347  1.4563668 -0.0115324
  0.0185669  0.0319973  1.4667430 -0.0086808  0.0082170  1.4667888 -0.0087266
  0.0187166  0.0331806  1.4569709 -0.0115705  0.0085230  1.4570204 -0.0116200
  0.0166864  0.0320273  1.4679388 -0.0093125  0.0082683  1.4679850 -0.0093588
  0.0156739  0.0319797  1.4678089 -0.0084863  0.0113462  1.4678961 -0.0085735
  0.0165906  0.0330044  1.4597696 -0.0118413  0.0076823  1.4598097 -0.0118814
  0.0155933  0.0329039  1.4591612 -0.0111542  0.0107583  1.4592399 -0.0112329
  0.0160750  0.0354059  1.4405076 -0.0107472  0.0093182  1.4405675 -0.0108070
  0.0150073  0.0351717  1.4389556 -0.0093253  0.0126293  1.4390658 -0.0094354
  0.0158392  0.0364328  1.4316125 -0.0137990  0.0079713  1.4316565 -0.0138430
  0.0145273  0.0362615  1.4310336 -0.0123483  0.0108763  1.4311156 -0.0124302
  0.0162447  0.0346775  1.4478757 -0.0130743  0.0077751  1.4479171 -0.0131157
  0.0164723  0.0337145  1.4545131 -0.0106710  0.0089837  1.4545682 -0.0107260
  0.0152635  0.0344494  1.4468496 -0.0114718  0.0100971  1.4469195 -0.0115417
  0.0154833  0.0335656  1.4540573 -0.0088390  0.0114386  1.4541467 -0.0089285
  0.0169929  0.0348718  1.4422515 -0.0125076  0.0118323  1.4423478 -0.0126038
  0.0180559  0.0351747  1.4438803 -0.0146453  0.0090555  1.4439365 -0.0147016
  0.0173019  0.0338395  1.4509736 -0.0091304  0.0136971  1.4511021 -0.0092589
  0.0185796  0.0340320  1.4513880 -0.0114056  0.0110363  1.4514713 -0.0114889
  0.0168103  0.0355900  1.4346203 -0.0111250  0.0137392  1.4347508 -0.0112556
  0.0166206  0.0365197  1.4293407 -0.0129587  0.0128971  1.4294561 -0.0130740
  0.0177514  0.0358590  1.4357306 -0.0120483  0.0120105  1.4358302 -0.0121479
  0.0174434  0.0365859  1.4293598 -0.0145751  0.0105370  1.4294367 -0.0146520
  0.0197047  0.0361285  1.4363405 -0.0162151  0.0122148  1.4364432 -0.0163178
  0.0204053  0.0352225  1.4396813 -0.0120022  0.0144296  1.4398247 -0.0121456
  0.0187825  0.0355114  1.4361720 -0.0118455  0.0119276  1.4362703 -0.0119438
  0.0194112  0.0344026  1.4392397 -0.0085639  0.0139838  1.4393748 -0.0086989
  0.0203752  0.0365526  1.4269549 -0.0123822  0.0125796  1.4270648 -0.0124922
  0.0212846  0.0370942  1.4273594 -0.0153648  0.0124514  1.4274669 -0.0154723
  0.0210133  0.0357272  1.4299816 -0.0091964  0.0143286  1.4301242 -0.0093391
  0.0216805  0.0362863  1.4310725 -0.0123030  0.0145071  1.4312183 -0.0124488
  0.0198495  0.0371804  1.4189881 -0.0092598  0.0146149  1.4191377 -0.0094094
  0.0190513  0.0380704  1.4159122 -0.0147079  0.0121769  1.4160159 -0.0148115
  0.0208489  0.0378639  1.4183637 -0.0148786  0.0154468  1.4185302 -0.0150451
  0.0200541  0.0391591  1.4159544 -0.0184652  0.0133370  1.4160784 -0.0185892
  0.0191904  0.0367247  1.4274616 -0.0134043  0.0146130  1.4276098 -0.0135525
  0.0183892  0.0361630  1.4281006 -0.0102959  0.0139877  1.4282366 -0.0104319
  0.0184857  0.0374475  1.4262552 -0.0162207  0.0135092  1.4263817 -0.0163472
  0.0179432  0.0368345  1.4266925 -0.0132006  0.0124132  1.4267995 -0.0133076
  0.0219926  0.0337905  1.4508523 -0.0111630  0.0143523  1.4509931 -0.0113039
  0.0211598  0.0328868  1.4529869 -0.0070617  0.0125872  1.4530954 -0.0071702
  0.0210183  0.0345960  1.4503959 -0.0154133  0.0134251  1.4505188 -0.0155363
  0.0200482  0.0336993  1.4524396 -0.0112410  0.0118302  1.4525352 -0.0113366
  0.0227413  0.0331849  1.4633034 -0.0142341  0.0148611  1.4634529 -0.0143836
  0.0238127  0.0323359  1.4627781 -0.0098640  0.0153500  1.4629381 -0.0100240
  0.0219436  0.0321569  1.4671588 -0.0094213  0.0123291  1.4672618 -0.0095242
  0.0229733  0.0309752  1.4660511 -0.0062456  0.0131870  1.4661692 -0.0063637
  0.0232661  0.0339972  1.4515093 -0.0097575  0.0151965  1.4516673 -0.0099156
  0.0239019  0.0351883  1.4422120 -0.0146994  0.0183520  1.4424431 -0.0149305
  0.0244689  0.0333094  1.4479556 -0.0068222  0.0130940  1.4480734 -0.0069400
  0.0254223  0.0346083  1.4403740 -0.0114430  0.0160725  1.4405519 -0.0116209
  0.0224921  0.0344975  1.4385530 -0.0089771  0.0129243  1.4386683 -0.0090925
  0.0215806  0.0351766  1.4401552 -0.0109238  0.0133576  1.4402782 -0.0110468
  0.0230242  0.0355252  1.4347166 -0.0114527  0.0145245  1.4348624 -0.0115985
  0.0221466  0.0358660  1.4353782 -0.0148094  0.0156468  1.4355470 -0.0149782
  0.0206246  0.0311498  1.4723501 -0.0107690  0.0124514  1.4724547 -0.0108735
  0.0213765  0.0316116  1.4752201 -0.0125460  0.0109437  1.4753006 -0.0126264
  0.0209549  0.0303081  1.4807018 -0.0069188  0.0148556  1.4808501 -0.0070672
  0.0222076  0.0304318  1.4804442 -0.0095300  0.0129050  1.4805559 -0.0096417
  0.0201799  0.0315692  1.4674818 -0.0062647  0.0100642  1.4675505 -0.0063335
  0.0192953  0.0318733  1.4690566 -0.0100073  0.0125243  1.4691627 -0.0101134
  0.0206741  0.0322916  1.4600997 -0.0107032  0.0129065  1.4602129 -0.0108164
  0.0195865  0.0329698  1.4627279 -0.0126939  0.0142297  1.4628652 -0.0128311
  0.0200348  0.0310290  1.4739974 -0.0110534  0.0097313  1.4740612 -0.0111171
  0.0201328  0.0302757  1.4818005 -0.0086666  0.0102216  1.4818706 -0.0087367
  0.0191755  0.0311609  1.4755136 -0.0101908  0.0129057  1.4756257 -0.0103029
  0.0191396  0.0303111  1.4821898 -0.0082008  0.0129233  1.4823019 -0.0083128
  0.0259700  0.0320002  1.4599274 -0.0054520  0.0169573  1.4601236 -0.0056482
  0.0251934  0.0327743  1.4558803 -0.0111677  0.0143314  1.4560203 -0.0113077
  0.0269756  0.0325334  1.4597776 -0.0110821  0.0169799  1.4599736 -0.0112781
  0.0262459  0.0338969  1.4567826 -0.0141245  0.0150104  1.4569358 -0.0142777
  0.0255134  0.0314235  1.4666321 -0.0110996  0.0142001  1.4667685 -0.0112360
  0.0252715  0.0303814  1.4789910 -0.0066242  0.0119444  1.4790870 -0.0067202
  0.0245555  0.0318639  1.4704469 -0.0127754  0.0173136  1.4706490 -0.0129774
  0.0238650  0.0304994  1.4789351 -0.0091064  0.0150226  1.4790868 -0.0092581
  0.0262523  0.0313540  1.4667364 -0.0111806  0.0170417  1.4669329 -0.0113771
  0.0273132  0.0316044  1.4690990 -0.0113569  0.0131858  1.4692164 -0.0114743
  0.0262470  0.0303628  1.4776379 -0.0079148  0.0173515  1.4778405 -0.0081174
  0.0275058  0.0304299  1.4779046 -0.0086021  0.0139545  1.4780356 -0.0087331
  0.0242572  0.0375789  1.4182625 -0.0158027  0.0192469  1.4185208 -0.0160609
  0.0258532  0.0375396  1.4185753 -0.0136954  0.0142687  1.4187174 -0.0138375
  0.0241675  0.0361480  1.4338667 -0.0109840  0.0180616  1.4340924 -0.0112097
  0.0257932  0.0357418  1.4310769 -0.0098863  0.0134459  1.4312024 -0.0100117
  0.0242292  0.0386652  1.4089496 -0.0123134  0.0210210  1.4092605 -0.0126243
  0.0240630  0.0402021  1.3953472 -0.0165051  0.0201125  1.3956337 -0.0167916
  0.0258251  0.0387835  1.4096309 -0.0131578  0.0162016  1.4098154 -0.0133423
  0.0256882  0.0403838  1.3965206 -0.0171755  0.0154290  1.3966890 -0.0173439
  0.0231315  0.0385146  1.4130413 -0.0126229  0.0144803  1.4131884 -0.0127699
  0.0217283  0.0382214  1.4113597 -0.0099995  0.0187736  1.4116076 -0.0102474
  0.0228242  0.0400134  1.4015103 -0.0166424  0.0126150  1.4016225 -0.0167546
  0.0210651  0.0396798  1.4003549 -0.0144644  0.0160990  1.4005381 -0.0146475
  0.0232387  0.0375297  1.4212722 -0.0138622  0.0129710  1.4213894 -0.0139794
  0.0232242  0.0363377  1.4284558 -0.0117144  0.0131704  1.4285762 -0.0118348
  0.0220519  0.0373560  1.4204044 -0.0135159  0.0154902  1.4205717 -0.0136832
  0.0222729  0.0364499  1.4298620 -0.0104881  0.0165926  1.4300531 -0.0106793
  0.0287435  0.0390317  1.4068343 -0.0128272  0.0177515  1.4070562 -0.0130492
  0.0270347  0.0388817  1.4057131 -0.0127777  0.0227162  1.4060767 -0.0131414
  0.0285950  0.0407257  1.3930673 -0.0169900  0.0171857  1.3932767 -0.0171994
  0.0269025  0.0405241  1.3914934 -0.0170745  0.0221677  1.3918421 -0.0174233
  0.0288513  0.0377687  1.4169697 -0.0155443  0.0159888  1.4171481 -0.0157227
  0.0289972  0.0360121  1.4328448 -0.0107084  0.0167897  1.4330400 -0.0109037
  0.0270842  0.0375905  1.4156283 -0.0150394  0.0216483  1.4159558 -0.0153669
  0.0270874  0.0357054  1.4307145 -0.0105122  0.0219807  1.4310497 -0.0108474
  0.0301410  0.0379177  1.4109928 -0.0145666  0.0231947  1.4113701 -0.0149439
  0.0318973  0.0381468  1.4125263 -0.0151172  0.0182362  1.4127592 -0.0153501
  0.0303288  0.0362026  1.4253398 -0.0101520  0.0241320  1.4257453 -0.0105575
  0.0320570  0.0364163  1.4268016 -0.0107419  0.0190830  1.4270549 -0.0109952
  0.0300139  0.0391742  1.4012251 -0.0123475  0.0253771  1.4016805 -0.0128029
  0.0298547  0.0408917  1.3869394 -0.0167292  0.0245159  1.3873675 -0.0171573
  0.0317759  0.0394135  1.4028367 -0.0129121  0.0203889  1.4031303 -0.0132057
  0.0316040  0.0411437  1.3886793 -0.0172614  0.0195023  1.3889497 -0.0175319
  0.0294604  0.0331491  1.4548504 -0.0088549  0.0163385  1.4550327 -0.0090372
  0.0279108  0.0328412  1.4529372 -0.0065508  0.0211606  1.4532439 -0.0068575
  0.0291604  0.0347743  1.4418182 -0.0132392  0.0145175  1.4419630 -0.0133840
  0.0273089  0.0344328  1.4403780 -0.0112444  0.0185969  1.4406162 -0.0114826
  0.0296310  0.0320144  1.4649348 -0.0114296  0.0140485  1.4650685 -0.0115633
  0.0297971  0.0305398  1.4755782 -0.0080151  0.0152215  1.4757344 -0.0081713
  0.0282185  0.0317813  1.4638357 -0.0097878  0.0176332  1.4640467 -0.0099988
  0.0284570  0.0304773  1.4757483 -0.0058133  0.0192302  1.4759979 -0.0060628
  0.0307375  0.0321406  1.4590630 -0.0114130  0.0205467  1.4593500 -0.0117000
  0.0323480  0.0322522  1.4600904 -0.0108402  0.0157910  1.4602599 -0.0110097
  0.0308485  0.0305736  1.4736547 -0.0070558  0.0207992  1.4739468 -0.0073479
  0.0323808  0.0306035  1.4740264 -0.0066649  0.0157836  1.4741946 -0.0068332
  0.0306336  0.0333187  1.4496605 -0.0085398  0.0228954  1.4500199 -0.0088992
  0.0304608  0.0349703  1.4349729 -0.0130121  0.0221154  1.4353106 -0.0133498
  0.0322894  0.0334742  1.4508435 -0.0088242  0.0177268  1.4510587 -0.0090394
  0.0321620  0.0351643  1.4364089 -0.0132013  0.0171075  1.4366107 -0.0134032
  0.0349473  0.0385470  1.4077620 -0.0150691  0.0205567  1.4080589 -0.0153660
  0.0350716  0.0367642  1.4224328 -0.0106325  0.0211099  1.4227437 -0.0109434
  0.0331852  0.0383154  1.4060127 -0.0150882  0.0256332  1.4064749 -0.0155504
  0.0333278  0.0365667  1.4209295 -0.0105711  0.0262574  1.4214110 -0.0110526
  0.0362484  0.0387183  1.4008374 -0.0154256  0.0280710  1.4013935 -0.0159818
  0.0380409  0.0389548  1.4027502 -0.0149979  0.0228759  1.4031193 -0.0153669
  0.0363593  0.0369072  1.4163730 -0.0107557  0.0284627  1.4169404 -0.0113231
  0.0381336  0.0371006  1.4179654 -0.0104259  0.0231997  1.4183421 -0.0108027
  0.0361543  0.0400421  1.3903791 -0.0129547  0.0302519  1.3910309 -0.0136065
  0.0360082  0.0418477  1.3754244 -0.0174727  0.0296780  1.3760565 -0.0181047
  0.0379616  0.0403086  1.3924438 -0.0127248  0.0250678  1.3928909 -0.0131719
  0.0378375  0.0421530  1.3777434 -0.0171607  0.0245740  1.3781762 -0.0175935
  0.0348436  0.0398509  1.3977642 -0.0128934  0.0227373  1.3981306 -0.0132598
  0.0330701  0.0395948  1.3959290 -0.0126417  0.0277827  1.3964768 -0.0131894
  0.0346847  0.0416303  1.3835248 -0.0172352  0.0219911  1.3838699 -0.0175804
  0.0328981  0.0413416  1.3814607 -0.0170605  0.0269788  1.3819810 -0.0175807
  0.0364985  0.0337791  1.4428735 -0.0087476  0.0265819  1.4433601 -0.0092342
  0.0364263  0.0355837  1.4267807 -0.0135725  0.0263837  1.4272638 -0.0140556
  0.0382607  0.0338904  1.4438663 -0.0083824  0.0212051  1.4441759 -0.0086920
  0.0381925  0.0357436  1.4281871 -0.0130836  0.0210295  1.4284939 -0.0133903
  0.0352284  0.0336945  1.4472475 -0.0085837  0.0193837  1.4475055 -0.0088418
  0.0335205  0.0335750  1.4462641 -0.0086664  0.0246433  1.4466814 -0.0090837
  0.0351469  0.0354639  1.4322710 -0.0130863  0.0190610  1.4325224 -0.0133376
  0.0334176  0.0352965  1.4309057 -0.0132868  0.0242388  1.4313124 -0.0136935
  0.0352668  0.0324030  1.4569275 -0.0115524  0.0175091  1.4571363 -0.0117611
  0.0352902  0.0306439  1.4722359 -0.0069607  0.0175597  1.4724444 -0.0071691
  0.0335616  0.0323225  1.4561788 -0.0118313  0.0229275  1.4565368 -0.0121893
  0.0335710  0.0306223  1.4720254 -0.0070777  0.0229366  1.4723810 -0.0074333
  0.0365357  0.0324595  1.4530898 -0.0119750  0.0245396  1.4535007 -0.0123860
  0.0382974  0.0325333  1.4539622 -0.0110594  0.0190435  1.4542097 -0.0113069
  0.0365652  0.0306590  1.4695707 -0.0070421  0.0243695  1.4699728 -0.0074442
  0.0383294  0.0306788  1.4699619 -0.0062711  0.0188834  1.4702034 -0.0065126
  0.0294959  0.0438099  1.3635254 -0.0188181  0.0253312  1.3639894 -0.0192822
  0.0312339  0.0441167  1.3654961 -0.0196160  0.0206115  1.3658027 -0.0199226
  0.0297159  0.0421339  1.3771401 -0.0145542  0.0264804  1.3776437 -0.0150578
  0.0314587  0.0424039  1.3788181 -0.0154436  0.0217361  1.3791569 -0.0157824
  0.0293102  0.0450213  1.3537651 -0.0165601  0.0275462  1.3543186 -0.0171136
  0.0290229  0.0466549  1.3409835 -0.0207578  0.0259723  1.3414786 -0.0212530
  0.0310417  0.0453567  1.3555901 -0.0181399  0.0231402  1.3559798 -0.0185296
  0.0307416  0.0470315  1.3431371 -0.0222364  0.0215927  1.3434785 -0.0225778
  0.0280664  0.0447922  1.3612719 -0.0177318  0.0206088  1.3615798 -0.0180397
  0.0263995  0.0445019  1.3596680 -0.0163390  0.0249477  1.3601201 -0.0167912
  0.0277895  0.0464000  1.3490296 -0.0217116  0.0191910  1.3492982 -0.0219802
  0.0261384  0.0460803  1.3471717 -0.0203890  0.0235296  1.3475764 -0.0207938
  0.0282465  0.0435998  1.3706508 -0.0194140  0.0182394  1.3708901 -0.0196533
  0.0284618  0.0419497  1.3836282 -0.0153506  0.0193315  1.3838953 -0.0156177
  0.0265709  0.0433327  1.3689572 -0.0185655  0.0228568  1.3693336 -0.0189419
  0.0267782  0.0417168  1.3822160 -0.0144168  0.0239625  1.3826270 -0.0148278
  0.0284214  0.0494098  1.3198128 -0.0225747  0.0263303  1.3203290 -0.0230909
  0.0300865  0.0498529  1.3219875 -0.0248105  0.0225130  1.3223637 -0.0251868
  0.0287848  0.0478308  1.3313072 -0.0184882  0.0283059  1.3319006 -0.0190815
  0.0304856  0.0482362  1.3331401 -0.0208014  0.0244914  1.3335830 -0.0212443
  0.0281336  0.0505395  1.3102966 -0.0206575  0.0286554  1.3109133 -0.0212742
  0.0277106  0.0520470  1.3004079 -0.0244881  0.0265278  1.3009389 -0.0250191
  0.0297711  0.0509962  1.3120514 -0.0233797  0.0254578  1.3125365 -0.0238648
  0.0293086  0.0525033  1.3022688 -0.0272469  0.0232714  1.3026760 -0.0276541
  0.0269548  0.0502330  1.3188088 -0.0227388  0.0224118  1.3191831 -0.0231131
  0.0253718  0.0498522  1.3171932 -0.0201705  0.0259448  1.3176964 -0.0206736
  0.0265588  0.0517283  1.3083800 -0.0266223  0.0203717  1.3086908 -0.0269331
  0.0250101  0.0513139  1.3064527 -0.0241202  0.0239043  1.3068820 -0.0245496
  0.0272241  0.0491157  1.3280963 -0.0240553  0.0200137  1.3283925 -0.0243515
  0.0275638  0.0475585  1.3396122 -0.0201248  0.0217199  1.3399591 -0.0204717
  0.0256180  0.0487553  1.3261481 -0.0223183  0.0240456  1.3265767 -0.0227469
  0.0259290  0.0472200  1.3378925 -0.0183440  0.0257240  1.3383803 -0.0188318
  0.0237108  0.0429211  1.3736779 -0.0178937  0.0205264  1.3739806 -0.0181964
  0.0253556  0.0431509  1.3749710 -0.0191621  0.0160067  1.3751547 -0.0193459
  0.0239241  0.0413424  1.3865923 -0.0138013  0.0217548  1.3869302 -0.0141392
  0.0255624  0.0415540  1.3877548 -0.0151200  0.0171981  1.3879656 -0.0153308
  0.0235588  0.0440645  1.3649196 -0.0159367  0.0223880  1.3652825 -0.0162996
  0.0233568  0.0456095  1.3525496 -0.0198906  0.0211107  1.3528743 -0.0202153
  0.0251917  0.0443069  1.3661544 -0.0174604  0.0181132  1.3663915 -0.0176975
  0.0249507  0.0458685  1.3539891 -0.0213917  0.0167587  1.3541933 -0.0215959
  0.0223858  0.0439402  1.3692787 -0.0170705  0.0151669  1.3694446 -0.0172364
  0.0208139  0.0438432  1.3687084 -0.0166571  0.0194770  1.3689822 -0.0169309
  0.0222291  0.0454564  1.3572777 -0.0207293  0.0145153  1.3574306 -0.0208822
  0.0207418  0.0452970  1.3560905 -0.0204720  0.0190288  1.3563535 -0.0207350
  0.0224999  0.0427887  1.3783452 -0.0192732  0.0138122  1.3784817 -0.0194097
  0.0226550  0.0411587  1.3933578 -0.0146567  0.0147672  1.3935126 -0.0148115
  0.0208365  0.0426564  1.3775153 -0.0182896  0.0192182  1.3777798 -0.0185542
  0.0208261  0.0408681  1.3914932 -0.0141028  0.0196159  1.3917669 -0.0143765
  0.0228770  0.0482124  1.3318633 -0.0222851  0.0215610  1.3322065 -0.0226283
  0.0244532  0.0485133  1.3334944 -0.0237537  0.0175301  1.3337208 -0.0239800
  0.0231741  0.0467210  1.3434872 -0.0184219  0.0230889  1.3438785 -0.0188133
  0.0247528  0.0469956  1.3449240 -0.0199584  0.0190254  1.3451891 -0.0202235
  0.0226664  0.0492924  1.3229835 -0.0209080  0.0237953  1.3234047 -0.0213292
  0.0223882  0.0507517  1.3115112 -0.0246888  0.0223529  1.3118850 -0.0250627
  0.0242227  0.0496002  1.3246920 -0.0222269  0.0198422  1.3249843 -0.0225192
  0.0238926  0.0510522  1.3133017 -0.0260449  0.0182681  1.3135508 -0.0262940
  0.0215405  0.0490524  1.3294673 -0.0217845  0.0170926  1.3296835 -0.0220007
  0.0200208  0.0487045  1.3276072 -0.0190977  0.0212853  1.3279435 -0.0194341
  0.0211869  0.0505392  1.3174752 -0.0260911  0.0149672  1.3176419 -0.0262578
  0.0194095  0.0502591  1.3166307 -0.0234503  0.0187862  1.3168940 -0.0237136
  0.0217759  0.0479806  1.3396482 -0.0235324  0.0149435  1.3398120 -0.0236962
  0.0220657  0.0465390  1.3490772 -0.0202200  0.0165212  1.3492765 -0.0204193
  0.0203441  0.0476481  1.3381918 -0.0213904  0.0181895  1.3384352 -0.0216337
  0.0206159  0.0463166  1.3483909 -0.0177993  0.0199069  1.3486809 -0.0180893
  0.0180690  0.0428610  1.3787809 -0.0201968  0.0171335  1.3789907 -0.0204066
  0.0196492  0.0426758  1.3780085 -0.0175668  0.0121379  1.3781141 -0.0176723
  0.0178248  0.0413655  1.3934665 -0.0153274  0.0152103  1.3936307 -0.0154916
  0.0195319  0.0409236  1.3909138 -0.0135271  0.0108707  1.3909980 -0.0136112
  0.0182010  0.0439116  1.3702927 -0.0174442  0.0171990  1.3705058 -0.0176574
  0.0183175  0.0452865  1.3582349 -0.0211116  0.0177835  1.3584641 -0.0213408
  0.0196926  0.0438355  1.3698841 -0.0169905  0.0131056  1.3700079 -0.0171143
  0.0196937  0.0452515  1.3581179 -0.0205208  0.0133312  1.3582468 -0.0206497
  0.0171287  0.0440305  1.3677079 -0.0162116  0.0104213  1.3677864 -0.0162900
  0.0156905  0.0442791  1.3689653 -0.0179501  0.0142387  1.3691115 -0.0180962
  0.0173184  0.0453861  1.3562587 -0.0199434  0.0117941  1.3563597 -0.0200445
  0.0159650  0.0456234  1.3576234 -0.0217805  0.0158453  1.3578054 -0.0219625
  0.0169555  0.0430239  1.3752415 -0.0180001  0.0111699  1.3753311 -0.0180896
  0.0166722  0.0416295  1.3864987 -0.0141492  0.0094836  1.3865629 -0.0142134
  0.0154936  0.0432838  1.3765116 -0.0200769  0.0150973  1.3766748 -0.0202401
  0.0152304  0.0419089  1.3879675 -0.0161855  0.0134262  1.3880958 -0.0163139
  0.0176622  0.0472817  1.3396844 -0.0216770  0.0141304  1.3398310 -0.0218237
  0.0174613  0.0462572  1.3496685 -0.0179720  0.0120689  1.3497750 -0.0180784
  0.0166784  0.0477275  1.3426881 -0.0241472  0.0167211  1.3428926 -0.0243517
  0.0162297  0.0465474  1.3505879 -0.0207119  0.0146388  1.3507442 -0.0208681
  0.0184022  0.0472047  1.3407241 -0.0220997  0.0170863  1.3409383 -0.0223139
  0.0194401  0.0474402  1.3427693 -0.0227000  0.0134206  1.3429012 -0.0228319
  0.0183714  0.0461688  1.3515895 -0.0188767  0.0174442  1.3518115 -0.0190987
  0.0196261  0.0462174  1.3516039 -0.0198992  0.0142688  1.3517523 -0.0200477
  0.0181011  0.0478511  1.3349941 -0.0168489  0.0160405  1.3351844 -0.0170392
  0.0172476  0.0485815  1.3318483 -0.0229774  0.0137465  1.3319878 -0.0231168
  0.0190992  0.0483826  1.3340152 -0.0233679  0.0166098  1.3342184 -0.0235711
  0.0183540  0.0497345  1.3318746 -0.0263442  0.0147168  1.3320341 -0.0265037
  0.0131309  0.0447529  1.3655816 -0.0187615  0.0125385  1.3656951 -0.0188751
  0.0134595  0.0462016  1.3546211 -0.0227064  0.0145051  1.3547738 -0.0228591
  0.0146193  0.0444727  1.3644196 -0.0159603  0.0086764  1.3644741 -0.0160148
  0.0149310  0.0458419  1.3528264 -0.0201355  0.0107599  1.3529107 -0.0202198
  0.0120058  0.0449043  1.3621484 -0.0159934  0.0067420  1.3621814 -0.0160264
  0.0104205  0.0450376  1.3627426 -0.0181762  0.0123780  1.3628535 -0.0182872
  0.0122232  0.0464506  1.3476216 -0.0206447  0.0082547  1.3476714 -0.0206945
  0.0103171  0.0467714  1.3492480 -0.0221078  0.0128485  1.3493683 -0.0222281
  0.0118704  0.0438339  1.3711915 -0.0187056  0.0067561  1.3712243 -0.0187384
  0.0117178  0.0424559  1.3819317 -0.0154276  0.0061460  1.3819587 -0.0154546
  0.0104254  0.0439219  1.3717064 -0.0190869  0.0107212  1.3717891 -0.0191696
  0.0103354  0.0426073  1.3830385 -0.0156508  0.0102448  1.3831135 -0.0157259
  0.0129402  0.0437124  1.3734088 -0.0202473  0.0133664  1.3735369 -0.0203754
  0.0144177  0.0434683  1.3721029 -0.0185915  0.0092998  1.3721651 -0.0186536
  0.0127476  0.0423183  1.3850965 -0.0164675  0.0120439  1.3852000 -0.0165710
  0.0141788  0.0420935  1.3838460 -0.0147234  0.0078286  1.3838898 -0.0147673
  0.0132051  0.0491900  1.3268372 -0.0232418  0.0104551  1.3269181 -0.0233228
  0.0125445  0.0475990  1.3394613 -0.0172416  0.0066765  1.3394942 -0.0172744
  0.0115006  0.0498580  1.3297216 -0.0276702  0.0137915  1.3298617 -0.0278103
  0.0106065  0.0480630  1.3405373 -0.0221766  0.0102987  1.3406151 -0.0222545
  0.0143550  0.0487226  1.3375951 -0.0255313  0.0156376  1.3377745 -0.0257106
  0.0157922  0.0481136  1.3355134 -0.0215792  0.0134179  1.3356460 -0.0217118
  0.0137874  0.0472653  1.3460766 -0.0213186  0.0129089  1.3461984 -0.0214404
  0.0152453  0.0468175  1.3449056 -0.0167706  0.0103130  1.3449837 -0.0168487
  0.0148615  0.0498097  1.3256609 -0.0227374  0.0139896  1.3258060 -0.0228826
  0.0156778  0.0513225  1.3167379 -0.0284719  0.0176638  1.3169698 -0.0287038
  0.0163795  0.0491063  1.3235919 -0.0168443  0.0119659  1.3236987 -0.0169511
  0.0174372  0.0505222  1.3150052 -0.0233237  0.0158843  1.3151937 -0.0235122
  0.0137179  0.0503332  1.3141462 -0.0193966  0.0089881  1.3142068 -0.0194572
  0.0121116  0.0510599  1.3159601 -0.0243726  0.0108389  1.3160477 -0.0244602
  0.0144585  0.0518654  1.3055290 -0.0245616  0.0123550  1.3056437 -0.0246764
  0.0128866  0.0525485  1.3072613 -0.0297661  0.0143134  1.3074145 -0.0299193
  0.0170873  0.0390585  1.4106354 -0.0138287  0.0135571  1.4107645 -0.0139577
  0.0175617  0.0403466  1.4013862 -0.0181163  0.0162650  1.4015726 -0.0183026
  0.0183112  0.0385736  1.4082417 -0.0098933  0.0107968  1.4083239 -0.0099755
  0.0191733  0.0398244  1.4000285 -0.0147586  0.0139272  1.4001656 -0.0148956
  0.0161415  0.0393318  1.4052243 -0.0125981  0.0083912  1.4052740 -0.0126477
  0.0147812  0.0395936  1.4066618 -0.0146282  0.0122989  1.4067682 -0.0147346
  0.0164540  0.0406402  1.3941886 -0.0164550  0.0101784  1.3942621 -0.0165284
  0.0150395  0.0409201  1.3956288 -0.0183844  0.0139226  1.3957658 -0.0185215
  0.0159691  0.0384209  1.4134235 -0.0154375  0.0092742  1.4134837 -0.0154977
  0.0158108  0.0372407  1.4257067 -0.0116639  0.0084447  1.4257563 -0.0117135
  0.0146159  0.0385908  1.4146909 -0.0156921  0.0133606  1.4148156 -0.0158169
  0.0144224  0.0371776  1.4249477 -0.0125395  0.0126581  1.4250592 -0.0126510
  0.0168371  0.0382221  1.4193191 -0.0155413  0.0142946  1.4194615 -0.0156837
  0.0178551  0.0378487  1.4180478 -0.0141280  0.0127700  1.4181616 -0.0142418
  0.0166277  0.0372250  1.4245513 -0.0135929  0.0132252  1.4246729 -0.0137145
  0.0174712  0.0371190  1.4244855 -0.0110690  0.0108286  1.4245672 -0.0111507
  0.0123835  0.0399850  1.4041207 -0.0144237  0.0110778  1.4042072 -0.0145102
  0.0125984  0.0413195  1.3928864 -0.0180290  0.0122680  1.3929931 -0.0181356
  0.0137743  0.0397686  1.4027992 -0.0132827  0.0070560  1.4028344 -0.0133178
  0.0140064  0.0411022  1.3915943 -0.0168973  0.0082931  1.3916431 -0.0169461
  0.0113760  0.0401483  1.4000985 -0.0132129  0.0053867  1.4001191 -0.0132335
  0.0100142  0.0403781  1.4014238 -0.0145655  0.0092184  1.4014838 -0.0146255
  0.0115853  0.0414684  1.3893456 -0.0167013  0.0066155  1.3893767 -0.0167324
  0.0102252  0.0416578  1.3903490 -0.0181690  0.0105080  1.3904274 -0.0182474
  0.0111975  0.0392031  1.4074302 -0.0150435  0.0063850  1.4074588 -0.0150722
  0.0109193  0.0379411  1.4178129 -0.0114587  0.0047756  1.4178288 -0.0114746
  0.0098496  0.0394488  1.4086455 -0.0169101  0.0099747  1.4087153 -0.0169799
  0.0096109  0.0381897  1.4191465 -0.0133502  0.0084557  1.4191964 -0.0134001
  0.0122044  0.0390159  1.4120999 -0.0169979  0.0115064  1.4121925 -0.0170905
  0.0136071  0.0387502  1.4106685 -0.0148244  0.0074655  1.4107075 -0.0148635
  0.0119299  0.0377031  1.4240049 -0.0128983  0.0096764  1.4240700 -0.0129635
  0.0133825  0.0373015  1.4216786 -0.0111579  0.0059727  1.4217035 -0.0111828
  0.0017194  0.0316141  1.4726743 -0.0114324 -0.0013673  1.4726756 -0.0114337
  0.0017464  0.0304325  1.4834942 -0.0081749 -0.0010844  1.4834950 -0.0081757
  0.0004607  0.0316188  1.4728990 -0.0108133  0.0027174  1.4729040 -0.0108183
  0.0004679  0.0304337  1.4836844 -0.0075747  0.0029365  1.4836902 -0.0075805
  0.0026281  0.0316071  1.4728816 -0.0110046  0.0036978  1.4728908 -0.0110138
  0.0038517  0.0315925  1.4727226 -0.0111344 -0.0001651  1.4727226 -0.0111344
  0.0026638  0.0304306  1.4833553 -0.0078602  0.0038391  1.4833652 -0.0078700
  0.0038919  0.0304267  1.4832933 -0.0079606 -0.0000076  1.4832933 -0.0079606
  0.0026163  0.0324731  1.4663948 -0.0090678  0.0039546  1.4664054 -0.0090784
  0.0026198  0.0336625  1.4557530 -0.0122604  0.0039867  1.4557638 -0.0122713
  0.0038408  0.0324510  1.4662137 -0.0090645  0.0000678  1.4662137 -0.0090645
  0.0038511  0.0336308  1.4554878 -0.0122827  0.0001220  1.4554878 -0.0122827
  0.0017099  0.0324837  1.4660998 -0.0091376 -0.0012454  1.4661009 -0.0091387
  0.0004582  0.0324906  1.4661819 -0.0090523  0.0026943  1.4661868 -0.0090572
  0.0017107  0.0336776  1.4553425 -0.0123647 -0.0012652  1.4553436 -0.0123658
  0.0004584  0.0336874  1.4554502 -0.0122717  0.0026727  1.4554551 -0.0122766
  0.0479926  0.0616565  1.2176740 -0.0277381  0.0456509  1.2193451 -0.0294092
  0.0458019  0.0618049  1.2182083 -0.0296456  0.0518818  1.2203617 -0.0317989
  0.0482170  0.0641041  1.1997741 -0.0332964  0.0470134  1.2015640 -0.0350862
  0.0458620  0.0641439  1.1994198 -0.0353376  0.0528820  1.2016805 -0.0375983
  0.0477659  0.0599602  1.2282492 -0.0303577  0.0454131  1.2298856 -0.0319941
  0.0473710  0.0577733  1.2451008 -0.0248693  0.0434348  1.2465846 -0.0263531
  0.0457411  0.0601664  1.2290050 -0.0321201  0.0501863  1.2309990 -0.0341141
  0.0456353  0.0580291  1.2467016 -0.0266858  0.0489058  1.2485771 -0.0285613
  0.0493387  0.0597442  1.2314517 -0.0338306  0.0539881  1.2337511 -0.0361300
  0.0516107  0.0593602  1.2304626 -0.0282709  0.0483226  1.2323150 -0.0301232
  0.0487885  0.0573426  1.2545008 -0.0251707  0.0492559  1.2563939 -0.0270639
  0.0509254  0.0564215  1.2492648 -0.0211818  0.0444377  1.2508172 -0.0227343
  0.0496514  0.0615481  1.2177164 -0.0303282  0.0555700  1.2201858 -0.0327976
  0.0499558  0.0640751  1.1967530 -0.0369774  0.0575991  1.1994363 -0.0396606
  0.0519927  0.0614003  1.2174184 -0.0277165  0.0490473  1.2193474 -0.0296456
  0.0523512  0.0640355  1.1973259 -0.0341339  0.0510997  1.1994427 -0.0362506
  0.0580559  0.0611392  1.2134455 -0.0313916  0.0640659  1.2167340 -0.0346801
  0.0585039  0.0639655  1.1895258 -0.0396324  0.0679577  1.1932716 -0.0433782
  0.0605762  0.0610832  1.2149308 -0.0250442  0.0568707  1.2175337 -0.0276471
  0.0610290  0.0639505  1.1913543 -0.0331628  0.0607018  1.1943561 -0.0361645
  0.0562281  0.0611991  1.2163175 -0.0270880  0.0520471  1.2184923 -0.0292628
  0.0537549  0.0613068  1.2158784 -0.0310646  0.0586435  1.2186303 -0.0338165
  0.0566600  0.0639816  1.1955329 -0.0339684  0.0547633  1.1979673 -0.0364028
  0.0541476  0.0640104  1.1944903 -0.0381024  0.0613663  1.1975380 -0.0411501
  0.0559307  0.0591396  1.2316907 -0.0299648  0.0505017  1.2337090 -0.0319831
  0.0555503  0.0562951  1.2563003 -0.0220253  0.0477571  1.2580820 -0.0238069
  0.0533770  0.0591982  1.2309527 -0.0339701  0.0582393  1.2336285 -0.0366459
  0.0527372  0.0561409  1.2540018 -0.0262431  0.0550775  1.2563669 -0.0286082
  0.0577756  0.0591004  1.2275123 -0.0328847  0.0619900  1.2305538 -0.0359262
  0.0602620  0.0590519  1.2283678 -0.0289238  0.0554519  1.2308088 -0.0313647
  0.0574578  0.0563564  1.2487265 -0.0260390  0.0595375  1.2515012 -0.0288137
  0.0598561  0.0563697  1.2501094 -0.0217583  0.0526767  1.2522874 -0.0239362
  0.0571703  0.0518242  1.2819628 -0.0218562  0.0556727  1.2843357 -0.0242291
  0.0572956  0.0544068  1.2620274 -0.0279569  0.0569638  1.2645380 -0.0304675
  0.0594751  0.0520488  1.2846251 -0.0186631  0.0488557  1.2864540 -0.0204919
  0.0596453  0.0544932  1.2634848 -0.0251878  0.0503793  1.2654513 -0.0271543
  0.0554279  0.0515779  1.2921699 -0.0182083  0.0452314  1.2937293 -0.0197677
  0.0529725  0.0511295  1.2879481 -0.0201887  0.0529215  1.2900855 -0.0223262
  0.0554155  0.0542690  1.2693705 -0.0250445  0.0454814  1.2709666 -0.0266406
  0.0526289  0.0539789  1.2671392 -0.0263490  0.0523040  1.2692508 -0.0284606
  0.0554671  0.0496847  1.3083569 -0.0213079  0.0420740  1.3096869 -0.0226379
  0.0555618  0.0472035  1.3264175 -0.0158945  0.0422679  1.3277472 -0.0172241
  0.0531420  0.0492000  1.3047539 -0.0225051  0.0480683  1.3064924 -0.0242437
  0.0532615  0.0467781  1.3231753 -0.0169850  0.0483380  1.3249165 -0.0187262
  0.0571564  0.0499762  1.2956040 -0.0235346  0.0524709  1.2976878 -0.0256184
  0.0594464  0.0502880  1.2983411 -0.0220566  0.0459567  1.2999387 -0.0236542
  0.0572436  0.0475100  1.3146674 -0.0178396  0.0524466  1.3167285 -0.0199007
  0.0595381  0.0479219  1.3181890 -0.0161297  0.0459551  1.3197698 -0.0177105
  0.0490947  0.0498513  1.2987870 -0.0196217  0.0474648  1.3004936 -0.0213283
  0.0486774  0.0519986  1.2827842 -0.0250707  0.0451080  1.2843381 -0.0266246
  0.0512755  0.0506669  1.3028222 -0.0212122  0.0432267  1.3042319 -0.0226220
  0.0508234  0.0533705  1.2898148 -0.0255686  0.0414295  1.2911184 -0.0268721
  0.0475999  0.0493113  1.3168500 -0.0200592  0.0390204  1.3179880 -0.0211972
  0.0456966  0.0486514  1.3131728 -0.0209269  0.0427793  1.3145432 -0.0222973
  0.0472808  0.0512391  1.3052304 -0.0235868  0.0382511  1.3063306 -0.0246870
  0.0456111  0.0505359  1.3001955 -0.0248328  0.0424648  1.3015550 -0.0261924
  0.0477532  0.0478130  1.3295122 -0.0206969  0.0350071  1.3304193 -0.0216040
  0.0478530  0.0456475  1.3452130 -0.0160023  0.0351317  1.3461191 -0.0169084
  0.0457377  0.0472127  1.3245913 -0.0225176  0.0406948  1.3258195 -0.0237458
  0.0457645  0.0451664  1.3415014 -0.0174494  0.0406334  1.3427152 -0.0186633
  0.0492940  0.0482420  1.3128183 -0.0231332  0.0447472  1.3143154 -0.0246303
  0.0514879  0.0488135  1.3176807 -0.0209229  0.0384714  1.3187854 -0.0220277
  0.0494210  0.0459924  1.3318922 -0.0174569  0.0448129  1.3333788 -0.0189435
  0.0516160  0.0464536  1.3358819 -0.0155046  0.0385202  1.3369790 -0.0166017
  0.0467019  0.0538273  1.2819840 -0.0246256  0.0399113  1.2832020 -0.0258435
  0.0470402  0.0524491  1.2940462 -0.0213515  0.0404175  1.2952869 -0.0225922
  0.0454560  0.0535302  1.2787484 -0.0269452  0.0441308  1.2802383 -0.0284351
  0.0455467  0.0518431  1.2899127 -0.0236653  0.0438452  1.2913746 -0.0251272
  0.0474600  0.0544702  1.2730120 -0.0242596  0.0454859  1.2746049 -0.0258525
  0.0482851  0.0559294  1.2670921 -0.0295900  0.0488433  1.2689293 -0.0314272
  0.0482394  0.0532362  1.2700361 -0.0217170  0.0466696  1.2717200 -0.0234009
  0.0500221  0.0547806  1.2665127 -0.0263544  0.0488092  1.2683527 -0.0281945
  0.0467151  0.0548899  1.2695423 -0.0233934  0.0416189  1.2708806 -0.0247318
  0.0454596  0.0548026  1.2682261 -0.0251336  0.0460480  1.2698635 -0.0267710
  0.0470895  0.0564148  1.2551979 -0.0280709  0.0434271  1.2566659 -0.0295388
  0.0455599  0.0565919  1.2559819 -0.0288802  0.0467915  1.2576837 -0.0305819
  0.0573964  0.0432044  1.3473684 -0.0141363  0.0491685  1.3491417 -0.0159096
  0.0573079  0.0456955  1.3290514 -0.0196328  0.0489241  1.3308238 -0.0214052
  0.0598574  0.0436325  1.3503077 -0.0132945  0.0432305  1.3516769 -0.0146637
  0.0596482  0.0461385  1.3324102 -0.0186672  0.0426914  1.3337578 -0.0200148
  0.0556453  0.0429498  1.3598663 -0.0116533  0.0381715  1.3609279 -0.0127148
  0.0533223  0.0426822  1.3571355 -0.0140807  0.0449304  1.3586061 -0.0155514
  0.0556095  0.0453989  1.3403871 -0.0174730  0.0387025  1.3414893 -0.0185752
  0.0533098  0.0450317  1.3367723 -0.0201804  0.0455517  1.3382997 -0.0217078
  0.0555877  0.0411784  1.3721636 -0.0146501  0.0357368  1.3730838 -0.0155704
  0.0553944  0.0387882  1.3917011 -0.0085913  0.0342457  1.3925381 -0.0094284
  0.0532790  0.0409873  1.3697786 -0.0177762  0.0425363  1.3710813 -0.0190789
  0.0531481  0.0387061  1.3901724 -0.0115118  0.0411459  1.3913792 -0.0127185
  0.0573747  0.0413431  1.3628960 -0.0187207  0.0458131  1.3644134 -0.0202381
  0.0599482  0.0416020  1.3664314 -0.0142334  0.0373088  1.3674389 -0.0152409
  0.0572268  0.0387492  1.3892546 -0.0105986  0.0438403  1.3906262 -0.0119703
  0.0599870  0.0385606  1.3887875 -0.0075677  0.0361763  1.3897241 -0.0085043
  0.0494831  0.0421678  1.3638582 -0.0145433  0.0416068  1.3651130 -0.0157981
  0.0494717  0.0443648  1.3451809 -0.0201391  0.0421036  1.3464781 -0.0214363
  0.0516711  0.0424727  1.3667999 -0.0123328  0.0352476  1.3677002 -0.0132330
  0.0516651  0.0447546  1.3488009 -0.0177289  0.0357428  1.3497352 -0.0186631
  0.0479041  0.0419330  1.3740201 -0.0125681  0.0321236  1.3747639 -0.0133119
  0.0457782  0.0415967  1.3709458 -0.0144449  0.0382869  1.3720031 -0.0155022
  0.0478935  0.0440720  1.3570295 -0.0176605  0.0324516  1.3577951 -0.0184262
  0.0457753  0.0436616  1.3533226 -0.0197304  0.0386493  1.3544096 -0.0208175
  0.0478949  0.0403793  1.3854157 -0.0150310  0.0299772  1.3860571 -0.0156724
  0.0478592  0.0382735  1.4027795 -0.0098020  0.0294216  1.4033921 -0.0104145
  0.0457757  0.0400893  1.3826025 -0.0170724  0.0362243  1.3835394 -0.0180093
  0.0457661  0.0380358  1.4003494 -0.0117428  0.0357328  1.4012531 -0.0126465
  0.0494659  0.0405768  1.3760199 -0.0175048  0.0393378  1.3771294 -0.0186144
  0.0516386  0.0408261  1.3787050 -0.0148775  0.0328993  1.3794813 -0.0156537
  0.0494073  0.0384272  1.3948358 -0.0118088  0.0384334  1.3958852 -0.0128581
  0.0515439  0.0386093  1.3970173 -0.0093056  0.0319205  1.3977414 -0.0100297
  0.0563455  0.0347468  1.4222355 -0.0079874  0.0380943  1.4232494 -0.0090013
  0.0569511  0.0369817  1.4007914 -0.0160772  0.0424280  1.4020608 -0.0173466
  0.0583409  0.0342914  1.4193542 -0.0024521  0.0310015  1.4200298 -0.0031277
  0.0595563  0.0366018  1.3999126 -0.0111328  0.0364907  1.4008556 -0.0120758
  0.0548569  0.0349292  1.4225015 -0.0057541  0.0302674  1.4231426 -0.0063953
  0.0527853  0.0349721  1.4217852 -0.0093672  0.0370573  1.4227441 -0.0103261
  0.0551986  0.0371137  1.4033240 -0.0120258  0.0325831  1.4040737 -0.0127755
  0.0530159  0.0370943  1.4020869 -0.0156477  0.0391154  1.4031653 -0.0167260
  0.0545958  0.0334335  1.4332925 -0.0102907  0.0298054  1.4339076 -0.0109058
  0.0542241  0.0315319  1.4509388 -0.0044152  0.0274667  1.4514570 -0.0049334
  0.0526126  0.0334870  1.4328047 -0.0132822  0.0356166  1.4336814 -0.0141588
  0.0523716  0.0315518  1.4501223 -0.0077218  0.0337392  1.4509027 -0.0085022
  0.0559551  0.0332634  1.4367336 -0.0133212  0.0374103  1.4376981 -0.0142858
  0.0576854  0.0328521  1.4354592 -0.0091805  0.0337518  1.4362474 -0.0099686
  0.0554938  0.0314458  1.4493776 -0.0083199  0.0344915  1.4501933 -0.0091356
  0.0571099  0.0312303  1.4493090 -0.0031984  0.0301259  1.4499336 -0.0038229
  0.0492485  0.0348101  1.4246931 -0.0094742  0.0352314  1.4255581 -0.0103392
  0.0493491  0.0368820  1.4063975 -0.0150607  0.0363176  1.4073248 -0.0159880
  0.0512825  0.0349402  1.4265358 -0.0068939  0.0287564  1.4271125 -0.0074706
  0.0514485  0.0370322  1.4083198 -0.0125178  0.0300324  1.4089543 -0.0131523
  0.0477635  0.0346954  1.4317384 -0.0073556  0.0266328  1.4322311 -0.0078483
  0.0457405  0.0345119  1.4296335 -0.0094217  0.0329814  1.4303890 -0.0101772
  0.0478239  0.0367505  1.4140181 -0.0127131  0.0273581  1.4145425 -0.0132375
  0.0457567  0.0365413  1.4117729 -0.0147911  0.0335788  1.4125628 -0.0155811
  0.0477177  0.0332185  1.4429915 -0.0106976  0.0248292  1.4434155 -0.0111215
  0.0476531  0.0312386  1.4611775 -0.0052010  0.0241395  1.4615748 -0.0055983
  0.0457282  0.0330017  1.4407848 -0.0125156  0.0307419  1.4414348 -0.0131656
  0.0457109  0.0309051  1.4578316 -0.0073920  0.0302404  1.4584555 -0.0080158
  0.0491730  0.0333419  1.4356869 -0.0130775  0.0332936  1.4364517 -0.0138422
  0.0511596  0.0334625  1.4374214 -0.0104548  0.0272388  1.4379337 -0.0109671
  0.0490676  0.0314026  1.4530545 -0.0077520  0.0321473  1.4537616 -0.0084591
  0.0509899  0.0315172  1.4548277 -0.0050477  0.0258918  1.4552867 -0.0055068
  0.0550644  0.0285406  1.4719333 -0.0060235  0.0320914  1.4726298 -0.0067200
  0.0552551  0.0301803  1.4581389 -0.0104478  0.0335951  1.4589070 -0.0112159
  0.0566407  0.0285904  1.4732551 -0.0030128  0.0269638  1.4737474 -0.0035051
  0.0568300  0.0300883  1.4581502 -0.0078843  0.0286623  1.4587104 -0.0084445
  0.0538453  0.0284901  1.4773844 -0.0031367  0.0252955  1.4778165 -0.0035687
  0.0520907  0.0284019  1.4757568 -0.0061198  0.0309504  1.4764030 -0.0067660
  0.0540230  0.0302073  1.4613618 -0.0082003  0.0268276  1.4618514 -0.0086899
  0.0522317  0.0301893  1.4604050 -0.0109132  0.0322885  1.4611132 -0.0116214
  0.0537698  0.0272452  1.4871925 -0.0070967  0.0232990  1.4875556 -0.0074599
  0.0537413  0.0255614  1.5029004 -0.0023610  0.0226715  1.5032418 -0.0027023
  0.0520246  0.0271102  1.4855057 -0.0090047  0.0288821  1.4860637 -0.0095626
  0.0519849  0.0253686  1.5007121 -0.0044122  0.0282435  1.5012419 -0.0049420
  0.0549922  0.0273456  1.4808544 -0.0086035  0.0299240  1.4814554 -0.0092044
  0.0565868  0.0274849  1.4824064 -0.0073759  0.0246892  1.4828154 -0.0077849
  0.0549857  0.0257206  1.4946834 -0.0044521  0.0296322  1.4952689 -0.0050376
  0.0566289  0.0259629  1.4970535 -0.0030026  0.0245423  1.4974549 -0.0034040
  0.0489296  0.0281688  1.4800980 -0.0059326  0.0294305  1.4806806 -0.0065153
  0.0490024  0.0300164  1.4636424 -0.0109347  0.0302967  1.4642646 -0.0115569
  0.0507736  0.0283158  1.4820243 -0.0036309  0.0234167  1.4823933 -0.0039999
  0.0508865  0.0301381  1.4652727 -0.0087611  0.0244299  1.4656774 -0.0091659
  0.0475669  0.0280689  1.4863070 -0.0041518  0.0215656  1.4866190 -0.0044637
  0.0456878  0.0279431  1.4847410 -0.0059616  0.0274784  1.4852473 -0.0064680
  0.0476127  0.0298588  1.4721388 -0.0084310  0.0221269  1.4724694 -0.0087617
  0.0457001  0.0295497  1.4690283 -0.0106849  0.0280024  1.4695580 -0.0112146
  0.0475424  0.0267464  1.4960000 -0.0075709  0.0197932  1.4962606 -0.0078315
  0.0475213  0.0249230  1.5135647 -0.0022938  0.0194602  1.5138145 -0.0025436
  0.0456812  0.0266550  1.4949526 -0.0085413  0.0257312  1.4953929 -0.0089816
  0.0456756  0.0247424  1.5116745 -0.0035230  0.0254647  1.5121023 -0.0039508
  0.0488919  0.0268392  1.4904546 -0.0089858  0.0272223  1.4909486 -0.0094798
  0.0507175  0.0270014  1.4923046 -0.0071839  0.0215121  1.4926131 -0.0074925
  0.0488615  0.0250544  1.5062279 -0.0042332  0.0266614  1.5066984 -0.0047037
  0.0506774  0.0252328  1.5082414 -0.0023751  0.0209137  1.5085309 -0.0026646
  0.0551425  0.0228235  1.5182764 -0.0029575  0.0274139  1.5187703 -0.0034513
  0.0550260  0.0245089  1.5045242 -0.0070868  0.0270601  1.5050085 -0.0075711
  0.0569189  0.0231628  1.5209347 -0.0022157  0.0225135  1.5212674 -0.0025484
  0.0567179  0.0248048  1.5070856 -0.0063771  0.0218989  1.5074024 -0.0066939
  0.0538303  0.0226053  1.5283430 -0.0016107  0.0202275  1.5286104 -0.0018781
  0.0520219  0.0223486  1.5259230 -0.0029395  0.0257363  1.5263561 -0.0033726
  0.0537576  0.0243181  1.5129989 -0.0061887  0.0202268  1.5132681 -0.0064580
  0.0519842  0.0240928  1.5107665 -0.0074738  0.0258464  1.5112063 -0.0079136
  0.0538943  0.0213301  1.5388870 -0.0051580  0.0173122  1.5390811 -0.0053520
  0.0539964  0.0195591  1.5545148 -0.0004943  0.0174638  1.5547109 -0.0006904
  0.0520598  0.0210596  1.5363042 -0.0063826  0.0231153  1.5366505 -0.0067289
  0.0521256  0.0192822  1.5519736 -0.0016977  0.0231544  1.5523186 -0.0020427
  0.0552359  0.0215574  1.5288298 -0.0061559  0.0243318  1.5292154 -0.0065415
  0.0570667  0.0219076  1.5317760 -0.0055271  0.0188070  1.5320061 -0.0057572
  0.0553746  0.0197837  1.5438930 -0.0016181  0.0248372  1.5442920 -0.0020171
  0.0572692  0.0201203  1.5465385 -0.0010716  0.0194836  1.5467838 -0.0013168
  0.0488629  0.0219465  1.5324665 -0.0028410  0.0242686  1.5328500 -0.0032245
  0.0488537  0.0237434  1.5164207 -0.0076502  0.0245739  1.5168169 -0.0080463
  0.0506909  0.0221721  1.5347944 -0.0012505  0.0184568  1.5350162 -0.0014723
  0.0506702  0.0239388  1.5185013 -0.0061281  0.0187294  1.5187313 -0.0063581
  0.0475189  0.0217814  1.5410851 -0.0013279  0.0166195  1.5412641 -0.0015069
  0.0456749  0.0215556  1.5384300 -0.0039358  0.0225886  1.5387607 -0.0042665
  0.0475150  0.0235926  1.5244673 -0.0063092  0.0172956  1.5246627 -0.0065046
  0.0456739  0.0233760  1.5218880 -0.0088972  0.0232708  1.5222417 -0.0092509
  0.0475259  0.0204593  1.5518009 -0.0049038  0.0142057  1.5519305 -0.0050334
  0.0475412  0.0186585  1.5680807 -0.0000224  0.0141421  1.5682082 -0.0001499
  0.0456768  0.0202212  1.5495650 -0.0058713  0.0200328  1.5498230 -0.0061293
  0.0456809  0.0183958  1.5656530 -0.0010457  0.0199348  1.5659066 -0.0012993
  0.0488759  0.0206339  1.5428900 -0.0067791  0.0218196  1.5431972 -0.0070862
  0.0507151  0.0208730  1.5453857 -0.0050688  0.0159065  1.5455489 -0.0052319
  0.0489023  0.0188447  1.5589788 -0.0019662  0.0215475  1.5592762 -0.0022636
  0.0507607  0.0190908  1.5614882 -0.0002618  0.0156951  1.5616460 -0.0004195
  0.0556033  0.0166354  1.5713480 -0.0004700  0.0219222  1.5716537 -0.0007757
  0.0554731  0.0184648  1.5550122 -0.0053818  0.0214548  1.5553071 -0.0056768
  0.0575679  0.0169237  1.5737774  0.0000957  0.0160095  1.5739403 -0.0000672
  0.0574035  0.0187849  1.5578044 -0.0047097  0.0154566  1.5579573 -0.0048626
  0.0541792  0.0164344  1.5814454  0.0004368  0.0144037  1.5815766  0.0003056
  0.0522532  0.0161738  1.5790236 -0.0006576  0.0203724  1.5792863 -0.0009203
  0.0540728  0.0182473  1.5653593 -0.0043684  0.0142069  1.5654879 -0.0044970
  0.0521775  0.0179730  1.5627391 -0.0055280  0.0202679  1.5630010 -0.0057899
  0.0542460  0.0150993  1.5924206 -0.0035960  0.0110580  1.5924972 -0.0036726
  0.0543219  0.0132645  1.6091036  0.0013905  0.0111301  1.6091806  0.0013134
  0.0523019  0.0148511  1.5899568 -0.0048124  0.0174051  1.5901467 -0.0050024
  0.0523593  0.0130369  1.6068703  0.0002474  0.0174204  1.6070591  0.0000585
  0.0556841  0.0152872  1.5826383 -0.0048337  0.0185237  1.5828544 -0.0050499
  0.0576690  0.0155523  1.5851493 -0.0038552  0.0121276  1.5852419 -0.0039478
  0.0557745  0.0134334  1.5998169  0.0003093  0.0187356  1.6000363  0.0000899
  0.0577807  0.0136669  1.6019959  0.0011863  0.0123970  1.6020919  0.0010903
  0.0489615  0.0157477  1.5861030 -0.0005519  0.0189352  1.5863289 -0.0007778
  0.0489252  0.0175355  1.5697080 -0.0054594  0.0190240  1.5699377 -0.0056891
  0.0508551  0.0159898  1.5884738  0.0007160  0.0129193  1.5885789  0.0006109
  0.0507982  0.0177823  1.5721730 -0.0041572  0.0129420  1.5722793 -0.0042635
  0.0475777  0.0155758  1.5951056  0.0008924  0.0113572  1.5951865  0.0008115
  0.0456907  0.0153484  1.5924774 -0.0014305  0.0175915  1.5926715 -0.0016246
  0.0475551  0.0173500  1.5787356 -0.0040002  0.0118329  1.5788241 -0.0040887
  0.0456846  0.0170902  1.5757584 -0.0064410  0.0181315  1.5759662 -0.0066487
  0.0475927  0.0142739  1.6056383 -0.0031634  0.0088605  1.6056870 -0.0032122
  0.0476109  0.0124910  1.6222395  0.0018136  0.0087971  1.6222873  0.0017658
  0.0456947  0.0140553  1.6034836 -0.0041510  0.0150818  1.6036250 -0.0042924
  0.0456996  0.0122642  1.6200382  0.0008144  0.0149751  1.6201767  0.0006759
  0.0489854  0.0144398  1.5967402 -0.0049831  0.0163578  1.5969073 -0.0051502
  0.0508924  0.0146744  1.5992203 -0.0033957  0.0100545  1.5992834 -0.0034588
  0.0490143  0.0126543  1.6135183  0.0000373  0.0161487  1.6136799 -0.0001243
  0.0509371  0.0128734  1.6158179  0.0015640  0.0098979  1.6158786  0.0015033
  0.0559096  0.0102200  1.6287780  0.0010746  0.0154724  1.6289250  0.0009275
  0.0558350  0.0120756  1.6111299 -0.0042071  0.0153445  1.6112757 -0.0043529
  0.0579381  0.0103996  1.6305601  0.0019442  0.0088520  1.6306083  0.0018961
  0.0578528  0.0122863  1.6132200 -0.0032438  0.0086958  1.6132667 -0.0032905
  0.0544388  0.0100860  1.6370665  0.0019985  0.0078856  1.6371045  0.0019604
  0.0524492  0.0098994  1.6351502  0.0009030  0.0144148  1.6352774  0.0007759
  0.0543736  0.0119212  1.6200365 -0.0030934  0.0078569  1.6200745 -0.0031314
  0.0523987  0.0117101  1.6178619 -0.0042698  0.0144322  1.6179903 -0.0043982
  0.0544749  0.0087459  1.6479012 -0.0025963  0.0046594  1.6479143 -0.0026094
  0.0545083  0.0069199  1.6652132  0.0025856  0.0045266  1.6652255  0.0025733
  0.0524774  0.0085784  1.6460501 -0.0038573  0.0114375  1.6461294 -0.0039366
  0.0525038  0.0067801  1.6636390  0.0014097  0.0112808  1.6637156  0.0013332
  0.0559510  0.0088646  1.6399541 -0.0038621  0.0121649  1.6400441 -0.0039521
  0.0579864  0.0090213  1.6416646 -0.0027444  0.0052796  1.6416816 -0.0027613
  0.0559898  0.0070170  1.6580056  0.0015415  0.0120834  1.6580937  0.0014534
  0.0580329  0.0071425  1.6594054  0.0025642  0.0052230  1.6594219  0.0025477
  0.0490620  0.0095652  1.6414333  0.0010097  0.0134212  1.6415431  0.0008999
  0.0490348  0.0113481  1.6243539 -0.0041058  0.0135357  1.6244664 -0.0042183
  0.0510085  0.0097599  1.6434601  0.0021931  0.0069694  1.6434897  0.0021635
  0.0509682  0.0115566  1.6265382 -0.0028714  0.0070405  1.6265686 -0.0029018
  0.0476417  0.0094236  1.6497761  0.0023518  0.0058823  1.6497971  0.0023308
  0.0457079  0.0092312  1.6474167  0.0001278  0.0124827  1.6475113  0.0000332
  0.0476240  0.0111914  1.6328594 -0.0027094  0.0063509  1.6328840 -0.0027340
  0.0457031  0.0109716  1.6302033 -0.0050322  0.0130033  1.6303067 -0.0051356
  0.0476516  0.0081318  1.6603464 -0.0021936  0.0033085  1.6603529 -0.0022002
  0.0476609  0.0063705  1.6773758  0.0029135  0.0032185  1.6773820  0.0029073
  0.0457105  0.0079427  1.6584163 -0.0031180  0.0098481  1.6584746 -0.0031763
  0.0457130  0.0061631  1.6752842  0.0019419  0.0097362  1.6753409  0.0018852
  0.0490773  0.0082678  1.6520506 -0.0039978  0.0107720  1.6521207 -0.0040679
  0.0510311  0.0084503  1.6541250 -0.0024587  0.0040991  1.6541352 -0.0024689
  0.0490916  0.0065061  1.6692880  0.0011665  0.0105006  1.6693541  0.0011004
  0.0510524  0.0066692  1.6711623  0.0026424  0.0038540  1.6711712  0.0026335
  0.0545601  0.0037788  1.6932954  0.0028094  0.0012437  1.6932963  0.0028085
  0.0525451  0.0036968  1.6922733  0.0018441  0.0081718  1.6923128  0.0018046
  0.0545311  0.0055890  1.6758398 -0.0024178  0.0013696  1.6758409 -0.0024189
  0.0525220  0.0054721  1.6744692 -0.0034893  0.0083189  1.6745104 -0.0035306
  0.0545706  0.0024577  1.7037568 -0.0022767 -0.0018812  1.7037589 -0.0022788
  0.0545704  0.0006585  1.7215258  0.0030539 -0.0021240  1.7215284  0.0030513
  0.0525537  0.0024031  1.7029671 -0.0032350  0.0052546  1.7029833 -0.0032512
  0.0525540  0.0006439  1.7211399  0.0022165  0.0050084  1.7211545  0.0022019
  0.0560603  0.0024944  1.6983985 -0.0033457  0.0054810  1.6984161 -0.0033634
  0.0581133  0.0025401  1.6991137 -0.0023592 -0.0017749  1.6991155 -0.0023611
  0.0560604  0.0006684  1.7171473  0.0022787  0.0052125  1.7171631  0.0022629
  0.0581146  0.0006806  1.7175249  0.0031635 -0.0020342  1.7175273  0.0031611
  0.0560484  0.0038344  1.6874390  0.0020523  0.0087243  1.6874842  0.0020072
  0.0560158  0.0056692  1.6691095 -0.0034376  0.0088008  1.6691558 -0.0034839
  0.0580995  0.0039041  1.6883018  0.0028541  0.0016802  1.6883035  0.0028525
  0.0580632  0.0057713  1.6702931 -0.0025389  0.0017446  1.6702949 -0.0025407
  0.0491147  0.0035193  1.6970776  0.0016076  0.0075779  1.6971114  0.0015737
  0.0491016  0.0052337  1.6799050 -0.0035388  0.0077963  1.6799412 -0.0035749
  0.0510860  0.0036272  1.6983883  0.0027728  0.0008093  1.6983887  0.0027724
  0.0510672  0.0053769  1.6815690 -0.0022656  0.0010048  1.6815696 -0.0022662
  0.0476761  0.0034078  1.7047020  0.0029316  0.0003889  1.7047021  0.0029316
  0.0457171  0.0032109  1.7023168  0.0009274  0.0072666  1.7023478  0.0008963
  0.0476674  0.0051047  1.6878833 -0.0021081  0.0007862  1.6878837 -0.0021085
  0.0457147  0.0048952  1.6853578 -0.0041586  0.0076893  1.6853928 -0.0041936
  0.0476798  0.0021978  1.7142742 -0.0018402 -0.0022699  1.7142772 -0.0018432
  0.0476813  0.0005889  1.7284478  0.0024114 -0.0024072  1.7284512  0.0024081
  0.0457181  0.0020461  1.7126793 -0.0028021  0.0042451  1.7126898 -0.0028126
  0.0457185  0.0005483  1.7279043  0.0017652  0.0040941  1.7279140  0.0017555
  0.0491201  0.0022807  1.7073993 -0.0033709  0.0049884  1.7074139 -0.0033855
  0.0510932  0.0023556  1.7084446 -0.0021815 -0.0019951  1.7084469 -0.0021839
  0.0491217  0.0006111  1.7248122  0.0018520  0.0046997  1.7248250  0.0018392
  0.0510941  0.0006312  1.7253039  0.0028758 -0.0022774  1.7253070  0.0028728
  0.0616318  0.0092783  1.6352880 -0.0027931  0.0058208  1.6353087 -0.0028138
  0.0616841  0.0073429  1.6535431  0.0026697  0.0058003  1.6535635  0.0026493
  0.0595085  0.0091322  1.6337002 -0.0038300  0.0129728  1.6338029 -0.0039327
  0.0595587  0.0072298  1.6522733  0.0017284  0.0129478  1.6523749  0.0016268
  0.0632094  0.0093794  1.6273150 -0.0038161  0.0137113  1.6274302 -0.0039314
  0.0653961  0.0095097  1.6287686 -0.0027789  0.0063204  1.6287931 -0.0028034
  0.0632637  0.0074187  1.6465396  0.0019359  0.0136867  1.6466535  0.0018220
  0.0654538  0.0075126  1.6476415  0.0028672  0.0063044  1.6476656  0.0028431
  0.0631475  0.0108207  1.6155269  0.0015912  0.0177407  1.6157219  0.0013962
  0.0630327  0.0127976  1.5966903 -0.0040488  0.0174294  1.5968800 -0.0042386
  0.0653298  0.0109787  1.6170651  0.0022537  0.0106211  1.6171349  0.0021839
  0.0652064  0.0129953  1.5986080 -0.0032721  0.0102961  1.5986742 -0.0033382
  0.0615735  0.0107000  1.6239147  0.0019763  0.0097583  1.6239734  0.0019176
  0.0594558  0.0105282  1.6222429  0.0012370  0.0166409  1.6224137  0.0010662
  0.0614666  0.0126488  1.6061038 -0.0033550  0.0094991  1.6061599 -0.0034110
  0.0593618  0.0124399  1.6040665 -0.0042050  0.0164126  1.6042340 -0.0043725
  0.0633350  0.0040482  1.6773782  0.0023258  0.0097445  1.6774349  0.0022691
  0.0632974  0.0059902  1.6580797 -0.0034535  0.0098145  1.6581377 -0.0035114
  0.0655111  0.0040910  1.6779915  0.0030904  0.0022357  1.6779945  0.0030874
  0.0654846  0.0060607  1.6589578 -0.0026126  0.0023445  1.6589611 -0.0026159
  0.0617591  0.0040108  1.6832222  0.0029287  0.0019910  1.6832245  0.0029263
  0.0596297  0.0039514  1.6824651  0.0021702  0.0092976  1.6825165  0.0021188
  0.0617182  0.0059315  1.6646944 -0.0026194  0.0020344  1.6646969 -0.0026219
  0.0595912  0.0058416  1.6636373 -0.0034682  0.0093475  1.6636897 -0.0035206
  0.0617757  0.0026088  1.6942762 -0.0024444 -0.0017374  1.6942779 -0.0024462
  0.0617799  0.0006990  1.7131154  0.0032057 -0.0019841  1.7131177  0.0032034
  0.0596447  0.0025707  1.6936408 -0.0034057  0.0057406  1.6936602 -0.0034251
  0.0596472  0.0006888  1.7127595  0.0023289  0.0054839  1.7127771  0.0023113
  0.0633499  0.0026321  1.6887367 -0.0034189  0.0059398  1.6887575 -0.0034397
  0.0655197  0.0026579  1.6892801 -0.0023871 -0.0016411  1.6892817 -0.0023887
  0.0633528  0.0007053  1.7081987  0.0024184  0.0056497  1.7082174  0.0023997
  0.0655170  0.0007122  1.7085551  0.0033963 -0.0019481  1.7085573  0.0033940
  0.0693964  0.0026509  1.6841026 -0.0024637 -0.0015576  1.6841040 -0.0024652
  0.0693228  0.0007103  1.7037562  0.0034629 -0.0021297  1.7037589  0.0034603
  0.0671399  0.0026629  1.6839191 -0.0034344  0.0062212  1.6839421 -0.0034574
  0.0671167  0.0007135  1.7034806  0.0024435  0.0058297  1.7035006  0.0024235
  0.0709999  0.0025745  1.6821127 -0.0035776  0.0065619  1.6821382 -0.0036031
  0.0731243  0.0023778  1.6810487 -0.0015331 -0.0003238  1.6810487 -0.0015331
  0.0708779  0.0006898  1.6992837  0.0017052  0.0053917  1.6993008  0.0016881
  0.0729203  0.0006371  1.6995633  0.0042775 -0.0019210  1.6995655  0.0042753
  0.0711055  0.0040277  1.6696400  0.0035065  0.0095522  1.6696947  0.0034518
  0.0712718  0.0061134  1.6464205 -0.0036447  0.0110935  1.6464951 -0.0037193
  0.0734091  0.0038254  1.6681195  0.0058424 -0.0000793  1.6681195  0.0058424
  0.0739831  0.0060394  1.6465609 -0.0011818  0.0026863  1.6465653 -0.0011862
  0.0694266  0.0041028  1.6729467  0.0033652  0.0021377  1.6729495  0.0033624
  0.0671433  0.0041056  1.6726912  0.0024283  0.0100796  1.6727520  0.0023675
  0.0694353  0.0061291  1.6533397 -0.0025200  0.0024532  1.6533434 -0.0025236
  0.0671293  0.0060979  1.6527555 -0.0035469  0.0103212  1.6528199 -0.0036112
  0.0693600  0.0097079  1.6219545 -0.0026681  0.0063882  1.6219796 -0.0026932
  0.0694175  0.0076309  1.6418188  0.0032753  0.0063628  1.6418435  0.0032506
  0.0670441  0.0095977  1.6206625 -0.0037023  0.0143319  1.6207889 -0.0038288
  0.0671027  0.0075695  1.6410028  0.0023828  0.0143144  1.6411278  0.0022578
  0.0710759  0.0098204  1.6138649 -0.0038858  0.0144976  1.6139948 -0.0040157
  0.0734482  0.0100175  1.6159415 -0.0034165  0.0055416  1.6159605 -0.0034355
  0.0712639  0.0076655  1.6360211  0.0027726  0.0152251  1.6361631  0.0026306
  0.0739936  0.0076985  1.6362515  0.0027050  0.0072594  1.6362838  0.0026727
  0.0709331  0.0113668  1.5991831  0.0026460  0.0201998  1.5994386  0.0023905
  0.0707309  0.0134369  1.5818358 -0.0026475  0.0192551  1.5820698 -0.0028815
  0.0731693  0.0115963  1.6008187  0.0021201  0.0135169  1.6009330  0.0020058
  0.0729526  0.0135905  1.5828422 -0.0033759  0.0124692  1.5829402 -0.0034739
  0.0692723  0.0112308  1.6099690  0.0027101  0.0114459  1.6100505  0.0026286
  0.0669709  0.0110886  1.6085953  0.0020912  0.0188456  1.6088163  0.0018702
  0.0690903  0.0133145  1.5909119 -0.0029906  0.0109348  1.5909869 -0.0030656
  0.0668296  0.0131338  1.5891281 -0.0037356  0.0184478  1.5893417 -0.0039492
  0.0764132  0.0118996  1.5949677  0.0046368  0.0128626  1.5950717  0.0045328
  0.0746377  0.0117390  1.5927587  0.0030940  0.0203188  1.5930183  0.0028343
  0.0766100  0.0135257  1.5758248 -0.0012019  0.0139768  1.5759486 -0.0013257
  0.0745279  0.0136143  1.5763426 -0.0017908  0.0202441  1.5766023 -0.0020504
  0.0767436  0.0107972  1.6071687 -0.0043388  0.0097718  1.6072279 -0.0043980
  0.0778431  0.0094115  1.6164229  0.0020105  0.0137466  1.6165400  0.0018935
  0.0749669  0.0102792  1.6060275  0.0012282  0.0128183  1.6061298  0.0011258
  0.0757565  0.0081664  1.6135997  0.0049763  0.0152647  1.6137445  0.0048315
  0.0776235  0.0115746  1.5977471  0.0054411  0.0156558  1.5979010  0.0052872
  0.0782506  0.0131804  1.5795583 -0.0029754  0.0209239  1.5798349 -0.0032520
  0.0791545  0.0105260  1.5887545  0.0100805  0.0117573  1.5888420  0.0099929
  0.0806508  0.0123256  1.5765376  0.0024243  0.0167759  1.5767163  0.0022455
  0.0808841  0.0066381  1.6335727  0.0002948  0.0104464  1.6336395  0.0002280
  0.0789001  0.0051506  1.6379427  0.0086693  0.0074565  1.6379768  0.0086352
  0.0789525  0.0082971  1.6335820 -0.0064782  0.0091223  1.6336327 -0.0065289
  0.0768104  0.0067922  1.6377576  0.0017286  0.0063050  1.6377819  0.0017043
  0.0822552  0.0054176  1.6572191 -0.0064590  0.0035751  1.6572268 -0.0064666
  0.0840695  0.0037418  1.6568011  0.0002816  0.0049982  1.6568162  0.0002665
  0.0803351  0.0037654  1.6621847  0.0021910  0.0001458  1.6621847  0.0021910
  0.0821658  0.0016226  1.6613038  0.0072580  0.0017568  1.6613057  0.0072562
  0.0836755  0.0065589  1.6313838  0.0081311  0.0019679  1.6313862  0.0081287
  0.0856356  0.0080251  1.6275995  0.0016753  0.0044486  1.6276117  0.0016631
  0.0856658  0.0050532  1.6310802  0.0134348  0.0025745  1.6310843  0.0134307
  0.0881233  0.0065167  1.6277093  0.0071025  0.0047434  1.6277232  0.0070886
  0.0822639  0.0077508  1.6054329  0.0126231  0.0094189  1.6054886  0.0125674
  0.0803979  0.0095014  1.6071713  0.0053267  0.0082081  1.6072133  0.0052847
  0.0840497  0.0093032  1.5990529  0.0031249  0.0135168  1.5991674  0.0030104
  0.0822046  0.0112868  1.6011318 -0.0031136  0.0120926  1.6012229 -0.0032047
  0.0774101  0.0020956  1.6749154 -0.0033357  0.0024855  1.6749191 -0.0033394
  0.0790368  0.0028753  1.6800031 -0.0051745 -0.0014195  1.6800043 -0.0051757
  0.0778399  0.0005615  1.6885914  0.0017409  0.0051321  1.6886070  0.0017253
  0.0804966  0.0007704  1.6885119 -0.0011724  0.0013339  1.6885130 -0.0011734
  0.0766187  0.0028884  1.6674154  0.0080014  0.0008986  1.6674159  0.0080010
  0.0748863  0.0035201  1.6709936  0.0004580  0.0058509  1.6710141  0.0004375
  0.0777571  0.0041458  1.6532620 -0.0017175  0.0071368  1.6532928 -0.0017483
  0.0757208  0.0055122  1.6589442 -0.0054712  0.0096307  1.6589999 -0.0055269
  0.0761991  0.0019150  1.6798892 -0.0014598 -0.0014998  1.6798905 -0.0014611
  0.0761914  0.0005131  1.6971088  0.0037181 -0.0023772  1.6971121  0.0037147
  0.0745174  0.0022011  1.6823730 -0.0031861  0.0051235  1.6823886 -0.0032017
  0.0743441  0.0005898  1.6970994  0.0014327  0.0038528  1.6971082  0.0014240
  0.0876625  0.0029150  1.6450691  0.0149230 -0.0004404  1.6450692  0.0149229
  0.0867341  0.0040768  1.6425418  0.0082333 -0.0034552  1.6425491  0.0082260
  0.0893737  0.0036630  1.6408965 -0.0004257  0.0015496  1.6408979 -0.0004272
  0.0891249  0.0053479  1.6398190 -0.0020143 -0.0017809  1.6398210 -0.0020163
  0.0868513  0.0020831  1.6682091 -0.0025022 -0.0043044  1.6682202 -0.0025133
  0.0863462  0.0005582  1.6865532  0.0032650 -0.0067277  1.6865800  0.0032382
  0.0853010  0.0028483  1.6763410 -0.0008039  0.0014942  1.6763423 -0.0008052
  0.0837765  0.0007632  1.6875290  0.0029060 -0.0015248  1.6875303  0.0029046
  0.0879642  0.0019637  1.6592793 -0.0031689 -0.0003575  1.6592794 -0.0031690
  0.0894545  0.0024025  1.6742866  0.0122413 -0.0151543  1.6744248  0.0121031
  0.0878601  0.0005262  1.7031080  0.0108671 -0.0061753  1.7031305  0.0108446
  0.0894266  0.0006438  1.7091764  0.0228635 -0.0191200  1.7093931  0.0226467
  0.0867057  0.0109601  1.5830022  0.0105004  0.0131278  1.5831118  0.0103908
  0.0852399  0.0101631  1.5798235  0.0130661  0.0151849  1.5799706  0.0129189
  0.0860179  0.0125479  1.5735987  0.0059894  0.0102860  1.5736662  0.0059219
  0.0837105  0.0121031  1.5732587  0.0090490  0.0125608  1.5733595  0.0089482
  0.0876004  0.0101009  1.5868573  0.0038171  0.0121578  1.5869507  0.0037238
  0.0893570  0.0093412  1.5772177  0.0247916  0.0019582  1.5772202  0.0247892
  0.0866873  0.0089742  1.6108066  0.0208870  0.0015975  1.6108082  0.0208854
  0.0891124  0.0076657  1.6014331  0.0340832 -0.0045844  1.6014465  0.0340698
  0.0878250  0.0110796  1.5730794  0.0163590  0.0231166  1.5734226  0.0160158
  0.0875255  0.0126268  1.5583073  0.0122992  0.0228457  1.5586448  0.0119617
  0.0894172  0.0106090  1.5693048  0.0171494  0.0181145  1.5695161  0.0169380
  0.0893370  0.0123972  1.5572482  0.0136024  0.0185236  1.5574705  0.0133801
  0.0788477  0.0170054  1.5422356 -0.0044673  0.0271461  1.5427119 -0.0049436
  0.0814200  0.0166392  1.5402134  0.0006322  0.0178617  1.5404206  0.0004250
  0.0785786  0.0146356  1.5692986  0.0042858  0.0239296  1.5696644  0.0039200
  0.0812578  0.0139637  1.5645906  0.0082513  0.0154037  1.5647430  0.0080989
  0.0789791  0.0188327  1.5257206  0.0036802  0.0331735  1.5264433  0.0029575
  0.0790692  0.0214552  1.4991532 -0.0043690  0.0343789  1.4999389 -0.0051546
  0.0816283  0.0186554  1.5246667  0.0057536  0.0236042  1.5250334  0.0053868
  0.0820354  0.0214881  1.5001433 -0.0019081  0.0256483  1.5005811 -0.0023459
  0.0770796  0.0188993  1.5318568  0.0035369  0.0227435  1.5321952  0.0031986
  0.0745392  0.0189040  1.5313759  0.0018012  0.0310022  1.5320040  0.0011731
  0.0770379  0.0213988  1.5101973 -0.0029364  0.0231788  1.5105523 -0.0032913
  0.0744546  0.0212778  1.5085981 -0.0049772  0.0313090  1.5092455 -0.0056245
  0.0770076  0.0171680  1.5438317 -0.0016266  0.0179772  1.5440408 -0.0018357
  0.0767692  0.0149374  1.5650272  0.0049750  0.0163127  1.5651977  0.0048044
  0.0745527  0.0172460  1.5437483 -0.0040556  0.0257588  1.5441768 -0.0044842
  0.0745051  0.0150899  1.5657942  0.0026104  0.0246758  1.5661836  0.0022210
  0.0857666  0.0178374  1.5225987  0.0069240  0.0257932  1.5230376  0.0064852
  0.0834470  0.0183887  1.5257513  0.0017290  0.0328556  1.5264593  0.0010210
  0.0861858  0.0200437  1.4968711 -0.0021483  0.0302157  1.4974800 -0.0027571
  0.0839423  0.0211099  1.5047961 -0.0056147  0.0364028  1.5056730 -0.0064916
  0.0856455  0.0162055  1.5368478  0.0014910  0.0188290  1.5370786  0.0012601
  0.0857338  0.0139534  1.5619998  0.0089806  0.0186280  1.5622232  0.0087572
  0.0832414  0.0164249  1.5386176  0.0006461  0.0273094  1.5391024  0.0001613
  0.0831750  0.0137809  1.5600342  0.0071012  0.0266565  1.5604916  0.0066438
  0.0872597  0.0160064  1.5354253  0.0047307  0.0307706  1.5360436  0.0041124
  0.0892657  0.0156820  1.5329775  0.0036517  0.0256983  1.5334092  0.0032200
  0.0873740  0.0139469  1.5499286  0.0091008  0.0311855  1.5505595  0.0084699
  0.0892964  0.0137565  1.5483257  0.0082619  0.0259248  1.5487620  0.0078256
  0.0873308  0.0174879  1.5276427  0.0036411  0.0352777  1.5284588  0.0028249
  0.0876395  0.0194759  1.5105203 -0.0015048  0.0362310  1.5113879 -0.0023725
  0.0892848  0.0170845  1.5243471  0.0027085  0.0296644  1.5249252  0.0021304
  0.0893675  0.0189908  1.5055179 -0.0029430  0.0299755  1.5061133 -0.0035384
  0.0874552  0.0226803  1.4781461 -0.0036377  0.0365093  1.4790451 -0.0045366
  0.0866383  0.0213414  1.4862697  0.0022015  0.0328693  1.4869974  0.0014739
  0.0866130  0.0239737  1.4837517 -0.0054622  0.0359791  1.4846204 -0.0063309
  0.0847907  0.0226064  1.4881137 -0.0007238  0.0334820  1.4888663 -0.0014764
  0.0882361  0.0221765  1.4853347 -0.0046562  0.0402286  1.4864201 -0.0057416
  0.0895274  0.0220936  1.4848439 -0.0034534  0.0351635  1.4856742 -0.0042838
  0.0878821  0.0207322  1.5010655  0.0004176  0.0383326  1.5020440 -0.0005610
  0.0894325  0.0203329  1.4984618  0.0006997  0.0344225  1.4992525 -0.0000910
  0.0882288  0.0232267  1.4723756 -0.0024895  0.0439378  1.4736834 -0.0037973
  0.0878548  0.0246515  1.4591246 -0.0071280  0.0417687  1.4603135 -0.0083168
  0.0895254  0.0233805  1.4730605 -0.0047113  0.0396674  1.4741245 -0.0057753
  0.0894252  0.0251359  1.4615101 -0.0083037  0.0385792  1.4625220 -0.0093156
  0.0768079  0.0258213  1.4750695 -0.0051538  0.0290835  1.4756407 -0.0057250
  0.0769651  0.0232536  1.4961472  0.0011481  0.0294015  1.4967252  0.0005701
  0.0741648  0.0255383  1.4725835 -0.0062634  0.0368313  1.4735003 -0.0071801
  0.0743542  0.0230554  1.4943205  0.0002302  0.0372743  1.4952498 -0.0006992
  0.0787577  0.0260516  1.4628950 -0.0065024  0.0399001  1.4639776 -0.0075850
  0.0814414  0.0263977  1.4656623 -0.0064500  0.0317330  1.4663461 -0.0071337
  0.0790098  0.0233895  1.4856844  0.0004058  0.0409453  1.4868123 -0.0007221
  0.0819854  0.0235627  1.4867041 -0.0000039  0.0334109  1.4874546 -0.0007544
  0.0785755  0.0279751  1.4457515 -0.0022910  0.0467145  1.4472569 -0.0037964
  0.0783297  0.0305680  1.4267481 -0.0080864  0.0457015  1.4282023 -0.0095406
  0.0811580  0.0283559  1.4482959 -0.0025554  0.0399300  1.4493940 -0.0036535
  0.0809277  0.0308708  1.4286875 -0.0085321  0.0389066  1.4297400 -0.0095845
  0.0766564  0.0277155  1.4600824 -0.0016456  0.0356951  1.4609536 -0.0025167
  0.0739957  0.0273873  1.4575819 -0.0020092  0.0431314  1.4588553 -0.0032826
  0.0763993  0.0303229  1.4396334 -0.0078167  0.0348474  1.4404718 -0.0086552
  0.0737234  0.0299560  1.4368641 -0.0082642  0.0422185  1.4380965 -0.0094965
  0.0856167  0.0274114  1.4531805 -0.0070399  0.0373583  1.4541357 -0.0079950
  0.0861204  0.0252414  1.4682573 -0.0014033  0.0403987  1.4693669 -0.0025129
  0.0832793  0.0267621  1.4509973 -0.0035131  0.0413990  1.4521747 -0.0046905
  0.0838906  0.0240589  1.4631458  0.0010061  0.0438256  1.4644582 -0.0003063
  0.0872177  0.0278422  1.4369326 -0.0058881  0.0458442  1.4383878 -0.0073433
  0.0892545  0.0283700  1.4393954 -0.0052945  0.0424677  1.4406427 -0.0065418
  0.0875839  0.0258882  1.4468595 -0.0028822  0.0465520  1.4483528 -0.0043755
  0.0893526  0.0264728  1.4504335 -0.0019746  0.0427311  1.4516896 -0.0032307
  0.0870370  0.0293458  1.4249381 -0.0044755  0.0521017  1.4268347 -0.0063721
  0.0869094  0.0314994  1.4100318 -0.0089894  0.0515199  1.4118999 -0.0108574
  0.0892061  0.0297784  1.4281204 -0.0043459  0.0461044  1.4296028 -0.0058282
  0.0891719  0.0317291  1.4114672 -0.0093556  0.0456971  1.4129354 -0.0108238
  0.0853682  0.0290411  1.4393104 -0.0025038  0.0427840  1.4405788 -0.0037722
  0.0829781  0.0286416  1.4361708 -0.0031685  0.0495304  1.4378732 -0.0048709
  0.0851931  0.0313237  1.4198069 -0.0083761  0.0421531  1.4210500 -0.0096192
  0.0827667  0.0310733  1.4179127 -0.0086686  0.0488745  1.4195852 -0.0103410
  0.0780734  0.0352038  1.3903429 -0.0118543  0.0520842  1.3922749 -0.0137863
  0.0807906  0.0353443  1.3918283 -0.0103385  0.0444009  1.3932329 -0.0117431
  0.0781952  0.0325050  1.4118727 -0.0054431  0.0520196  1.4137794 -0.0073498
  0.0808292  0.0327434  1.4142752 -0.0036209  0.0440954  1.4156452 -0.0049909
  0.0779904  0.0372842  1.3739147 -0.0070878  0.0578928  1.3763373 -0.0095105
  0.0778857  0.0402692  1.3481401 -0.0147909  0.0578949  1.3505949 -0.0172458
  0.0808897  0.0374427  1.3757102 -0.0056647  0.0482445  1.3773931 -0.0073476
  0.0811988  0.0405744  1.3506192 -0.0132714  0.0494202  1.3524076 -0.0150598
  0.0758776  0.0370620  1.3861388 -0.0074663  0.0466451  1.3876983 -0.0090258
  0.0730044  0.0366133  1.3830343 -0.0071560  0.0544459  1.3851634 -0.0092851
  0.0755954  0.0399754  1.3641423 -0.0141824  0.0454347  1.3656384 -0.0156785
  0.0726513  0.0394781  1.3608413 -0.0139644  0.0530208  1.3628830 -0.0160062
  0.0760494  0.0349985  1.4024073 -0.0109054  0.0403548  1.4035586 -0.0120567
  0.0762367  0.0322744  1.4237503 -0.0044612  0.0410997  1.4249320 -0.0056430
  0.0732372  0.0345781  1.3994114 -0.0112006  0.0478013  1.4010294 -0.0128186
  0.0735201  0.0318828  1.4207640 -0.0047318  0.0488167  1.4224338 -0.0064015
  0.0853707  0.0370428  1.3711058 -0.0049676  0.0511277  1.3730028 -0.0068646
  0.0828672  0.0373780  1.3721581 -0.0107675  0.0588345  1.3746566 -0.0132661
  0.0858045  0.0393471  1.3448236 -0.0141507  0.0554844  1.3470851 -0.0164122
  0.0833206  0.0403273  1.3513282 -0.0178594  0.0620495  1.3541344 -0.0206656
  0.0851944  0.0353456  1.3849673 -0.0112773  0.0469034  1.3865411 -0.0128511
  0.0851466  0.0330130  1.4062030 -0.0048976  0.0465798  1.4077389 -0.0064335
  0.0826987  0.0353823  1.3851300 -0.0116645  0.0541809  1.3872285 -0.0137630
  0.0826919  0.0328795  1.4049047 -0.0057311  0.0540025  1.4069690 -0.0077954
  0.0869304  0.0352753  1.3810357 -0.0122951  0.0572619  1.3833850 -0.0146444
  0.0891775  0.0351200  1.3807277 -0.0088802  0.0499375  1.3825200 -0.0106724
  0.0868808  0.0330882  1.3992680 -0.0067572  0.0559583  1.4014915 -0.0089808
  0.0891642  0.0331604  1.4010703 -0.0027548  0.0485950  1.4027504 -0.0044349
  0.0870717  0.0368180  1.3716678 -0.0091406  0.0600143  1.3742713 -0.0117441
  0.0874081  0.0388457  1.3557243 -0.0141949  0.0615641  1.3584854 -0.0169560
  0.0892154  0.0365389  1.3701170 -0.0079420  0.0544527  1.3722653 -0.0100903
  0.0893055  0.0384559  1.3526489 -0.0132669  0.0554318  1.3548947 -0.0155127
  0.0871801  0.0421160  1.3255787 -0.0151953  0.0610892  1.3283564 -0.0179729
  0.0862893  0.0407065  1.3338822 -0.0089157  0.0572231  1.3363163 -0.0113499
  0.0862321  0.0434385  1.3308092 -0.0176128  0.0605921  1.3335265 -0.0203301
  0.0842222  0.0419512  1.3353844 -0.0124292  0.0579377  1.3378704 -0.0149152
  0.0880497  0.0416174  1.3319015 -0.0163780  0.0653518  1.3350617 -0.0195382
  0.0894774  0.0415777  1.3321579 -0.0142789  0.0602082  1.3348448 -0.0169659
  0.0876702  0.0401317  1.3467115 -0.0114227  0.0632713  1.3496527 -0.0143639
  0.0893757  0.0398060  1.3449980 -0.0103263  0.0592760  1.3475856 -0.0129138
  0.0880332  0.0426964  1.3192781 -0.0134049  0.0687268  1.3228130 -0.0169398
  0.0876086  0.0441584  1.3054018 -0.0182710  0.0664085  1.3087252 -0.0215943
  0.0894730  0.0428724  1.3202019 -0.0156997  0.0637754  1.3232397 -0.0187374
  0.0893592  0.0446377  1.3078398 -0.0195491  0.0626570  1.3107909 -0.0225002
  0.0749758  0.0453246  1.3252406 -0.0177425  0.0503107  1.3271227 -0.0196246
  0.0753538  0.0421894  1.3468997 -0.0110042  0.0519891  1.3488873 -0.0129918
  0.0719103  0.0447135  1.3217047 -0.0168660  0.0574912  1.3241694 -0.0193307
  0.0723581  0.0416485  1.3436685 -0.0099815  0.0593876  1.3462689 -0.0125819
  0.0772345  0.0457036  1.3086959 -0.0185061  0.0632277  1.3117013 -0.0215115
  0.0803399  0.0461280  1.3113944 -0.0197169  0.0547178  1.3136399 -0.0219624
  0.0776831  0.0425252  1.3327011 -0.0110277  0.0651640  1.3358539 -0.0141804
  0.0810515  0.0429016  1.3346408 -0.0123249  0.0572308  1.3370681 -0.0147522
  0.0769769  0.0480594  1.2899205 -0.0150633  0.0706400  1.2937331 -0.0188759
  0.0767218  0.0513171  1.2671644 -0.0219838  0.0695563  1.2709065 -0.0257258
  0.0799807  0.0484138  1.2921676 -0.0155670  0.0628758  1.2951837 -0.0185831
  0.0797109  0.0514323  1.2676455 -0.0230389  0.0616131  1.2705801 -0.0259734
  0.0746987  0.0477283  1.3041087 -0.0137615  0.0575037  1.3066131 -0.0162658
  0.0714785  0.0471779  1.3000675 -0.0137220  0.0665430  1.3034292 -0.0170837
  0.0743198  0.0511600  1.2766609 -0.0221410  0.0559387  1.2790657 -0.0245458
  0.0707467  0.0508459  1.2749251 -0.0215047  0.0643297  1.2781094 -0.0246890
  0.0850726  0.0471233  1.2983579 -0.0197860  0.0608282  1.3011590 -0.0225871
  0.0856674  0.0447802  1.3152374 -0.0133000  0.0644412  1.3183558 -0.0164184
  0.0824402  0.0465084  1.2966079 -0.0153747  0.0654454  1.2998644 -0.0186312
  0.0831908  0.0435059  1.3098086 -0.0103187  0.0682549  1.3133282 -0.0138383
  0.0868738  0.0474994  1.2835695 -0.0168719  0.0702580  1.2873543 -0.0206567
  0.0891623  0.0479121  1.2856215 -0.0161411  0.0663413  1.2889937 -0.0195133
  0.0872979  0.0454454  1.2939518 -0.0137794  0.0709677  1.2977918 -0.0176194
  0.0892760  0.0459881  1.2974560 -0.0125981  0.0665391  1.3008269 -0.0159690
  0.0866585  0.0491008  1.2728186 -0.0156015  0.0767896  1.2773791 -0.0201620
  0.0864946  0.0514218  1.2576645 -0.0202319  0.0759568  1.2621635 -0.0247308
  0.0891046  0.0493468  1.2742624 -0.0166958  0.0700706  1.2780546 -0.0204880
  0.0890607  0.0513423  1.2565996 -0.0220252  0.0693991  1.2603553 -0.0257809
  0.0847735  0.0489120  1.2840148 -0.0151008  0.0663410  1.2873938 -0.0184798
  0.0820698  0.0486423  1.2820619 -0.0151290  0.0738148  1.2862487 -0.0193158
  0.0845514  0.0514559  1.2617095 -0.0218429  0.0654366  1.2650369 -0.0251703
  0.0818088  0.0514695  1.2620004 -0.0211955  0.0729663  1.2661362 -0.0253313
  0.0744104  0.0573920  1.2283388 -0.0286842  0.0633815  1.2315265 -0.0318719
  0.0742426  0.0537494  1.2598323 -0.0191112  0.0618295  1.2628145 -0.0220933
  0.0713416  0.0575351  1.2288486 -0.0309606  0.0731829  1.2330856 -0.0351976
  0.0707100  0.0536211  1.2582217 -0.0217414  0.0705602  1.2620997 -0.0256194
  0.0766200  0.0572169  1.2269503 -0.0274345  0.0765791  1.2316081 -0.0320922
  0.0795880  0.0568814  1.2249773 -0.0260510  0.0685396  1.2287212 -0.0297948
  0.0766262  0.0537708  1.2517146 -0.0200091  0.0757840  1.2562148 -0.0245092
  0.0796056  0.0537011  1.2518224 -0.0180103  0.0677132  1.2554230 -0.0216109
  0.0766772  0.0598565  1.2099920 -0.0258603  0.0815391  1.2153486 -0.0312168
  0.0768396  0.0636218  1.1756620 -0.0362468  0.0828388  1.1812982 -0.0418829
  0.0795870  0.0595151  1.2076828 -0.0251526  0.0733345  1.2120298 -0.0294995
  0.0796020  0.0635303  1.1753233 -0.0348674  0.0741147  1.1798453 -0.0393894
  0.0745658  0.0600513  1.2088184 -0.0247587  0.0679562  1.2125508 -0.0284910
  0.0717070  0.0602424  1.2093334 -0.0274071  0.0754186  1.2139156 -0.0319893
  0.0748223  0.0636740  1.1813038 -0.0332658  0.0700098  1.1853260 -0.0372880
  0.0720736  0.0637252  1.1807552 -0.0363703  0.0778913  1.1857197 -0.0413348
  0.0664583  0.0583153  1.2289929 -0.0328184  0.0692243  1.2327792 -0.0366048
  0.0692108  0.0577824  1.2271508 -0.0256221  0.0618528  1.2301972 -0.0286686
  0.0656667  0.0552645  1.2587951 -0.0213140  0.0627941  1.2618680 -0.0243869
  0.0684121  0.0540271  1.2519152 -0.0164377  0.0568783  1.2544607 -0.0189832
  0.0669343  0.0606087  1.2113384 -0.0272551  0.0716698  1.2154717 -0.0313884
  0.0674430  0.0638233  1.1845112 -0.0359650  0.0747522  1.1890726 -0.0405264
  0.0696621  0.0603918  1.2107629 -0.0241597  0.0644939  1.2141220 -0.0275188
  0.0700963  0.0637652  1.1851613 -0.0323545  0.0671770  1.1888566 -0.0360498
  0.0649982  0.0607672  1.2121587 -0.0227802  0.0603728  1.2151031 -0.0257246
  0.0624364  0.0609835  1.2121331 -0.0281478  0.0674185  1.2157871 -0.0318017
  0.0655169  0.0638658  1.1883451 -0.0309453  0.0640946  1.1917052 -0.0343053
  0.0629081  0.0639238  1.1870337 -0.0367095  0.0712831  1.1911719 -0.0408478
  0.0645466  0.0586211  1.2256468 -0.0277467  0.0598917  1.2285021 -0.0306020
  0.0638317  0.0558563  1.2471263 -0.0197512  0.0556859  1.2495693 -0.0221942
  0.0620763  0.0589235  1.2261528 -0.0327567  0.0659610  1.2295995 -0.0362033
  0.0615640  0.0562357  1.2485319 -0.0248440  0.0620747  1.2515508 -0.0278629
  0.0638230  0.0516255  1.2826665 -0.0197828  0.0570535  1.2851610 -0.0222772
  0.0649605  0.0534720  1.2740558 -0.0276350  0.0618252  1.2769856 -0.0305649
  0.0649123  0.0499987  1.2782357 -0.0160226  0.0585455  1.2808786 -0.0186655
  0.0672603  0.0519414  1.2730087 -0.0228460  0.0616962  1.2759395 -0.0257768
  0.0627680  0.0522020  1.2780312 -0.0182386  0.0521187  1.2801234 -0.0203307
  0.0609750  0.0521500  1.2764456 -0.0219846  0.0582873  1.2790569 -0.0245959
  0.0633552  0.0541363  1.2594466 -0.0248475  0.0553665  1.2618290 -0.0272299
  0.0612689  0.0544208  1.2604963 -0.0271516  0.0601401  1.2632990 -0.0299544
  0.0627469  0.0508340  1.2927335 -0.0214698  0.0492465  1.2945763 -0.0233126
  0.0632763  0.0490308  1.3082841 -0.0169386  0.0506735  1.3102189 -0.0188734
  0.0609444  0.0505178  1.2897157 -0.0228520  0.0549876  1.2920153 -0.0251516
  0.0611546  0.0483294  1.3038302 -0.0186574  0.0553036  1.3061389 -0.0209661
  0.0663316  0.0455075  1.3151861 -0.0130324  0.0593961  1.3178369 -0.0156832
  0.0655844  0.0483593  1.2963305 -0.0202688  0.0553955  1.2986571 -0.0225955
  0.0692366  0.0465829  1.3193025 -0.0169695  0.0546287  1.3215321 -0.0191991
  0.0684060  0.0500955  1.3036909 -0.0228366  0.0514435  1.3056829 -0.0248286
  0.0643152  0.0448339  1.3385492 -0.0155376  0.0485858  1.3402903 -0.0172787
  0.0617113  0.0440691  1.3349084 -0.0147491  0.0534506  1.3370219 -0.0168626
  0.0636965  0.0474231  1.3233001 -0.0205799  0.0465706  1.3249120 -0.0221919
  0.0613600  0.0466014  1.3184069 -0.0199944  0.0518362  1.3204115 -0.0219990
  0.0647095  0.0428025  1.3570704 -0.0178474  0.0414809  1.3583207 -0.0190978
  0.0651680  0.0398417  1.3783064 -0.0111051  0.0435483  1.3796700 -0.0124687
  0.0619135  0.0419930  1.3517350 -0.0170420  0.0486218  1.3534600 -0.0187669
  0.0621148  0.0388533  1.3727974 -0.0105703  0.0500119  1.3746031 -0.0123760
  0.0668012  0.0433927  1.3345218 -0.0169247  0.0529688  1.3365947 -0.0189976
  0.0697200  0.0441959  1.3394807 -0.0173528  0.0460608  1.3410425 -0.0189146
  0.0673371  0.0404670  1.3558981 -0.0101448  0.0551023  1.3581171 -0.0123639
  0.0702101  0.0411870  1.3604663 -0.0107365  0.0480086  1.3621451 -0.0124153
  0.0684433  0.0336224  1.4129000 -0.0101338  0.0430196  1.4141994 -0.0114331
  0.0711991  0.0342094  1.4165023 -0.0106496  0.0363666  1.4174284 -0.0115757
  0.0688838  0.0310224  1.4322427 -0.0040625  0.0447713  1.4336369 -0.0054567
  0.0715499  0.0315473  1.4356595 -0.0046954  0.0378517  1.4366536 -0.0056895
  0.0681238  0.0355931  1.3951262 -0.0075388  0.0504952  1.3969416 -0.0093542
  0.0676915  0.0383771  1.3741517 -0.0140199  0.0488905  1.3758715 -0.0157397
  0.0709268  0.0362197  1.3994416 -0.0074729  0.0432104  1.4007675 -0.0087988
  0.0705335  0.0390498  1.3786651 -0.0138733  0.0417387  1.3799150 -0.0151232
  0.0661649  0.0350794  1.4128095 -0.0076475  0.0392857  1.4138952 -0.0087332
  0.0636158  0.0343026  1.4084814 -0.0049490  0.0453009  1.4099319 -0.0063994
  0.0655580  0.0377723  1.3963298 -0.0133800  0.0366603  1.3972825 -0.0143327
  0.0625710  0.0367927  1.3923239 -0.0112166  0.0416948  1.3935615 -0.0124541
  0.0665272  0.0331574  1.4323849 -0.0109614  0.0328367  1.4331316 -0.0117081
  0.0669104  0.0305993  1.4499426 -0.0054464  0.0343895  1.4507547 -0.0062585
  0.0640484  0.0324740  1.4276483 -0.0105475  0.0394233  1.4287281 -0.0116273
  0.0641852  0.0299684  1.4463817 -0.0048309  0.0404619  1.4475090 -0.0059582
  0.0609835  0.0318577  1.4342340 -0.0128596  0.0376339  1.4352121 -0.0138376
  0.0625629  0.0321258  1.4386379 -0.0079189  0.0307763  1.4392924 -0.0085734
  0.0606946  0.0303739  1.4563300 -0.0054178  0.0345402  1.4571457 -0.0062335
  0.0625197  0.0299080  1.4534555 -0.0034185  0.0295862  1.4540561 -0.0040191
  0.0606628  0.0327652  1.4267983 -0.0016586  0.0368437  1.4277479 -0.0026082
  0.0594977  0.0337604  1.4254891 -0.0097081  0.0348258  1.4263337 -0.0105527
  0.0621416  0.0336825  1.4228772 -0.0116481  0.0395195  1.4239651 -0.0127360
  0.0609471  0.0357177  1.4228323 -0.0150817  0.0375004  1.4238096 -0.0160590
  0.0599644  0.0319587  1.4362329 -0.0092247  0.0344777  1.4370548 -0.0100467
  0.0595352  0.0306727  1.4495211 -0.0035786  0.0310765  1.4501854 -0.0042429
  0.0587597  0.0325025  1.4396908 -0.0123700  0.0375016  1.4406587 -0.0133379
  0.0581928  0.0310231  1.4509577 -0.0073841  0.0344496  1.4517711 -0.0081974
  0.0695090  0.0266936  1.4681654 -0.0019776  0.0397742  1.4692407 -0.0030529
  0.0691693  0.0291658  1.4482471 -0.0080876  0.0384415  1.4492611 -0.0091016
  0.0720806  0.0271134  1.4712027 -0.0020855  0.0326071  1.4719241 -0.0028068
  0.0717861  0.0296460  1.4516257 -0.0080705  0.0314411  1.4523026 -0.0087475
  0.0676668  0.0263290  1.4826547 -0.0022420  0.0300992  1.4832646 -0.0028519
  0.0652055  0.0257528  1.4788513 -0.0006957  0.0368677  1.4797694 -0.0016138
  0.0672157  0.0287696  1.4642492 -0.0082162  0.0279762  1.4647806 -0.0087475
  0.0644952  0.0281675  1.4610208 -0.0067393  0.0341475  1.4618148 -0.0075333
  0.0679508  0.0246000  1.4988983 -0.0062642  0.0242212  1.4992879 -0.0066539
  0.0682756  0.0223169  1.5157729 -0.0010034  0.0255952  1.5162047 -0.0014352
  0.0655971  0.0240753  1.4954234 -0.0058309  0.0303140  1.4960353 -0.0064428
  0.0659570  0.0219071  1.5130407 -0.0003042  0.0318929  1.5137125 -0.0009760
  0.0697389  0.0249278  1.4831403 -0.0063038  0.0336937  1.4839021 -0.0070657
  0.0722706  0.0252989  1.4860478 -0.0057306  0.0265317  1.4865196 -0.0062024
  0.0700275  0.0225760  1.5032833 -0.0002251  0.0346713  1.5040824 -0.0010242
  0.0724953  0.0228739  1.5057358  0.0002022  0.0272803  1.5062300 -0.0002920
  0.0614875  0.0245023  1.4930349 -0.0016726  0.0326514  1.4937478 -0.0023855
  0.0608783  0.0263057  1.4809526 -0.0068419  0.0295243  1.4815382 -0.0074276
  0.0635497  0.0252633  1.4955823 -0.0051238  0.0295155  1.4961626 -0.0057041
  0.0627971  0.0275072  1.4858554 -0.0092768  0.0270052  1.4863430 -0.0097644
  0.0600642  0.0240258  1.5102116 -0.0042618  0.0261131  1.5106617 -0.0047119
  0.0582377  0.0234850  1.5078135 -0.0029032  0.0295206  1.5083901 -0.0034798
  0.0595761  0.0256645  1.5000926 -0.0078874  0.0243166  1.5004846 -0.0082794
  0.0579371  0.0251144  1.4970165 -0.0065350  0.0280129  1.4975383 -0.0070567
  0.0603611  0.0227275  1.5228029 -0.0064678  0.0204610  1.5230766 -0.0067415
  0.0606844  0.0208189  1.5369806 -0.0019941  0.0217978  1.5372893 -0.0023028
  0.0584400  0.0222212  1.5192121 -0.0061234  0.0257080  1.5196453 -0.0065565
  0.0586919  0.0203977  1.5342511 -0.0014208  0.0269639  1.5347244 -0.0018941
  0.0618402  0.0231179  1.5064527 -0.0063072  0.0280681  1.5069733 -0.0068278
  0.0639598  0.0236782  1.5104778 -0.0064700  0.0222800  1.5108049 -0.0067971
  0.0621944  0.0211387  1.5232376 -0.0010299  0.0296344  1.5238135 -0.0016058
  0.0643275  0.0215914  1.5264157 -0.0014625  0.0237521  1.5267849 -0.0018317
  0.0588718  0.0278082  1.4786600 -0.0076622  0.0257362  1.4791055 -0.0081077
  0.0592566  0.0266780  1.4900363 -0.0041524  0.0271976  1.4905312 -0.0046472
  0.0576264  0.0276089  1.4766626 -0.0079308  0.0303227  1.4772817 -0.0085499
  0.0577733  0.0262194  1.4869123 -0.0048288  0.0308005  1.4875480 -0.0054645
  0.0595942  0.0282931  1.4721321 -0.0053432  0.0312330  1.4727920 -0.0060032
  0.0603223  0.0294187  1.4645422 -0.0113322  0.0348815  1.4653661 -0.0121562
  0.0603710  0.0273214  1.4681626 -0.0027824  0.0315814  1.4688404 -0.0034601
  0.0619323  0.0286207  1.4636854 -0.0076991  0.0341128  1.4644759 -0.0084895
  0.0588677  0.0286403  1.4688822 -0.0037943  0.0281779  1.4694211 -0.0043332
  0.0576598  0.0286171  1.4680022 -0.0059777  0.0326873  1.4687268 -0.0067022
  0.0592413  0.0297835  1.4562744 -0.0081826  0.0303105  1.4569014 -0.0088097
  0.0578981  0.0299820  1.4573222 -0.0094579  0.0339430  1.4581072 -0.0102430
  0.0703822  0.0186718  1.5374575  0.0010544  0.0294105  1.5380203  0.0004916
  0.0701999  0.0208997  1.5172485 -0.0049935  0.0289002  1.5177970 -0.0055420
  0.0727446  0.0188431  1.5390687  0.0017260  0.0219246  1.5393813  0.0014134
  0.0726223  0.0211441  1.5194035 -0.0041642  0.0216253  1.5197104 -0.0044711
  0.0686873  0.0185077  1.5473618  0.0007173  0.0208823  1.5476437  0.0004354
  0.0664195  0.0182306  1.5451246  0.0005943  0.0277816  1.5456242  0.0000948
  0.0684730  0.0206845  1.5291685 -0.0047901  0.0200620  1.5294308 -0.0050525
  0.0661773  0.0203410  1.5264377 -0.0050710  0.0268331  1.5269077 -0.0055410
  0.0688203  0.0169431  1.5599881 -0.0037271  0.0158678  1.5601491 -0.0038881
  0.0689691  0.0148451  1.5783389  0.0017810  0.0163402  1.5785082  0.0016117
  0.0665651  0.0167025  1.5578750 -0.0043140  0.0228497  1.5582092 -0.0046481
  0.0667208  0.0146380  1.5765071  0.0012788  0.0233584  1.5768534  0.0009325
  0.0704928  0.0170826  1.5500574 -0.0040568  0.0243296  1.5504382 -0.0044376
  0.0728071  0.0172231  1.5514550 -0.0032128  0.0170719  1.5516424 -0.0034003
  0.0706129  0.0149684  1.5696342  0.0017933  0.0245645  1.5700190  0.0014085
  0.0728555  0.0150982  1.5710159  0.0026461  0.0170736  1.5712017  0.0024603
  0.0626467  0.0176932  1.5538801 -0.0000280  0.0258007  1.5543084 -0.0004563
  0.0624105  0.0196852  1.5365115 -0.0053105  0.0248475  1.5369119 -0.0057108
  0.0648009  0.0180123  1.5563525  0.0000801  0.0195036  1.5565968 -0.0001643
  0.0645529  0.0200732  1.5395734 -0.0050240  0.0185723  1.5397967 -0.0052473
  0.0611035  0.0174607  1.5653842 -0.0001904  0.0176949  1.5655842 -0.0003904
  0.0590417  0.0171448  1.5629060 -0.0003457  0.0237646  1.5632672 -0.0007069
  0.0608833  0.0194077  1.5491885 -0.0051107  0.0168448  1.5493710 -0.0052932
  0.0588532  0.0190375  1.5461742 -0.0054213  0.0229651  1.5465140 -0.0057611
  0.0612355  0.0160325  1.5772972 -0.0039655  0.0132511  1.5774082 -0.0040766
  0.0613760  0.0140777  1.5945011  0.0011920  0.0136653  1.5946183  0.0010748
  0.0591565  0.0157520  1.5747393 -0.0047858  0.0198442  1.5749885 -0.0050351
  0.0592816  0.0138396  1.5923527  0.0004949  0.0202284  1.5926097  0.0002379
  0.0627875  0.0162365  1.5662787 -0.0046487  0.0213098  1.5665677 -0.0049377
  0.0649486  0.0165132  1.5687941 -0.0038041  0.0145104  1.5689279 -0.0039380
  0.0629362  0.0142488  1.5845327  0.0008210  0.0217552  1.5848315  0.0005222
  0.0651043  0.0144782  1.5866172  0.0015363  0.0149559  1.5867583  0.0013952
  0.0845470  0.0578959  1.2054464 -0.0207801  0.0761144  1.2101529 -0.0254866
  0.0816957  0.0589898  1.2140514 -0.0215834  0.0844832  1.2198010 -0.0273330
  0.0848484  0.0604059  1.1775059 -0.0296080  0.0787104  1.1826166 -0.0347187
  0.0817480  0.0626686  1.1928006 -0.0279988  0.0856799  1.1987846 -0.0339828
  0.0844437  0.0560072  1.2206003 -0.0272121  0.0698266  1.2244955 -0.0311074
  0.0844631  0.0533570  1.2469022 -0.0193160  0.0701928  1.2507815 -0.0231953
  0.0816843  0.0565573  1.2257151 -0.0249548  0.0784440  1.2306160 -0.0298557
  0.0817055  0.0535903  1.2492073 -0.0179023  0.0787698  1.2540852 -0.0227803
  0.0864145  0.0555433  1.2301731 -0.0231776  0.0815478  1.2354566 -0.0284611
  0.0890393  0.0548258  1.2250028 -0.0208389  0.0736944  1.2293468 -0.0251829
  0.0864292  0.0531481  1.2483725 -0.0177363  0.0804332  1.2534618 -0.0228256
  0.0890432  0.0528104  1.2466002 -0.0143667  0.0723404  1.2507367 -0.0185033
  0.0865224  0.0571662  1.2218036 -0.0213507  0.0844876  1.2275193 -0.0270664
  0.0868320  0.0592048  1.2078534 -0.0258409  0.0859969  1.2138191 -0.0318066
  0.0890682  0.0562662  1.2164310 -0.0204113  0.0786824  1.2214163 -0.0253967
  0.0891511  0.0581861  1.2004202 -0.0253146  0.0798160  1.2055958 -0.0304901
  0.0862878  0.0627294  1.1714441 -0.0271856  0.0841864  1.1773281 -0.0330696
  0.0853148  0.0617010  1.1710548 -0.0219257  0.0827165  1.1767628 -0.0276337
  0.0848371  0.0643916  1.1637982 -0.0394671  0.0784551  1.1688921 -0.0445609
  0.0825897  0.0641160  1.1660020 -0.0310195  0.0791245  1.1712096 -0.0362271
  0.0874911  0.0618975  1.1851261 -0.0269240  0.0905698  1.1918565 -0.0336544
  0.0893277  0.0612867  1.1775894 -0.0303552  0.0828934  1.1832513 -0.0360171
  0.0870916  0.0604725  1.2011407 -0.0223653  0.0893274  1.2076280 -0.0288526
  0.0892207  0.0595313  1.1928940 -0.0258147  0.0828871  1.1985055 -0.0314262
  0.0873532  0.0629644  1.1749603 -0.0181247  0.0913184  1.1819093 -0.0250738
  0.0865769  0.0644546  1.1607536 -0.0260267  0.0862594  1.1669905 -0.0322635
  0.0892908  0.0625782  1.1680262 -0.0301003  0.0841130  1.1739025 -0.0359765
  0.0890828  0.0643511  1.1579578 -0.0337425  0.0816699  1.1635287 -0.0393134
  0.5210891  0.0159665  0.5763726 -0.2637066  0.3239650  0.6867919 -0.3741259
  0.5349328  0.0145880  0.3427555 -0.9717725  0.2176483  0.3778546 -1.0068716
  0.5209802  0.0042782  0.7543336 -0.2148612  0.5115926  0.9744075 -0.4349351
  0.5349037  0.0039089  0.5388572 -0.9143898  0.4236272  0.6533292 -1.0288618
  0.5215561  0.0241457  0.4931250 -0.5174232  0.5119790  0.7071731 -0.7314713
  0.5227231  0.0348033  0.3475379 -0.5268810  0.3977679  0.5014049 -0.6807480
  0.5350580  0.0223047  0.3397285 -0.9487675  0.4240906  0.4667835 -1.0758225
  0.5353707  0.0327077  0.1784064 -0.9873164  0.2996976  0.2509426 -1.0598526
  0.5111023  0.0257016  0.3962053 -0.2295231  0.1879794  0.4483346 -0.2816524
  0.4960440  0.0281115  0.4561824 -0.1388532  0.2712298  0.5612592 -0.2439301
  0.5125609  0.0375642  0.1833887 -0.2848082  0.1704769  0.2388838 -0.3403034
  0.4974447  0.0430112  0.2837186 -0.1853054  0.2553251  0.3958862 -0.2974731
  0.5106018  0.0168458  0.6111309 -0.0401411 -0.0870231  0.6225584 -0.0515686
  0.5106930  0.0045138  1.0792703  0.1001467 -0.0937022  1.0881569  0.0912600
  0.4957939  0.0178697  0.6389826 -0.0541158  0.0906813  0.6506504 -0.0657837
  0.4965111  0.0047882  1.0818543  0.0776781  0.0917184  1.0901629  0.0693696
  0.5270914  0.0498168  0.2135196 -0.6602697  0.3829684  0.3576084 -0.8043585
  0.5365412  0.0498029  0.1174666 -0.9799433  0.3434580  0.2160951 -1.0785718
  0.5242063  0.0416819  0.2764019 -0.7241192  0.4614885  0.4567530 -0.9044704
  0.5357681  0.0400758  0.1904393 -0.9741417  0.4191750  0.3256235 -1.1093259
  0.5271151  0.0555662  0.1384184 -0.6809614  0.4383698  0.3287401 -0.8712831
  0.5242946  0.0631389  0.1090952 -0.7603332  0.3647059  0.2418198 -0.8930578
  0.5365475  0.0568684  0.0573888 -0.9543917  0.4488118  0.2277803 -1.1247832
  0.5357917  0.0664448  0.0476060 -0.9706436  0.3837796  0.1760507 -1.0990883
  0.5214293  0.0523036  0.0773342 -0.5103465  0.3568390  0.2457451 -0.6787575
  0.5153280  0.0446921  0.2075267 -0.3929520  0.2899709  0.3246922 -0.5101174
  0.5154099  0.0590836  0.1466318 -0.5689245  0.3521221  0.2908449 -0.7131375
  0.5026337  0.0513102  0.2251353 -0.4652229  0.3034076  0.3395264 -0.5796140
  0.5095657  0.0784796  0.0415574 -0.5287743  0.3271351  0.1903696 -0.6775865
  0.5122311  0.0660974  0.0353871 -0.4823050  0.4117996  0.2629361 -0.7098540
  0.4937180  0.0747156  0.1244257 -0.2691989  0.2976042  0.2844094 -0.4291826
  0.4968434  0.0593549  0.1187063 -0.2338237  0.3664331  0.3490647 -0.4641821
  0.5205721  0.0810523  0.0592715 -0.7032767  0.3615523  0.2034400 -0.8474453
  0.5347943  0.0843171 -0.0143425 -0.9251417  0.3910092  0.1304887 -1.0699729
  0.5225414  0.0699679  0.0418360 -0.6804530  0.4206194  0.2350795 -0.8736965
  0.5353220  0.0737997 -0.0414290 -0.9243500  0.4588140  0.1538190 -1.1195980
  0.5195615  0.0895097  0.0106768 -0.6451784  0.4500076  0.2395646 -0.8740662
  0.5187699  0.1015312  0.0080138 -0.6563637  0.3893791  0.1876506 -0.8360006
  0.5345235  0.0921082 -0.0647079 -0.8958775  0.4656293  0.1438238 -1.1044092
  0.5343114  0.1028767 -0.0650061 -0.8994796  0.3971195  0.0937697 -1.0582554
  0.5082240  0.0877061 -0.0130468 -0.5153131  0.4216515  0.2265928 -0.7549527
  0.4922111  0.0853773  0.0432749 -0.3261205  0.4131679  0.3111487 -0.5939943
  0.5072235  0.1005313 -0.0197218 -0.5289238  0.3643552  0.1701728 -0.7188184
  0.4912196  0.0991449  0.0373222 -0.3379037  0.3597258  0.2554201 -0.5560016
  0.4648892  0.0831131  0.1217465 -0.1323654  0.3373263  0.3551517 -0.3657706
  0.4638577  0.0980905  0.0835319 -0.1496861  0.3037541  0.2922907 -0.3584449
  0.4805996  0.0841466  0.0936888 -0.2338159  0.3257831  0.2945588 -0.4346860
  0.4795998  0.0984909  0.0537660 -0.2519813  0.2907207  0.2293568 -0.4275720
  0.4531113  0.0825780  0.2169019 -0.0775184  0.2431415  0.3539252 -0.2145416
  0.4366440  0.0821498  0.2272989 -0.0374753  0.2666632  0.3926291 -0.2028056
  0.4521933  0.0978206  0.1513147 -0.0993091  0.2282729  0.2864094 -0.2344038
  0.4360676  0.0974836  0.1622931 -0.0582905  0.2523789  0.3274272 -0.2234246
  0.4537774  0.0713774  0.2958877 -0.0461184  0.1149312  0.3309216 -0.0811523
  0.4546790  0.0560193  0.4130527 -0.0101968  0.1223926  0.4458967 -0.0430408
  0.4372092  0.0709404  0.2972367 -0.0315252  0.1589308  0.3615042 -0.0957927
  0.4381770  0.0556495  0.4149100  0.0046127  0.1666117  0.4740443 -0.0545215
  0.4657748  0.0719179  0.1990811 -0.1004988  0.2172618  0.3131845 -0.2146022
  0.4819843  0.0729574  0.1703518 -0.2101786  0.1947233  0.2523328 -0.2921597
  0.4671628  0.0563095  0.2683354 -0.0713643  0.2554733  0.4052682 -0.2082971
  0.4847674  0.0567323  0.2389373 -0.1742075  0.2330535  0.3437908 -0.2790611
  0.4519771  0.1245326  0.0525522 -0.1425207  0.3155640  0.2853095 -0.3752781
  0.4518894  0.1090623  0.0988269 -0.1288866  0.3323802  0.3363104 -0.3663701
  0.4357689  0.1243910  0.0670598 -0.0928961  0.3321208  0.3286967 -0.3545330
  0.4358331  0.1088021  0.1131118 -0.0788999  0.3489626  0.3790341 -0.3448222
  0.4637615  0.1244635  0.0148587 -0.2020940  0.3704225  0.2923616 -0.4795969
  0.4797490  0.1241330 -0.0136660 -0.2951831  0.3586192  0.2308295 -0.5396787
  0.4635556  0.1091703  0.0445394 -0.1942632  0.4009840  0.3435217 -0.4932456
  0.4793718  0.1092053  0.0164164 -0.2882227  0.3897948  0.2825956 -0.5544019
  0.4638351  0.1358091 -0.0052270 -0.2305396  0.4452487  0.3413964 -0.5771630
  0.4638301  0.1515130 -0.0289248 -0.2376789  0.4108066  0.2905574 -0.5571610
  0.4806454  0.1355586 -0.0398020 -0.3445499  0.4350588  0.2687947 -0.6531466
  0.4827171  0.1518459 -0.0590284 -0.3393341  0.4028585  0.2273604 -0.6257229
  0.4517138  0.1358695  0.0184323 -0.1692405  0.4002959  0.3357432 -0.4865514
  0.4354083  0.1357837  0.0371176 -0.1064891  0.4104228  0.3819707 -0.4513422
  0.4509070  0.1513722 -0.0101905 -0.1806429  0.3789911  0.2930390 -0.4838723
  0.4344874  0.1513202  0.0084302 -0.1182946  0.3890958  0.3392889 -0.4491534
  0.5089017  0.1321863 -0.0707700 -0.5733721  0.4488272  0.1923199 -0.8364620
  0.4927209  0.1345878 -0.0233834 -0.4302811  0.4677394  0.2832379 -0.7369024
  0.5112683  0.1443617 -0.0938042 -0.5569794  0.4048022  0.1409746 -0.7917582
  0.4954281  0.1499297 -0.0423865 -0.4190506  0.4323483  0.2408682 -0.7023052
  0.5077865  0.1229741 -0.0639443 -0.5410357  0.3911692  0.1556774 -0.7606574
  0.5071063  0.1099813 -0.0503702 -0.5438653  0.4416042  0.2087465 -0.8029819
  0.4915455  0.1237340 -0.0144773 -0.3786625  0.4000291  0.2429538 -0.6360935
  0.4910412  0.1094225 -0.0014754 -0.3789791  0.4459129  0.2939892 -0.6744437
  0.5192824  0.1223854 -0.0201211 -0.6555248  0.4064264  0.1780422 -0.8536881
  0.5344487  0.1215369 -0.0862182 -0.8733412  0.3970009  0.0792376 -1.0387971
  0.5186951  0.1103402 -0.0121051 -0.6598001  0.4589734  0.2257713 -0.8976765
  0.5342914  0.1107621 -0.0755214 -0.8723691  0.4559377  0.1315469 -1.0794374
  0.5201445  0.1307719 -0.0196960 -0.6875702  0.4558150  0.2114167 -0.9186829
  0.5219127  0.1416390 -0.0326420 -0.6733421  0.4140739  0.1705357 -0.8765198
  0.5346797  0.1293091 -0.0694652 -0.8460211  0.4417244  0.1303727 -1.0458589
  0.5351535  0.1397682 -0.0879032 -0.8461661  0.3962912  0.0814062 -1.0154755
  0.5207563  0.1594074 -0.0789859 -0.5912811  0.4247093  0.1608399 -0.8311069
  0.5144448  0.1516556 -0.0646174 -0.6088880  0.4289098  0.1712052 -0.8447106
  0.5145079  0.1663016 -0.0518008 -0.5607459  0.4404896  0.2024381 -0.8149848
  0.5012659  0.1584274 -0.0484795 -0.5822928  0.4393164  0.1986548 -0.8294271
  0.5266267  0.1568960 -0.0234471 -0.6552300  0.3949413  0.1663946 -0.8450717
  0.5364166  0.1569287 -0.0701060 -0.8108814  0.3908679  0.0979900 -0.9789774
  0.5236496  0.1486389 -0.0270985 -0.6961915  0.4362735  0.1881331 -0.9114231
  0.5356189  0.1471689 -0.0644147 -0.8170703  0.4277973  0.1290234 -1.0105084
  0.5266449  0.1627188 -0.0327153 -0.6576994  0.4048203  0.1661934 -0.8566081
  0.5237177  0.1703701 -0.0340467 -0.6842325  0.3795242  0.1405843 -0.8588636
  0.5364215  0.1640139 -0.0645699 -0.7599095  0.4129993  0.1276147 -0.9520941
  0.5356372  0.1736114 -0.0596981 -0.7634450  0.3896736  0.1134622 -0.9366053
  0.4616021  0.1792552 -0.0489560 -0.2518400  0.4346508  0.2959336 -0.5967295
  0.4789748  0.1804555 -0.0813651 -0.3605233  0.4361892  0.2370333 -0.6789217
  0.4632318  0.1631543 -0.0433086 -0.2413348  0.4682221  0.3362549 -0.6208982
  0.4822694  0.1638760 -0.0732484 -0.3414641  0.4685457  0.2800040 -0.6947165
  0.4603814  0.1907143 -0.0602400 -0.2309437  0.4709010  0.3329817 -0.6241655
  0.4586762  0.2059204 -0.0737325 -0.2421321  0.4459766  0.2959231 -0.6117877
  0.4771426  0.1918169 -0.0835854 -0.3113232  0.4682646  0.2844563 -0.6793649
  0.4754316  0.2062774 -0.0979025 -0.3235368  0.4420436  0.2454934 -0.6669326
  0.4479083  0.1901845 -0.0697942 -0.1903461  0.4621958  0.3360394 -0.5961797
  0.4305925  0.1898396 -0.0509088 -0.1262282  0.4685049  0.3814475 -0.5585846
  0.4461970  0.2056866 -0.0890438 -0.2019172  0.4413344  0.2994478 -0.5904087
  0.4288588  0.2054049 -0.0700967 -0.1378090  0.4477229  0.3450483 -0.5529540
  0.4489736  0.1787065 -0.0552062 -0.1978016  0.4171864  0.2967311 -0.5497389
  0.4501728  0.1628503 -0.0297628 -0.1859950  0.4390440  0.3380603 -0.5538181
  0.4318449  0.1784080 -0.0363588 -0.1336264  0.4257287  0.3435050 -0.5134902
  0.4335326  0.1627414 -0.0100366 -0.1197180  0.4481074  0.3865734 -0.5163280
  0.5080069  0.1858641 -0.0852786 -0.5238632  0.4319253  0.1798345 -0.7889763
  0.5110917  0.1733906 -0.0861270 -0.5035226  0.4632910  0.2133024 -0.8029521
  0.4914089  0.1822264 -0.0539209 -0.4248057  0.4214899  0.2211176 -0.6998442
  0.4950935  0.1666188 -0.0548518 -0.4092685  0.4467488  0.2485512 -0.7126715
  0.5195592  0.1883493 -0.0411138 -0.6253259  0.3736670  0.1410722 -0.8075119
  0.5345229  0.1915012 -0.0637470 -0.6981349  0.3804586  0.1143981 -0.8762800
  0.5218191  0.1772378 -0.0408836 -0.6150906  0.3926691  0.1584463 -0.8144205
  0.5351284  0.1809766 -0.0662062 -0.6956174  0.4021430  0.1297335 -0.8915571
  0.5183534  0.1968378 -0.0343918 -0.5330807  0.3904287  0.1795209 -0.7469935
  0.5173190  0.2089174 -0.0443886 -0.5411212  0.3675405  0.1508348 -0.7363446
  0.5341998  0.1993007 -0.0623293 -0.6322673  0.3913566  0.1368167 -0.8314133
  0.5339226  0.2100848 -0.0723583 -0.6369945  0.3655705  0.1072168 -0.8165696
  0.5063666  0.1951511 -0.0846355 -0.4657142  0.4529129  0.2161859 -0.7665356
  0.4894643  0.1930058 -0.0557859 -0.3677060  0.4502270  0.2647284 -0.6882204
  0.5049701  0.2080502 -0.0911281 -0.4755352  0.4247988  0.1829260 -0.7495893
  0.4878360  0.2068481 -0.0620340 -0.3775373  0.4240644  0.2326700 -0.6722414
  0.4580662  0.2323406 -0.0863314 -0.2266244  0.4432051  0.2922439 -0.6051997
  0.4750342  0.2319225 -0.1085015 -0.2996444  0.4384537  0.2446759 -0.6528218
  0.4580558  0.2170741 -0.0759024 -0.2235346  0.4658322  0.3219259 -0.6213629
  0.4748667  0.2170237 -0.0980283 -0.2971793  0.4615927  0.2746071 -0.6698147
  0.4581904  0.2436819 -0.0886243 -0.2094858  0.4483438  0.3033430 -0.6014532
  0.4585195  0.2594006 -0.1033736 -0.2126890  0.4259965  0.2714573 -0.5875199
  0.4760054  0.2433361 -0.1125185 -0.2880421  0.4413273  0.2496885 -0.6502491
  0.4784911  0.2596198 -0.1242954 -0.2829814  0.4204527  0.2242352 -0.6315120
  0.4450778  0.2437974 -0.1248932 -0.1752938  0.4590618  0.3096595 -0.6098465
  0.4270686  0.2437670 -0.1095756 -0.1241296  0.4662390  0.3494432 -0.5831483
  0.4446411  0.2593200 -0.1431149 -0.1818966  0.4433627  0.2812808 -0.6062923
  0.4266961  0.2593190 -0.1277074 -0.1305348  0.4505955  0.3214766 -0.5797188
  0.4453081  0.2324617 -0.1180043 -0.1933469  0.4479417  0.2938474 -0.6051986
  0.4455003  0.2170148 -0.0984668 -0.1869081  0.4658504  0.3252571 -0.6106320
  0.4274203  0.2323746 -0.1009501 -0.1361784  0.4554498  0.3372261 -0.5743546
  0.4280088  0.2168021 -0.0811946 -0.1285145  0.4733767  0.3691130 -0.5788221
  0.5064502  0.2396918 -0.0941417 -0.4138250  0.4054290  0.1818171 -0.6897838
  0.4889366  0.2422670 -0.0629122 -0.3126925  0.4129455  0.2436157 -0.6192203
  0.5089784  0.2518491 -0.0944525 -0.3973373  0.3751819  0.1586990 -0.6504888
  0.4920115  0.2575963 -0.0633137 -0.3000861  0.3888640  0.2247857 -0.5881855
  0.5052995  0.2304934 -0.0988710 -0.4354862  0.4070320  0.1732785 -0.7076357
  0.5046842  0.2175201 -0.0884192 -0.4357420  0.4343505  0.2057000 -0.7298611
  0.4876904  0.2314276 -0.0695954 -0.3401542  0.4136978  0.2303796 -0.6401292
  0.4873607  0.2171432 -0.0595738 -0.3386469  0.4386174  0.2611674 -0.6593881
  0.5177159  0.2297748 -0.0413934 -0.4762172  0.3530428  0.1558116 -0.6734222
  0.5340290  0.2287458 -0.0725731 -0.5774636  0.3459016  0.1032065 -0.7532431
  0.5171482  0.2177429 -0.0332646 -0.4765740  0.3756854  0.1812806 -0.6911192
  0.5338769  0.2179746 -0.0627554 -0.5754537  0.3713526  0.1321355 -0.7703446
  0.5185958  0.2381506 -0.0341979 -0.4452275  0.3548924  0.1703909 -0.6498163
  0.5204320  0.2490018 -0.0406066 -0.4387112  0.3362535  0.1510945 -0.6304123
  0.5342648  0.2365151 -0.0584943 -0.5221523  0.3476058  0.1274978 -0.7081444
  0.5347568  0.2469700 -0.0674937 -0.5223435  0.3272576  0.1036032 -0.6934404
  0.5193440  0.2667882 -0.0627952 -0.3626054  0.3436654  0.1622363 -0.5876369
  0.5124333  0.2591096 -0.0884477 -0.4081478  0.3639899  0.1492455 -0.6458410
  0.5127735  0.2737646 -0.0629057 -0.3255653  0.3547397  0.1840339 -0.5725049
  0.4983986  0.2660361 -0.0820665 -0.3697796  0.3669121  0.1681824 -0.6200286
  0.5256059  0.2642027 -0.0357704 -0.3894817  0.3112106  0.1453265 -0.5705785
  0.5361431  0.2641154 -0.0597131 -0.4690250  0.3072847  0.1048301 -0.6335681
  0.5223103  0.2559824 -0.0350564 -0.4100829  0.3301179  0.1570868 -0.6022261
  0.5352601  0.2543655 -0.0544241 -0.4715650  0.3246012  0.1228391 -0.6488281
  0.5257041  0.2700282 -0.0414415 -0.3839335  0.3010792  0.1336850 -0.5590600
  0.5226768  0.2777235 -0.0505730 -0.3935378  0.2934221  0.1178015 -0.5619123
  0.5361694  0.2712014 -0.0485795 -0.4110722  0.2987134  0.1195736 -0.5792252
  0.5353583  0.2808106 -0.0551197 -0.4143445  0.2925641  0.1085672 -0.5780314
  0.4579294  0.2871357 -0.1212561 -0.1916013  0.4040116  0.2491111 -0.5619684
  0.4762279  0.2882398 -0.1374802 -0.2492393  0.3984329  0.2089726 -0.5956921
  0.4584496  0.2710440 -0.1046275 -0.1851938  0.4210689  0.2780808 -0.5679022
  0.4785507  0.2716517 -0.1200086 -0.2380950  0.4154051  0.2405284 -0.5986320
  0.4574815  0.2986024 -0.1214477 -0.1556512  0.3883977  0.2502246 -0.5273235
  0.4567780  0.3138380 -0.1385377 -0.1622756  0.3756612  0.2254420 -0.5262553
  0.4750250  0.2996186 -0.1330047 -0.1976405  0.3823534  0.2183942 -0.5490394
  0.4740614  0.3141181 -0.1511630 -0.2053489  0.3688666  0.1916043 -0.5481162
  0.4445229  0.2981293 -0.1705325 -0.1414342  0.4112842  0.2555581 -0.5675248
  0.4266625  0.2978533 -0.1584613 -0.1002329  0.4182536  0.2899186 -0.5486128
  0.4440237  0.3136472 -0.1890807 -0.1480694  0.3982823  0.2302347 -0.5673849
  0.4264617  0.3134060 -0.1767676 -0.1061543  0.4053959  0.2654695 -0.5483914
  0.4446581  0.2866490 -0.1672873 -0.1693540  0.4257552  0.2574358 -0.5940771
  0.4445286  0.2708020 -0.1497254 -0.1644043  0.4407355  0.2837318 -0.5978615
  0.4266988  0.2864233 -0.1528018 -0.1202985  0.4326133  0.2963682 -0.5694686
  0.4265970  0.2707487 -0.1350255 -0.1152216  0.4477684  0.3227544 -0.5730014
  0.5066037  0.2933806 -0.0979511 -0.3056178  0.3496545  0.1629615 -0.5665305
  0.5093598  0.2808900 -0.0752108 -0.2941934  0.3593155  0.1909254 -0.5603296
  0.4892701  0.2899131 -0.0949288 -0.2807451  0.3563459  0.1804216 -0.5560955
  0.4921921  0.2742899 -0.0765980 -0.2720689  0.3640102  0.2025693 -0.5512361
  0.5186649  0.2957377 -0.0606859 -0.3494720  0.2847816  0.1142170 -0.5243749
  0.5342833  0.2987099 -0.0605847 -0.3604925  0.2787040  0.1059453 -0.5270225
  0.5207907  0.2846123 -0.0459892 -0.3435396  0.2887972  0.1301016 -0.5196303
  0.5348529  0.2881815 -0.0445111 -0.3551868  0.2824432  0.1224925 -0.5221903
  0.5175981  0.3042405 -0.0463920 -0.2764562  0.2722532  0.1341333 -0.4569815
  0.5168093  0.3163451 -0.0619817 -0.2821884  0.2656786  0.1155047 -0.4596748
  0.5339974  0.3065132 -0.0514705 -0.3034753  0.2652113  0.1161487 -0.4710945
  0.5337861  0.3173039 -0.0688385 -0.3090448  0.2580459  0.0956852 -0.4735685
  0.5052243  0.3026863 -0.0944326 -0.2558107  0.3367842  0.1711937 -0.5214370
  0.4878176  0.3007129 -0.0848357 -0.2174509  0.3417204  0.1969509 -0.4992374
  0.5042117  0.3156193 -0.1099673 -0.2626915  0.3254733  0.1479819 -0.5206407
  0.4867712  0.3145954 -0.0992898 -0.2237795  0.3311919  0.1754557 -0.4985250
  0.4572569  0.3402315 -0.1462447 -0.1294957  0.3379971  0.2002306 -0.4759710
  0.4744443  0.3397378 -0.1590978 -0.1713757  0.3337052  0.1685248 -0.4989984
  0.4567178  0.3249925 -0.1370505 -0.1279015  0.3505407  0.2180945 -0.4830465
  0.4739058  0.3248680 -0.1496851 -0.1697731  0.3465569  0.1869733 -0.5064315
  0.4576965  0.3515684 -0.1476273 -0.1001554  0.3037304  0.1807651 -0.4285478
  0.4583587  0.3673022 -0.1591305 -0.1022539  0.2915414  0.1622329 -0.4236173
  0.4756450  0.3511414 -0.1609543 -0.1435227  0.2982487  0.1461376 -0.4506146
  0.4783869  0.3674269 -0.1707530 -0.1412450  0.2870078  0.1313878 -0.4433858
  0.4445745  0.3517293 -0.2106063 -0.0933675  0.3294526  0.1826401 -0.4866139
  0.4266728  0.3517420 -0.2014667 -0.0629407  0.3357765  0.2106421 -0.4750495
  0.4444777  0.3672691 -0.2263494 -0.0982408  0.3201588  0.1642086 -0.4887987
  0.4265824  0.3673036 -0.2171845 -0.0677961  0.3264980  0.1924428 -0.4774234
  0.4444474  0.3403960 -0.2090093 -0.1241607  0.3623498  0.1982400 -0.5314099
  0.4440035  0.3249725 -0.1921545 -0.1199635  0.3736668  0.2193471 -0.5314652
  0.4266388  0.3403514 -0.1979528 -0.0871588  0.3690812  0.2306596 -0.5157712
  0.4264553  0.3247933 -0.1810817 -0.0824462  0.3803987  0.2518184 -0.5153463
  0.5062273  0.3472223 -0.1159899 -0.1935474  0.2621537  0.1102377 -0.4197750
  0.4886487  0.3499768 -0.1001747 -0.1369202  0.2624012  0.1444962 -0.3815911
  0.5088902  0.3593666 -0.1056044 -0.1805677  0.2443032  0.1040757 -0.3902479
  0.4919268  0.3653005 -0.0919861 -0.1268175  0.2482288  0.1394372 -0.3582408
  0.5049543  0.3380384 -0.1184480 -0.2230049  0.2912232  0.1251518 -0.4666047
  0.5041393  0.3250919 -0.1057395 -0.2212275  0.3033671  0.1453303 -0.4722973
  0.4872247  0.3391501 -0.1043561 -0.1791500  0.2979168  0.1585017 -0.4420079
  0.4866123  0.3248946 -0.0926090 -0.1768885  0.3090420  0.1771530 -0.4466505
  0.5174784  0.3371836 -0.0578041 -0.2230211  0.2374566  0.1110030 -0.3918282
  0.5339653  0.3359599 -0.0697055 -0.2598829  0.2321385  0.0860646 -0.4156530
  0.5167772  0.3251721 -0.0502964 -0.2220009  0.2454147  0.1238494 -0.3961467
  0.5337775  0.3251942 -0.0609854 -0.2576789  0.2411707  0.1011201 -0.4197844
  0.5184388  0.3455474 -0.0551748 -0.1873351  0.2158733  0.1045056 -0.3470156
  0.5203614  0.3563863 -0.0562057 -0.1843595  0.2088814  0.0982060 -0.3387712
  0.5342227  0.3437260 -0.0640960 -0.2160326  0.2136790  0.0867173 -0.3668459
  0.5347379  0.3541776 -0.0660410 -0.2156370  0.2060761  0.0783917 -0.3600696
  0.5193290  0.3741901 -0.0715538 -0.1350603  0.1981739  0.0973946 -0.3040087
  0.5124008  0.3665926 -0.1106995 -0.1754817  0.2197458  0.0790296 -0.3652108
  0.5127659  0.3812546 -0.0907358 -0.1128761  0.2005081  0.0990075 -0.3026194
  0.4983890  0.3736814 -0.1147757 -0.1491565  0.2160029  0.0847198 -0.3486520
  0.5255919  0.3715244 -0.0563082 -0.1434958  0.1816136  0.0868703 -0.2866744
  0.5361394  0.3713062 -0.0661568 -0.1760016  0.1795784  0.0667103 -0.3088686
  0.5222781  0.3633468 -0.0554565 -0.1517721  0.1891918  0.0916105 -0.2988391
  0.5352514  0.3615677 -0.0634856 -0.1768915  0.1866106  0.0748467 -0.3152238
  0.5256973  0.3773519 -0.0593259 -0.1360979  0.1604470  0.0672631 -0.2626868
  0.5226714  0.3850952 -0.0700978 -0.1395827  0.1587359  0.0576533 -0.2673337
  0.5361676  0.3783927 -0.0581161 -0.1366582  0.1551515  0.0626573 -0.2574315
  0.5353568  0.3880148 -0.0676066 -0.1395538  0.1546512  0.0551998 -0.2623602
  0.4581020  0.3960407 -0.1739500 -0.0742419  0.2431090  0.1240721 -0.3722641
  0.4763002  0.3965283 -0.1810064 -0.0994577  0.2360514  0.0993151 -0.3797791
  0.4584673  0.3792185 -0.1561823 -0.0684872  0.2507561  0.1422261 -0.3668956
  0.4785625  0.3795882 -0.1627395 -0.0913998  0.2442888  0.1198096 -0.3739489
  0.4578121  0.4083820 -0.1694968 -0.0405470  0.1938210  0.0992417 -0.3092855
  0.4573854  0.4252770 -0.1768178 -0.0431818  0.1870841  0.0886585 -0.3086581
  0.4752041  0.4086121 -0.1754675 -0.0607551  0.1912487  0.0815530 -0.3177755
  0.4744717  0.4246858 -0.1832880 -0.0639328  0.1841109  0.0699309 -0.3171517
  0.4448973  0.4080830 -0.2362139 -0.0459441  0.2177825  0.0965759 -0.3787339
  0.4270051  0.4074959 -0.2300660 -0.0240818  0.2223439  0.1179652 -0.3721130
  0.4447073  0.4252481 -0.2496623 -0.0501944  0.2102425  0.0827706 -0.3826272
  0.4271564  0.4245778 -0.2434704 -0.0279299  0.2148503  0.1046643 -0.3760646
  0.4448560  0.3957048 -0.2408574 -0.0772063  0.2703356  0.1234159 -0.4414796
  0.4445531  0.3790523 -0.2286477 -0.0739934  0.2797817  0.1389506 -0.4415916
  0.4268652  0.3952748 -0.2322084 -0.0473914  0.2748395  0.1501589 -0.4297587
  0.4266339  0.3789681 -0.2197078 -0.0439994  0.2845026  0.1659048 -0.4296121
  0.5066663  0.4014071 -0.1221237 -0.1052653  0.1875468  0.0740416 -0.3014306
  0.5093730  0.3885474 -0.0912557 -0.0960348  0.1897669  0.0961367 -0.2834272
  0.4893130  0.3979662 -0.1290731 -0.1075102  0.1997317  0.0817309 -0.3183141
  0.4922026  0.3820879 -0.1036836 -0.0999146  0.2013046  0.0995142 -0.3031125
  0.5187200  0.4035698 -0.0785620 -0.1145135  0.1420361  0.0466313 -0.2397068
  0.5342980  0.4060374 -0.0735281 -0.1093171  0.1333744  0.0431469 -0.2259921
  0.5208019  0.3921203 -0.0611164 -0.1097694  0.1421211  0.0587451 -0.2296310
  0.5348559  0.3954222 -0.0536231 -0.1035060  0.1325678  0.0563291 -0.2134582
  0.5176986  0.4124513 -0.0638812 -0.0694707  0.1125405  0.0458992 -0.1792511
  0.5169898  0.4252664 -0.0724823 -0.0722804  0.1107809  0.0383996 -0.1831623
  0.5340244  0.4139422 -0.0647808 -0.0760828  0.1081984  0.0379141 -0.1787777
  0.5338344  0.4249233 -0.0747846 -0.0791678  0.1062722  0.0293185 -0.1832710
  0.5053509  0.4112273 -0.1163412 -0.0712236  0.1541853  0.0620444 -0.2496092
  0.4879421  0.4093745 -0.1136642 -0.0579021  0.1584408  0.0750921 -0.2466584
  0.5044637  0.4251970 -0.1286071 -0.0756059  0.1496644  0.0498859 -0.2540989
  0.4870863  0.4246644 -0.1248574 -0.0618263  0.1543350  0.0641781 -0.2508618
  0.4455253  0.4577556 -0.2430351 -0.0259874  0.1395245  0.0422499 -0.3112724
  0.4448756  0.4385578 -0.2416021 -0.0262258  0.1471017  0.0483926 -0.3162204
  0.4283849  0.4574705 -0.2372691 -0.0066933  0.1399267  0.0593218 -0.3032842
  0.4275261  0.4379685 -0.2359231 -0.0071459  0.1473837  0.0650310 -0.3081001
  0.4580027  0.4572531 -0.1618957 -0.0134319  0.1194336  0.0529589 -0.2282866
  0.4749509  0.4555951 -0.1671194 -0.0343526  0.1228442  0.0388973 -0.2403693
  0.4574364  0.4383720 -0.1748827 -0.0179550  0.1276127  0.0533863 -0.2462240
  0.4744039  0.4372749 -0.1805033 -0.0390113  0.1312733  0.0393657 -0.2588804
  0.4584695  0.4717370 -0.1609664 -0.0028221  0.0458153  0.0094920 -0.1732805
  0.4591787  0.4924270 -0.1210326  0.0097796  0.0383618  0.0201995 -0.1314525
  0.4753553  0.4702676 -0.1629038 -0.0173307  0.0560249  0.0017341 -0.1819686
  0.4759131  0.4920332 -0.1249566 -0.0055044  0.0490474  0.0120537 -0.1425148
  0.4460728  0.4722248 -0.2314012 -0.0147237  0.0604035  0.0009774 -0.2471022
  0.4290902  0.4720878 -0.2261497  0.0023595  0.0543303  0.0146193 -0.2384095
  0.4469187  0.4925576 -0.2101625 -0.0075659  0.0528289  0.0053822 -0.2231106
  0.4301584  0.4925209 -0.2049468  0.0097034  0.0467142  0.0194291 -0.2146725
  0.3999014  0.4724275 -0.3094207  0.0041939  0.0603453  0.0154047 -0.3206316
  0.4011892  0.4926120 -0.2966524  0.0093287  0.0522054  0.0179906 -0.3053143
  0.4167186  0.4721421 -0.3147709 -0.0141600  0.0637733 -0.0011904 -0.3277406
  0.4179052  0.4925355 -0.3021694 -0.0092021  0.0557398  0.0010445 -0.3124160
  0.3874939  0.4723273 -0.3997929 -0.0108001  0.0646955 -0.0003224 -0.4102705
  0.3704130  0.4717681 -0.3942603  0.0079667  0.0656251  0.0184029 -0.4046966
  0.3889263  0.4925851 -0.4033225 -0.0103731  0.0567115 -0.0023521 -0.4113435
  0.3721396  0.4924353 -0.3976347  0.0086761  0.0578127  0.0167420 -0.4057006
  0.3865585  0.4578528 -0.4041872 -0.0152925  0.1587145  0.0412583 -0.4607380
  0.3854356  0.4385655 -0.3892350 -0.0118809  0.1654993  0.0504183 -0.4515341
  0.3693244  0.4571459 -0.3992747  0.0027976  0.1632768  0.0607496 -0.4572267
  0.3680770  0.4378645 -0.3843495  0.0060807  0.1700325  0.0697478 -0.4480166
  0.3990467  0.4579540 -0.3103232  0.0005880  0.1523606  0.0628024 -0.3725376
  0.4159310  0.4575237 -0.3161740 -0.0190261  0.1526901  0.0454456 -0.3806458
  0.3979993  0.4385961 -0.3123490 -0.0011318  0.1602992  0.0666647 -0.3801456
  0.4149656  0.4379787 -0.3181494 -0.0206245  0.1605522  0.0494904 -0.3882643
  0.3969979  0.4079285 -0.2997170 -0.0104743  0.2400099  0.1251187 -0.4353099
  0.3974504  0.4251919 -0.3067729 -0.0120616  0.2323012  0.1156783 -0.4345128
  0.4141706  0.4074545 -0.3065579 -0.0326741  0.2372737  0.1043401 -0.4435720
  0.4144939  0.4245627 -0.3137303 -0.0344404  0.2294729  0.0945380 -0.4427087
  0.3843343  0.4079296 -0.3697637 -0.0178178  0.2447379  0.1076443 -0.4952258
  0.3669092  0.4074586 -0.3644040  0.0016106  0.2512221  0.1294154 -0.4922089
  0.3848396  0.4251887 -0.3883076 -0.0228690  0.2381989  0.0946201 -0.5057966
  0.3674298  0.4245509 -0.3831234 -0.0034673  0.2446266  0.1163445 -0.5029352
  0.3840566  0.3955854 -0.3638165 -0.0315795  0.3011943  0.1462691 -0.5416651
  0.3838031  0.3791192 -0.3428407 -0.0255697  0.3081590  0.1623885 -0.5307989
  0.3666414  0.3952455 -0.3577787 -0.0101210  0.3089194  0.1705183 -0.5384180
  0.3664304  0.3789707 -0.3365427 -0.0039913  0.3159837  0.1867950 -0.5273291
  0.3967388  0.3955846 -0.2936990 -0.0255747  0.2956932  0.1650278 -0.4843015
  0.4139722  0.3952426 -0.3013105 -0.0499882  0.2899514  0.1403610 -0.4916598
  0.3964833  0.3791237 -0.2788166 -0.0214330  0.3036243  0.1796468 -0.4798964
  0.4137537  0.3789873 -0.2862245 -0.0457458  0.2979943  0.1553529 -0.4873232
  0.3368248  0.3948896 -0.4221674  0.0001105  0.3173789  0.1701657 -0.5922226
  0.3539857  0.3950590 -0.4272026 -0.0175212  0.3075389  0.1471512 -0.5918750
  0.3364942  0.3787810 -0.3957530  0.0077249  0.3230004  0.1868112 -0.5748393
  0.3537540  0.3788801 -0.4008748 -0.0098380  0.3131929  0.1638552 -0.5745680
  0.3371922  0.4071707 -0.4335310  0.0091617  0.2569893  0.1269874 -0.5513567
  0.3378651  0.4246147 -0.4540349  0.0036074  0.2513154  0.1146664 -0.5650939
  0.3542775  0.4072553 -0.4384867 -0.0076657  0.2498378  0.1068034 -0.5529558
  0.3548430  0.4243971 -0.4593820 -0.0134149  0.2440224  0.0941596 -0.5669564
  0.3245105  0.4065251 -0.4991491  0.0015926  0.2512737  0.1059386 -0.6034950
  0.3069487  0.4048461 -0.4982589  0.0157134  0.2642238  0.1273138 -0.6098593
  0.3252495  0.4241565 -0.5381518 -0.0095166  0.2464174  0.0875317 -0.6352001
  0.3077609  0.4226870 -0.5368118  0.0047829  0.2594703  0.1090269 -0.6410559
  0.3241245  0.3942273 -0.4914048 -0.0099781  0.3123809  0.1436748 -0.6450577
  0.3238091  0.3782605 -0.4515319  0.0017904  0.3158733  0.1639110 -0.6136524
  0.3065875  0.3925875 -0.4919655  0.0007396  0.3275199  0.1642149 -0.6554408
  0.3064127  0.3769374 -0.4513166  0.0128230  0.3312000  0.1851662 -0.6236597
  0.3277098  0.4572179 -0.5760641 -0.0095061  0.1617282  0.0334096 -0.6189799
  0.3261067  0.4377396 -0.5437033 -0.0010170  0.1664833  0.0459853 -0.5907056
  0.3105069  0.4562091 -0.5734580  0.0043073  0.1715197  0.0513892 -0.6205399
  0.3087143  0.4364497 -0.5415622  0.0125498  0.1761172  0.0637883 -0.5928007
  0.3401370  0.4574392 -0.4779278  0.0069760  0.1664408  0.0586082 -0.5295600
  0.3568858  0.4570351 -0.4831641 -0.0097439  0.1627873  0.0408287 -0.5337367
  0.3386542  0.4380841 -0.4668934  0.0089601  0.1727926  0.0650851 -0.5230184
  0.3555419  0.4377355 -0.4720545 -0.0076203  0.1691874  0.0474763 -0.5271511
  0.3413566  0.4720207 -0.4901668  0.0081298  0.0669791  0.0169758 -0.4990128
  0.3432058  0.4925030 -0.4970500  0.0078510  0.0596050  0.0147921 -0.5039911
  0.3580506  0.4716860 -0.4955306 -0.0093847  0.0647543 -0.0009073 -0.5040080
  0.3598889  0.4924133 -0.5023431 -0.0096945  0.0574629 -0.0030808 -0.5089568
  0.3290100  0.4718817 -0.5808657 -0.0048512  0.0613980  0.0016206 -0.5873375
  0.3119726  0.4711673 -0.5769627  0.0107543  0.0683051  0.0185884 -0.5847968
  0.3309593  0.4924657 -0.6058833 -0.0106425  0.0552837 -0.0055515 -0.6109743
  0.3141843  0.4922743 -0.6013148  0.0052992  0.0624272  0.0116570 -0.6076726
  0.2828665  0.4707385 -0.6714552  0.0096925  0.0676301  0.0163424 -0.6781051
  0.2852372  0.4921594 -0.6980311  0.0035107  0.0624570  0.0090278 -0.7035482
  0.2996084  0.4708609 -0.6754782 -0.0041905  0.0602194  0.0011689 -0.6808376
  0.3019331  0.4921922 -0.7021746 -0.0104283  0.0550085 -0.0060813 -0.7065216
  0.2704403  0.4702669 -0.7578327 -0.0009374  0.0578363  0.0034565 -0.7622266
  0.2532332  0.4691011 -0.7557309  0.0123523  0.0682059  0.0183620 -0.7617405
  0.2729693  0.4920330 -0.7980232 -0.0110299  0.0529927 -0.0074776 -0.8015755
  0.2561488  0.4917207 -0.7943795  0.0028573  0.0637148  0.0079173 -0.7994394
  0.2687803  0.4546885 -0.7524999 -0.0110577  0.1672052  0.0249050 -0.7884626
  0.2667741  0.4338936 -0.6974619  0.0041973  0.1703435  0.0433655 -0.7366301
  0.2513918  0.4531139 -0.7531034 -0.0004254  0.1829383  0.0416821 -0.7952109
  0.2492766  0.4320558 -0.6987277  0.0145945  0.1859638  0.0601643 -0.7442974
  0.2812871  0.4553864 -0.6548504  0.0051373  0.1742427  0.0483143 -0.6980274
  0.2980680  0.4557184 -0.6581852 -0.0077042  0.1642732  0.0314274 -0.6973169
  0.2793429  0.4348646 -0.6209989  0.0139546  0.1785396  0.0607138 -0.6677581
  0.2961839  0.4356794 -0.6235164  0.0013365  0.1686823  0.0439650 -0.6661449
  0.2774054  0.4032631 -0.5695157  0.0152022  0.2696609  0.1205753 -0.6748888
  0.2783028  0.4208982 -0.6116510  0.0030967  0.2663676  0.1024542 -0.7110085
  0.2943270  0.4039720 -0.5711187  0.0047754  0.2558221  0.1020016 -0.6683449
  0.2951815  0.4218140 -0.6127637 -0.0072204  0.2525241  0.0842656 -0.7042497
  0.2648041  0.4023604 -0.6295146  0.0058079  0.2606191  0.0990372 -0.7227438
  0.2472983  0.4006032 -0.6338959  0.0095136  0.2814707  0.1152661 -0.7396484
  0.2657087  0.4198724 -0.6890847 -0.0118061  0.2597818  0.0763603 -0.7772511
  0.2481798  0.4179856 -0.6938996 -0.0082334  0.2806074  0.0919629 -0.7940959
  0.2643057  0.3896902 -0.6127072 -0.0182725  0.3300414  0.1286559 -0.7596356
  0.2638486  0.3725863 -0.5478527  0.0011669  0.3296822  0.1556629 -0.7023487
  0.2468424  0.3880389 -0.6187761 -0.0194346  0.3532834  0.1441567 -0.7823674
  0.2464786  0.3710950 -0.5533700  0.0001736  0.3530414  0.1720006 -0.7251970
  0.2769256  0.3906523 -0.5510864 -0.0038743  0.3384522  0.1577324 -0.7126931
  0.2939406  0.3916296 -0.5500670 -0.0097332  0.3199940  0.1388914 -0.6986916
  0.2765122  0.3738339 -0.5020677  0.0106915  0.3402200  0.1803168 -0.6716930
  0.2937395  0.3757513 -0.4982270  0.0057428  0.3220792  0.1626973 -0.6551815
  0.2171121  0.3881199 -0.6768585 -0.0436174  0.3693171  0.1262225 -0.8466983
  0.2341969  0.3876181 -0.6768866 -0.0375474  0.3451678  0.1132396 -0.8276736
  0.2165879  0.3710939 -0.6088293 -0.0230247  0.3662887  0.1530711 -0.7849251
  0.2338151  0.3706952 -0.6084301 -0.0168747  0.3423165  0.1397468 -0.7650516
  0.2176947  0.4008972 -0.7108664 -0.0049527  0.2903001  0.0990945 -0.8149136
  0.2187622  0.4187794 -0.7595195 -0.0193801  0.2902307  0.0808538 -0.8597534
  0.2346753  0.4002111 -0.7136639 -0.0085184  0.2738088  0.0853154 -0.8074978
  0.2356005  0.4176927 -0.7634736 -0.0233085  0.2736196  0.0668576 -0.8536396
  0.2049922  0.4009016 -0.7796521 -0.0236677  0.2860763  0.0723841 -0.8757039
  0.1872690  0.4002276 -0.7850637 -0.0323677  0.3145090  0.0817470 -0.8991785
  0.2061410  0.4189554 -0.8629070 -0.0491068  0.2907210  0.0440795 -0.9560933
  0.1884975  0.4183495 -0.8680403 -0.0577518  0.3192583  0.0529215 -0.9787136
  0.2043910  0.3881419 -0.7472345 -0.0720137  0.3664057  0.0886067 -0.9078549
  0.2038973  0.3713355 -0.6615976 -0.0457610  0.3581754  0.1186588 -0.8260174
  0.1867211  0.3877002 -0.7563835 -0.0954839  0.3990313  0.0921619 -0.9440293
  0.1864530  0.3715967 -0.6671036 -0.0683677  0.3908399  0.1245824 -0.8600537
  0.2099645  0.4541855 -0.9403260 -0.0232813  0.1804695  0.0109560 -0.9745632
  0.2074733  0.4332328 -0.8867133 -0.0081983  0.1814636  0.0278086 -0.9227202
  0.1926623  0.4537904 -0.9390437 -0.0159015  0.1960923  0.0240252 -0.9789705
  0.1899427  0.4327016 -0.8857759 -0.0010003  0.1968917  0.0408363 -0.9276125
  0.2223688  0.4539514 -0.8261101 -0.0000835  0.1832840  0.0387583 -0.8649518
  0.2389559  0.4529164 -0.8307444 -0.0111284  0.1749096  0.0246373 -0.8665101
  0.2200146  0.4329952 -0.7972623  0.0072053  0.1868084  0.0484682 -0.8385253
  0.2367475  0.4318150 -0.8020354 -0.0037804  0.1784916  0.0343128 -0.8401287
  0.2243076  0.4697321 -0.8578712  0.0097878  0.0658365  0.0147549 -0.8628383
  0.2272501  0.4918897 -0.8785991  0.0058719  0.0601660  0.0099459 -0.8826732
  0.2408720  0.4689578 -0.8627725 -0.0043284  0.0601245 -0.0001378 -0.8669631
  0.2438984  0.4916823 -0.8829808 -0.0081395  0.0545984 -0.0047452 -0.8863751
  0.2119838  0.4699158 -0.9533395 -0.0040081  0.0584577 -0.0004219 -0.9569257
  0.1948793  0.4696434 -0.9496237  0.0091387  0.0638919  0.0133777 -0.9538627
  0.2150097  0.4919390 -0.9734075 -0.0078450  0.0533444 -0.0049068 -0.9763456
  0.1982167  0.4918660 -0.9694503  0.0055565  0.0589155  0.0091036 -0.9729974
  0.1658404  0.4702191 -1.0608752  0.0031914  0.0648486  0.0071290 -1.0648128
  0.1692876  0.4920202 -1.0542236  0.0084099  0.0566992  0.0114267 -1.0572403
  0.1825152  0.4697247 -1.0657910 -0.0135717  0.0661415 -0.0094304 -1.0699323
  0.1859655  0.4918877 -1.0592636 -0.0084917  0.0581291 -0.0052858 -1.0624695
  0.1533913  0.4701694 -1.1895882 -0.0272413  0.0833121 -0.0213002 -1.1955293
  0.1360546  0.4695390 -1.1813723 -0.0022298  0.0754611  0.0025798 -1.1861819
  0.1570136  0.4920069 -1.1596250 -0.0133296  0.0702524 -0.0090401 -1.1639145
  0.1401584  0.4918380 -1.1518301  0.0119860  0.0624842  0.0153311 -1.1551752
  0.1510123  0.4546563 -1.2030251 -0.0881290  0.2556378 -0.0323079 -1.2588462
  0.1481352  0.4341113 -1.1008227 -0.0558581  0.2462340 -0.0007429 -1.1559380
  0.1334619  0.4538844 -1.2101559 -0.1001896  0.2865201 -0.0305929 -1.2797527
  0.1304824  0.4334141 -1.1075123 -0.0677161  0.2768806  0.0014163 -1.1766446
  0.1635420  0.4546655 -1.0445872 -0.0342363  0.2178750  0.0107444 -1.0895678
  0.1802234  0.4539190 -1.0482813 -0.0418075  0.2055345 -0.0014528 -1.0886360
  0.1607101  0.4339736 -1.0011054 -0.0223014  0.2188942  0.0244206 -1.0478275
  0.1774125  0.4329001 -1.0054531 -0.0300268  0.2065855  0.0119219 -1.0474018
  0.1578870  0.4017903 -0.8736457 -0.0827055  0.3483320  0.0488271 -1.0051782
  0.1591949  0.4198057 -0.9578397 -0.1093398  0.3577493  0.0213630 -1.0885425
  0.1746472  0.4004657 -0.8739865 -0.0653097  0.3218066  0.0471197 -0.9864160
  0.1759184  0.4185774 -0.9577486 -0.0917623  0.3311071  0.0203271 -1.0698380
  0.1453082  0.4021549 -0.9247753 -0.1237257  0.3645871  0.0173618 -1.0658628
  0.1277026  0.4018264 -0.9473656 -0.1908972  0.4152846 -0.0074176 -1.1308452
  0.1466068  0.4200436 -1.0697494 -0.1715995  0.3914481 -0.0249397 -1.2164092
  0.1289392  0.4194652 -1.0943247 -0.2392757  0.4423959 -0.0515838 -1.2820167
  0.1445918  0.3895227 -0.8682429 -0.2333151  0.4519197  0.0015024 -1.1030604
  0.1439331  0.3728995 -0.7301530 -0.1889378  0.4213804  0.0412439 -0.9603347
  0.1270595  0.3893620 -0.8955980 -0.3204581  0.5030740 -0.0285629 -1.1874932
  0.1265388  0.3729476 -0.7559562 -0.2761742  0.4725324  0.0138731 -1.0460035
  0.1571892  0.3891497 -0.8183215 -0.1777587  0.4393319  0.0456443 -1.0417244
  0.1740734  0.3879702 -0.8123888 -0.1352098  0.4028111  0.0524132 -1.0000118
  0.1565905  0.3726305 -0.7176635 -0.1461840  0.4234421  0.0789093 -0.9427568
  0.1737772  0.3719437 -0.7086640 -0.1033669  0.3870439  0.0853084 -0.8973393
  0.0966831  0.3903275 -0.9271121 -0.5619453  0.5763934 -0.1399081 -1.3491493
  0.1142224  0.3895777 -0.8857697 -0.4010222  0.5164454 -0.0729042 -1.2138877
  0.0964905  0.3734205 -0.7568809 -0.5092663  0.5213375 -0.0972368 -1.1689104
  0.1138266  0.3730872 -0.7107730 -0.3450481  0.4592757 -0.0335698 -1.0222514
  0.0973123  0.4029686 -1.0005601 -0.3771065  0.5083039 -0.0925562 -1.2851105
  0.0988386  0.4205976 -1.1831231 -0.4414481  0.5562659 -0.1437408 -1.4808305
  0.1148422  0.4020444 -0.9739506 -0.2601280  0.4486157 -0.0437665 -1.1903121
  0.1161397  0.4196136 -1.1569232 -0.3232246  0.4960050 -0.0921663 -1.3879815
  0.0841496  0.4031743 -0.8941625 -0.5104102  0.5217219 -0.1463994 -1.2581732
  0.0657185  0.4028121 -1.0181437 -0.9041009  0.6393513 -0.3192333 -1.6030113
  0.0849081  0.4210452 -1.1911753 -0.6129905  0.6482234 -0.1923168 -1.6118490
  0.0641503  0.4212840 -1.2923083 -0.9602872  0.7490074 -0.3591136 -1.8934819
  0.0838442  0.3904678 -0.7807928 -0.6385535  0.5296416 -0.1752779 -1.2440684
  0.0837683  0.3736240 -0.6473115 -0.5976733  0.4579805 -0.1638399 -1.0811449
  0.0663070  0.3901013 -0.8494195 -0.8582552  0.5812109 -0.2726097 -1.4350650
  0.0663467  0.3738467 -0.7115483 -0.8173655  0.5072921 -0.2544132 -1.2745006
  0.0907685  0.4562677 -1.6210979 -0.4435413  0.5835132 -0.2033759 -1.8612632
  0.0866816  0.4352715 -1.2862348 -0.3078477  0.4918731 -0.1033197 -1.4907627
  0.0726167  0.4573338 -1.6598770 -0.6276872  0.6874384 -0.2841743 -2.0033899
  0.0659986  0.4358931 -1.3286236 -0.4741410  0.5860856 -0.1761020 -1.6266626
  0.1036732  0.4553965 -1.3786698 -0.2429494  0.4075110 -0.1118601 -1.5097591
  0.1207774  0.4540828 -1.3705210 -0.1904085  0.3708647 -0.0835379 -1.4773915
  0.1005430  0.4346456 -1.2453613 -0.1939157  0.3775789 -0.0723748 -1.3669021
  0.1177301  0.4335573 -1.2357514 -0.1409782  0.3407035 -0.0436083 -1.3331213
  0.1064995  0.4708126 -1.3828158 -0.0211438  0.1049192 -0.0131071 -1.3908526
  0.1110910  0.4921793 -1.2588641  0.0293919  0.0720343  0.0334072 -1.2628795
  0.1234900  0.4697114 -1.3923570 -0.0705562  0.1351120 -0.0568867 -1.4060265
  0.1278535  0.4918842 -1.2730933 -0.0229783  0.1041067 -0.0143679 -1.2817037
  0.0940179  0.4715705 -1.6682622 -0.1443833  0.2262207 -0.1115098 -1.7011357
  0.0769079  0.4725396 -1.6582225 -0.0826520  0.1699116 -0.0645368 -1.6763377
  0.0988083  0.4923823 -1.4638035 -0.0666925  0.1828607 -0.0431553 -1.4873406
  0.0820138  0.4926420 -1.4463301 -0.0004339  0.1233822  0.0100191 -1.4567830
  0.0478154  0.4771262 -2.1098841 -0.1057360  0.4534871 -0.0078996 -2.2077205
  0.0530704  0.4938710 -1.8260454  0.0705985  0.3138635  0.1211884 -1.8766353
  0.0645280  0.4740283 -2.1512344 -0.3645894  0.5112575 -0.2286358 -2.2871880
  0.0697584  0.4930409 -1.9023618 -0.2189164  0.3902696 -0.1328421 -1.9884362
  0.0369665  0.4795183 -2.4695986 -0.8746810  1.0112417 -0.3842927 -2.9599870
  0.0240396  0.4829558 -2.5615216 -2.2387749  1.3335095 -1.0569099 -3.7433865
  0.0412252  0.4945119 -3.6305610 -1.5297627  1.5320307 -0.7226214 -4.4377023
  0.0255515  0.4954330 -3.9556707 -2.8224436  1.9154192 -1.3915884 -5.3865259
  0.0325887  0.4689787 -1.5606026 -2.4159507  1.1283972 -0.7815516 -3.1950017
  0.0248867  0.4551776 -1.0886996 -1.7024446  0.6788735 -0.6505621 -2.1405822
  0.0197725  0.4735570 -1.8159067 -3.5981090  1.0834658 -1.3041682 -4.1098476
  0.0096267  0.4603560 -1.3119483 -2.7159293  0.6469197 -1.0593207 -2.9685569
  0.0433432  0.4652787 -1.9481847 -1.7421152  1.1215400 -0.7188870 -2.9714128
  0.0599091  0.4597483 -1.9097586 -1.1670427  1.0394052 -0.4346480 -2.6421533
  0.0363801  0.4496555 -1.3752250 -1.2957156  0.8093899 -0.5251046 -2.1458359
  0.0525204  0.4397472 -1.4474408 -0.8396515  0.7912148 -0.2959774 -1.9911149
  0.0343527  0.4005195 -0.8596919 -1.3471310  0.5216306 -0.5276531 -1.6791698
  0.0317815  0.4147729 -0.9323997 -1.3307666  0.5976372 -0.5016274 -1.7615389
  0.0523755  0.4021007 -0.7768337 -1.0952888  0.4819519 -0.4284875 -1.4436350
  0.0499150  0.4196034 -0.8391489 -1.0894240  0.5456784 -0.4044433 -1.5241296
  0.0218904  0.3995815 -0.6650811 -1.5836326  0.1898346 -0.6273946 -1.6213190
  0.0058655  0.3985999 -0.6564750 -1.5517595  0.1951484 -0.6157870 -1.5924476
  0.0198306  0.4124775 -0.6808915 -1.5923322  0.1794968 -0.6468158 -1.6264079
  0.0053136  0.4110367 -0.6721781 -1.5576316  0.1848489 -0.6351382 -1.5946715
  0.0228561  0.3897402 -0.5457973 -1.2384942  0.1684355 -0.5070123 -1.2772792
  0.0234345  0.3757494 -0.5173611 -1.2321129  0.1488616 -0.4875971 -1.2618769
  0.0061243  0.3893882 -0.5696625 -1.3155428  0.1827137 -0.5273092 -1.3578961
  0.0062793  0.3766581 -0.5378904 -1.3067063  0.1608947 -0.5055772 -1.3390195
  0.0355119  0.3898898 -0.7359640 -1.1552547  0.4670451 -0.4336696 -1.4575491
  0.0533564  0.3899464 -0.6734686 -0.9481377  0.4232424 -0.3658370 -1.2557693
  0.0361077  0.3751022 -0.6260715 -1.1291243  0.4033646 -0.4022364 -1.3529594
  0.0535761  0.3742428 -0.5687282 -0.9189489  0.3623783 -0.3413691 -1.1463081
  0.0152105  0.4307102 -0.7995198 -1.8230042  0.2134345 -0.7567943 -1.8657296
  0.0180407  0.4208184 -0.7677273 -1.8365264  0.1863808 -0.7361580 -1.8680957
  0.0040756  0.4314782 -0.8272985 -1.9251950  0.2270010 -0.7822150 -1.9702785
  0.0048340  0.4198464 -0.7952497 -1.9200519  0.2013878 -0.7602798 -1.9550217
  0.0223599  0.4332837 -0.9887898 -1.6625688  0.5388689 -0.6901682 -1.9611903
  0.0307576  0.4410824 -1.0968650 -1.8908739  0.6252274 -0.7532469 -2.2344920
  0.0285680  0.4235520 -0.9955014 -1.5158501  0.6160930 -0.5868998 -1.9244517
  0.0441226  0.4300485 -1.0761000 -1.7276672  0.6619365 -0.6641202 -2.1396470
  0.0158425  0.4376688 -0.8652181 -1.7980697  0.3114006 -0.7708201 -1.8924677
  0.0042450  0.4399175 -1.0800246 -2.5838665  0.2991406 -1.0227050 -2.6411861
  0.0203996  0.4467881 -1.0261707 -2.0906202  0.5134712 -0.8188579 -2.2979330
  0.0054661  0.4513424 -1.1734999 -2.6619178  0.4819949 -1.0310488 -2.8043689
  0.0828450  0.3463676 -0.4533845 -0.5713480  0.3883696 -0.1195434 -0.9051891
  0.0656222  0.3473140 -0.4970302 -0.7383595  0.4303195 -0.1707778 -1.0646119
  0.0835006  0.3618074 -0.5675673 -0.6112852  0.4415169 -0.1473686 -1.0314839
  0.0661632  0.3623818 -0.6138022 -0.7783175  0.4845458 -0.2045816 -1.1875382
  0.0823516  0.3348308 -0.3733678 -0.5675700  0.3700431 -0.0878980 -0.8530398
  0.0816591  0.3187513 -0.2744595 -0.5328541  0.3235271 -0.0552867 -0.7520270
  0.0644071  0.3355340 -0.4138131 -0.7158195  0.4075434 -0.1301974 -0.9994353
  0.0616284  0.3184182 -0.3168252 -0.6689069  0.3601565 -0.0919882 -0.8937440
  0.0954702  0.3345172 -0.4729572 -0.5067905  0.4717702 -0.0178004 -0.9619473
  0.1133666  0.3343635 -0.4428405 -0.4032715  0.4300146  0.0074136 -0.8535255
  0.0955392  0.3188363 -0.3680812 -0.4756914  0.4401877  0.0215775 -0.8653501
  0.1134295  0.3187353 -0.3376016 -0.3720338  0.3983120  0.0438662 -0.7535016
  0.0956510  0.3459573 -0.5496875 -0.5147775  0.4782193 -0.0536948 -1.0107703
  0.0962140  0.3615315 -0.6710185 -0.5551491  0.5220138 -0.0878649 -1.1383026
  0.1134150  0.3457827 -0.5105066 -0.3801759  0.4317363 -0.0087147 -0.8819678
  0.1136103  0.3613523 -0.6310748 -0.4177252  0.4745722 -0.0379863 -1.0108137
  0.0338078  0.3405840 -0.3706258 -0.8859829  0.2832982 -0.2453472 -1.0112614
  0.0513998  0.3370756 -0.3321259 -0.7034579  0.2650590 -0.1941747 -0.8414092
  0.0311241  0.3271631 -0.2763833 -0.8257633  0.2159920 -0.2016350 -0.9005116
  0.0480875  0.3206722 -0.2550171 -0.6539593  0.2100025 -0.1648509 -0.7441255
  0.0351147  0.3506090 -0.4496253 -0.9680719  0.3138673 -0.3017743 -1.1159228
  0.0360012  0.3645770 -0.5237532 -0.9982468  0.3635518 -0.3268849 -1.1951151
  0.0528329  0.3484505 -0.4109824 -0.8078566  0.2910846 -0.2571305 -0.9617085
  0.0534358  0.3631240 -0.4809867 -0.8337710  0.3380610 -0.2760661 -1.0386916
  0.0225793  0.3523166 -0.3868699 -0.9973501  0.1010513 -0.3705779 -1.0136421
  0.0060501  0.3548232 -0.4100588 -1.1013915  0.1157397 -0.3911969 -1.1202535
  0.0233604  0.3657218 -0.4308528 -1.0146909  0.1292875 -0.4035039 -1.0420397
  0.0062594  0.3673964 -0.4563875 -1.1165660  0.1454882 -0.4257472 -1.1472062
  0.0215850  0.3429018 -0.3216976 -0.8778176  0.0978119 -0.3049958 -0.8945195
  0.0196499  0.3305854 -0.2831482 -0.8573009  0.0739406 -0.2737789 -0.8666703
  0.0057837  0.3457257 -0.3365884 -0.9505859  0.1080530 -0.3181279 -0.9690463
  0.0052652  0.3334442 -0.2985066 -0.9366441  0.0845708 -0.2874889 -0.9476619
  0.0206736  0.3102985 -0.1746220 -0.7128911  0.1351773 -0.1425817 -0.7449314
  0.0276048  0.3190481 -0.2255435 -0.8286611  0.1889021 -0.1712629 -0.8829418
  0.0272354  0.3025656 -0.1584188 -0.6094713  0.1750121 -0.0984782 -0.6694119
  0.0416127  0.3114252 -0.2011011 -0.7248539  0.2043591 -0.1308000 -0.7951550
  0.0144105  0.3131525 -0.1790002 -0.7224926  0.0422453 -0.1757361 -0.7257567
  0.0038613  0.3132170 -0.2026466 -0.8021960  0.0587432 -0.1969452 -0.8078974
  0.0177275  0.3226141 -0.2260417 -0.7579813  0.0706046 -0.2168298 -0.7671931
  0.0047501  0.3247336 -0.2383435 -0.8169483  0.0798219 -0.2275336 -0.8277583
  0.0143038  0.3064965 -0.1353251 -0.7107880  0.0329828 -0.1334409 -0.7126722
  0.0173295  0.2977733 -0.0898126 -0.6886206  0.0476077 -0.0860513 -0.6923820
  0.0038327  0.3048588 -0.1335781 -0.6799095  0.0496413 -0.1291041 -0.6843834
  0.0046434  0.2935401 -0.0956788 -0.6670004  0.0588445 -0.0896810 -0.6729982
  0.0820874  0.2901901 -0.1239279 -0.4666226  0.2845468  0.0368796 -0.6274300
  0.0637813  0.2884641 -0.1548042 -0.5414602  0.3212911  0.0268394 -0.7231038
  0.0815883  0.3067899 -0.2089031 -0.4903974  0.3056187 -0.0131796 -0.6861210
  0.0614607  0.3058059 -0.2331087 -0.5577410  0.3382359 -0.0202581 -0.7705916
  0.0825258  0.2785390 -0.0536059 -0.4181799  0.2657880  0.0863986 -0.5581845
  0.0832245  0.2633074  0.0133462 -0.3995782  0.2544309  0.1345450 -0.5207770
  0.0649817  0.2767576 -0.0742064 -0.4624111  0.2950430  0.0848571 -0.6214746
  0.0659405  0.2621168 -0.0050010 -0.4438461  0.2837471  0.1342667 -0.5831138
  0.0954843  0.2794066 -0.1336108 -0.3938135  0.3781705  0.1362120 -0.6636363
  0.1133436  0.2799953 -0.1114036 -0.3292247  0.3444114  0.1409069 -0.5815353
  0.0959788  0.2639396 -0.0508119 -0.3706098  0.3594256  0.1826776 -0.6040992
  0.1135401  0.2644761 -0.0284573 -0.3049876  0.3251446  0.1865993 -0.5200442
  0.0953585  0.2909910 -0.2053396 -0.4385670  0.3968624  0.0916873 -0.7355938
  0.0955093  0.3071735 -0.2992214 -0.4674357  0.4262656  0.0511556 -0.8178126
  0.1133099  0.2914532 -0.1743080 -0.3434250  0.3588265  0.1097886 -0.6275216
  0.1134143  0.3072375 -0.2704810 -0.3727893  0.3888783  0.0705932 -0.7138635
  0.0334001  0.2809819 -0.0736247 -0.5694184  0.1996543 -0.0032219 -0.6398212
  0.0306455  0.2947102 -0.1289075 -0.5920482  0.1843250 -0.0645040 -0.6564517
  0.0507356  0.2859968 -0.0677236 -0.6000621  0.1831923 -0.0107745 -0.6570112
  0.0478106  0.3025692 -0.1140932 -0.6184524  0.1706581 -0.0617753 -0.6707703
  0.0213375  0.2773701 -0.0018803 -0.6083531  0.0582214  0.0036584 -0.6138917
  0.0057174  0.2725170 -0.0028229 -0.5709991  0.0687632  0.0053807 -0.5792027
  0.0192142  0.2899689 -0.0397240 -0.6250334  0.0439355 -0.0364444 -0.6283130
  0.0051484  0.2848741 -0.0431923 -0.5847167  0.0547000 -0.0377223 -0.5901867
  0.0224033  0.2679114  0.0622552 -0.5158752  0.0448117  0.0657080 -0.5193280
  0.0231917  0.2546686  0.1102101 -0.5007796  0.0503875  0.1143376 -0.5049071
  0.0060030  0.2634078  0.0497129 -0.5033585  0.0659185  0.0574609 -0.5111066
  0.0062142  0.2508781  0.1012938 -0.4876675  0.0711677  0.1097714 -0.4961451
  0.0347785  0.2709431 -0.0108770 -0.5061076  0.1903145  0.0538103 -0.5707950
  0.0521878  0.2747223  0.0091436 -0.4861535  0.1642847  0.0586806 -0.5356905
  0.0357897  0.2572447  0.0469345 -0.4896060  0.1874290  0.1059234 -0.5485949
  0.0532304  0.2604923  0.0648093 -0.4702583  0.1614957  0.1097738 -0.5152228
  0.0833711  0.2358431  0.1604140 -0.3199845  0.2192734  0.2454477 -0.4050183
  0.0660850  0.2352754  0.1423149 -0.3716360  0.2503480  0.2441019 -0.4734230
  0.0834510  0.2518671  0.0807655 -0.3440894  0.2356516  0.1856030 -0.4489270
  0.0662362  0.2510017  0.0610617 -0.3964254  0.2671739  0.1840361 -0.5193998
  0.0832075  0.2245494  0.2234867 -0.2871510  0.2053639  0.2958293 -0.3594936
  0.0828405  0.2097185  0.3011426 -0.2631524  0.1937812  0.3612791 -0.3232890
  0.0657318  0.2236046  0.2084758 -0.3231101  0.2360617  0.2981699 -0.4128042
  0.0649179  0.2074458  0.2803033 -0.3002444  0.2247411  0.3571363 -0.3770774
  0.0960524  0.2249215  0.1664623 -0.2768932  0.3040622  0.3210754 -0.4315063
  0.1136694  0.2249932  0.1814709 -0.2280749  0.2697189  0.3153427 -0.3619467
  0.0959769  0.2099056  0.2583293 -0.2491246  0.2879229  0.3883692 -0.3791645
  0.1139434  0.2081438  0.2632448 -0.2041463  0.2559178  0.3761146 -0.3170161
  0.0960968  0.2363053  0.0979921 -0.3073256  0.3243705  0.2778078 -0.4871413
  0.0961429  0.2523907  0.0168118 -0.3317950  0.3399875  0.2245727 -0.5395559
  0.1135782  0.2370005  0.1160955 -0.2576925  0.2926170  0.2764105 -0.4180075
  0.1136030  0.2529557  0.0342780 -0.2823006  0.3083225  0.2225695 -0.4705921
  0.0358488  0.2324399  0.1761307 -0.4098204  0.1659399  0.2198609 -0.4535505
  0.0360764  0.2469279  0.1088648 -0.4303595  0.1751051  0.1607375 -0.4822322
  0.0533514  0.2343635  0.1931265 -0.3786687  0.1380659  0.2247185 -0.4102607
  0.0535422  0.2496782  0.1295707 -0.3980046  0.1466565  0.1675977 -0.4360315
  0.0232204  0.2309972  0.2263036 -0.4012972  0.0381107  0.2286094 -0.4036030
  0.0062219  0.2289793  0.2147619 -0.4130952  0.0644171  0.2213029 -0.4196361
  0.0234106  0.2447775  0.1713839 -0.4178583  0.0407515  0.1741889 -0.4206633
  0.0062729  0.2416530  0.1552446 -0.4309773  0.0670764  0.1628216 -0.4385543
  0.0228198  0.2211991  0.2791087 -0.3450082  0.0356130  0.2811342 -0.3470338
  0.0219154  0.2082103  0.3360087 -0.3271909  0.0301042  0.3373724 -0.3285546
  0.0061145  0.2197791  0.2683775 -0.3620148  0.0615343  0.2743278 -0.3679652
  0.0058722  0.2073175  0.3270822 -0.3441875  0.0568628  0.3318649 -0.3489702
  0.0353588  0.2220443  0.2397040 -0.3636119  0.1544213  0.2769316 -0.4008395
  0.0529107  0.2229334  0.2593704 -0.3118639  0.1220792  0.2843664 -0.3368598
  0.0342478  0.2081307  0.3211315 -0.3359103  0.1364076  0.3483254 -0.3631042
  0.0518975  0.2070203  0.3303892 -0.2882756  0.1067236  0.3482823 -0.3061686
  0.0932946  0.1851406  0.3924587 -0.2088141  0.2498689  0.4827401 -0.2990955
  0.0952379  0.1992463  0.3091800 -0.2412010  0.2744363  0.4226347 -0.3546557
  0.1061210  0.1836533  0.4025180 -0.1410024  0.2186464  0.4795555 -0.2180399
  0.1119208  0.1970668  0.3157603 -0.1898090  0.2509022  0.4191386 -0.2931872
  0.0838953  0.1851057  0.4182394 -0.2133776  0.1808782  0.4663703 -0.2615085
  0.0710424  0.1835231  0.4108703 -0.2091134  0.2075854  0.4739557 -0.2721988
  0.0830248  0.1991496  0.3550393 -0.2326656  0.1774736  0.4044741 -0.2821004
  0.0663409  0.1967060  0.3480408 -0.2298236  0.1978119  0.4092676 -0.2910504
  0.0841268  0.1757461  0.4794376 -0.1836413  0.1678078  0.5194865 -0.2236901
  0.0838889  0.1642192  0.5380572 -0.1659164  0.1647913  0.5747231 -0.2025823
  0.0729608  0.1747465  0.4722884 -0.1922425  0.1876596  0.5216202 -0.2415743
  0.0735006  0.1639513  0.5342079 -0.1740239  0.1859986  0.5800840 -0.2199000
  0.0922906  0.1757558  0.4546246 -0.1880067  0.2308704  0.5289665 -0.2623486
  0.1034283  0.1747826  0.4593009 -0.1583354  0.2132221  0.5257591 -0.2247936
  0.0914909  0.1642217  0.5112994 -0.1689393  0.2180550  0.5751964 -0.2328362
  0.1018716  0.1639610  0.5199799 -0.1356029  0.1981326  0.5752077 -0.1908307
  0.1215410  0.1758327  0.4097305 -0.1131715  0.2618322  0.5182967 -0.2217377
  0.1136896  0.1811593  0.4037722 -0.1735987  0.2534309  0.4992307 -0.2690571
  0.1287620  0.1808361  0.3784625 -0.1781290  0.2831828  0.4972071 -0.2968736
  0.1209035  0.1921338  0.3827690 -0.2048709  0.2709803  0.4886496 -0.3107514
  0.1188777  0.1710425  0.4404177 -0.1500028  0.2358481  0.5230612 -0.2326462
  0.1188221  0.1629588  0.5056935 -0.1302637  0.2269195  0.5783590 -0.2029292
  0.1105523  0.1735197  0.4515336 -0.1679934  0.2547528  0.5428342 -0.2592940
  0.1091950  0.1636226  0.5031702 -0.1500651  0.2454764  0.5851327 -0.2320276
  0.1247917  0.1709492  0.4288572 -0.1365493  0.2670302  0.5350322 -0.2427243
  0.1326239  0.1731716  0.4412297 -0.1355752  0.2509543  0.5351282 -0.2294737
  0.1258213  0.1629338  0.4798487 -0.1208696  0.2704620  0.5836743 -0.2246952
  0.1353163  0.1635293  0.4816762 -0.1227840  0.2557915  0.5753910 -0.2164988
  0.1441346  0.2257010  0.1400317 -0.1826373  0.3213468  0.3382701 -0.3808756
  0.1449898  0.2103095  0.2274918 -0.1578873  0.3127590  0.4021542 -0.3325497
  0.1265530  0.2252021  0.1279992 -0.2147007  0.3543684  0.3502706 -0.4369721
  0.1270763  0.2082521  0.2078960 -0.1914853  0.3458503  0.4075658 -0.3911551
  0.1567670  0.2258186  0.0877157 -0.1590774  0.3891135  0.3725299 -0.4438916
  0.1736978  0.2256408  0.0970904 -0.1250540  0.3587524  0.3615716 -0.3895352
  0.1574085  0.2110643  0.1665800 -0.1366534  0.3793957  0.4235324 -0.3936057
  0.1734236  0.2110688  0.1774811 -0.1003963  0.3471703  0.4124825 -0.3353977
  0.1564878  0.2370054  0.0323866 -0.1661012  0.4080545  0.3530925 -0.4868071
  0.1563664  0.2528140 -0.0546467 -0.1919357  0.4216022  0.3038628 -0.5504451
  0.1737680  0.2367026  0.0437700 -0.1230334  0.3745787  0.3441196 -0.4233830
  0.1736856  0.2523522 -0.0441673 -0.1492237  0.3883370  0.2951780 -0.4885690
  0.1437837  0.2371455  0.0796087 -0.1861521  0.3401549  0.3119167 -0.4184600
  0.1263558  0.2372257  0.0640140 -0.2394780  0.3737805  0.3156768 -0.4911408
  0.1436803  0.2530210 -0.0086143 -0.2123280  0.3571095  0.2608805 -0.4818228
  0.1263406  0.2531245 -0.0241553 -0.2658855  0.3908805  0.2641201 -0.5541609
  0.1491896  0.1857953  0.3414984 -0.1282486  0.2953704  0.4839964 -0.2707466
  0.1361704  0.1835056  0.3317085 -0.1240437  0.3190553  0.4959086 -0.2882439
  0.1463443  0.1996168  0.2820336 -0.1473454  0.2887664  0.4271741 -0.2924859
  0.1296533  0.1970795  0.2755837 -0.1436232  0.3075790  0.4381878 -0.3062273
  0.1509857  0.1763542  0.4039889 -0.1158002  0.2682488  0.5175948 -0.2294061
  0.1530472  0.1643821  0.4548037 -0.0990801  0.2745785  0.5678492 -0.2121256
  0.1396426  0.1746198  0.3993987 -0.1090990  0.2843770  0.5266111 -0.2363115
  0.1426115  0.1639174  0.4554313 -0.0896829  0.2933477  0.5832993 -0.2175509
  0.1597718  0.1770842  0.3513242 -0.1031595  0.3194618  0.5161215 -0.2679568
  0.1724327  0.1773443  0.3584312 -0.0832847  0.2978925  0.5084077 -0.2332612
  0.1608160  0.1645777  0.4226697 -0.0834962  0.3135479  0.5725300 -0.2333565
  0.1716048  0.1646474  0.4300000 -0.0604705  0.2883422  0.5632902 -0.1937607
  0.1590206  0.1867341  0.2975754 -0.1127358  0.3497159  0.4978702 -0.3130306
  0.1580123  0.2005916  0.2191705 -0.1344534  0.3572381  0.4409580 -0.3562409
  0.1728599  0.1870093  0.3083810 -0.0820015  0.3188403  0.4870330 -0.2606535
  0.1731991  0.2007176  0.2280970 -0.1067081  0.3291980  0.4300112 -0.3086224
  0.2032392  0.2355694  0.0175247 -0.0658723  0.3926499  0.3706840 -0.4190316
  0.1862950  0.2363178  0.0097437 -0.1045722  0.4253721  0.3817808 -0.4766093
  0.2035559  0.2508956 -0.0684355 -0.0923364  0.4058585  0.3256485 -0.4864203
  0.1863301  0.2518382 -0.0750996 -0.1300978  0.4378927  0.3361566 -0.5413539
  0.2026152  0.2245345  0.0667231 -0.0842318  0.3808357  0.3794887 -0.3969974
  0.2012272  0.2097128  0.1481597 -0.0569345  0.3664242  0.4261157 -0.3348905
  0.1859828  0.2252967  0.0596512 -0.1201624  0.4113547  0.3908096 -0.4513208
  0.1851648  0.2107067  0.1423283 -0.0936091  0.3977351  0.4392209 -0.3905016
  0.2151874  0.2239604  0.0356594 -0.0825172  0.4231717  0.4038482 -0.4507060
  0.2329030  0.2231544  0.0442110 -0.0395594  0.3872267  0.3918112 -0.3871596
  0.2138876  0.2081997  0.1377122 -0.0486892  0.4052743  0.4603644 -0.3713414
  0.2324141  0.2050596  0.1335302 -0.0118364  0.3731800  0.4410391 -0.3193454
  0.2158086  0.2353194 -0.0185501 -0.0583581  0.4378810  0.3998790 -0.4767872
  0.2162060  0.2505919 -0.0946007 -0.0817784  0.4475217  0.3593781 -0.5357572
  0.2332049  0.2353850 -0.0095463 -0.0293274  0.4078063  0.3884893 -0.4273631
  0.2335405  0.2507049 -0.0853272 -0.0525697  0.4173082  0.3486810 -0.4865779
  0.2056395  0.1837201  0.2682480 -0.0402403  0.3642667  0.5095813 -0.2815736
  0.2113293  0.1974173  0.1802025 -0.0864247  0.3944259  0.4632353 -0.3694574
  0.2178945  0.1796078  0.2556184  0.0074992  0.3400255  0.4935092 -0.2303917
  0.2283926  0.1933913  0.1771588 -0.0464653  0.3736317  0.4553500 -0.3246566
  0.1962451  0.1856236  0.2799743 -0.0335803  0.3325276  0.4908296 -0.2444356
  0.1828342  0.1867117  0.2736077 -0.0771998  0.3630787  0.5014317 -0.3050238
  0.1995203  0.1992867  0.1959285 -0.0677042  0.3536293  0.4415101 -0.3132858
  0.1843211  0.2003679  0.1894860 -0.1065657  0.3808205  0.4500381 -0.3671178
  0.1937267  0.1762645  0.3265537 -0.0619203  0.3226046  0.5088825 -0.2442491
  0.1901214  0.1643581  0.4082320 -0.0259095  0.2997334  0.5612421 -0.1789196
  0.1815309  0.1771246  0.3205985 -0.0958734  0.3448037  0.5151675 -0.2904424
  0.1794572  0.1645885  0.3974934 -0.0667594  0.3264099  0.5658992 -0.2351653
  0.2020018  0.1747534  0.3314803 -0.0796604  0.3512523  0.5328957 -0.2810758
  0.2124141  0.1714852  0.3264913 -0.0517149  0.3384201  0.5250584 -0.2502819
  0.1977533  0.1639532  0.3786619 -0.0547148  0.3346951  0.5606898 -0.2367427
  0.2079396  0.1630775  0.3857049 -0.0161035  0.3155881  0.5589108 -0.1893093
  0.2321285  0.1646036  0.2847310  0.0056418  0.3529297  0.5247020 -0.2343291
  0.2249922  0.1744855  0.2839635 -0.0153607  0.3434035  0.5089007 -0.2402980
  0.2457495  0.1727001  0.2698396 -0.0315305  0.3628266  0.5120274 -0.2737183
  0.2376155  0.1867683  0.2703262 -0.0449248  0.3548213  0.5009583 -0.2755569
  0.2235202  0.1590712  0.3764616 -0.0414907  0.3341556  0.5616060 -0.2266351
  0.2136227  0.1520531  0.3814169 -0.0351881  0.3311800  0.5643561 -0.2181274
  0.2181800  0.1672832  0.3795083 -0.0431440  0.3335233  0.5630195 -0.2266552
  0.2121918  0.1598889  0.3887079 -0.0344388  0.3286477  0.5679959 -0.2137268
  0.2263472  0.1524759  0.4540446 -0.0226835  0.2953927  0.5952518 -0.1638906
  0.2287307  0.1426691  0.4772131 -0.0163496  0.2964052  0.6161221 -0.1552586
  0.2143802  0.1461606  0.4312699 -0.0339030  0.3104284  0.5865781 -0.1892111
  0.2150189  0.1378975  0.4629405 -0.0246684  0.3099617  0.6134923 -0.1752202
  0.2359436  0.1570155  0.3337915 -0.0139184  0.3308602  0.5336932 -0.2138200
  0.2501945  0.1631025  0.3511587 -0.0146777  0.3159977  0.5333619 -0.1968808
  0.2392305  0.1461664  0.3725124 -0.0007752  0.3368512  0.5709720 -0.1992348
  0.2542045  0.1509497  0.3851484 -0.0030227  0.3215673  0.5666620 -0.1845363
  0.2734784  0.1815566  0.1996593  0.0058399  0.3733910  0.4885116 -0.2830124
  0.2568292  0.1772427  0.1873815  0.0108331  0.3929743  0.5018742 -0.3036596
  0.2688568  0.1974211  0.1495092 -0.0113443  0.3655251  0.4433511 -0.3051862
  0.2493690  0.1929139  0.1402303 -0.0065699  0.3826649  0.4564711 -0.3228107
  0.2766175  0.1705576  0.2680522 -0.0024780  0.3300777  0.4895054 -0.2239312
  0.2805723  0.1563721  0.3112532  0.0122190  0.3366334  0.5300803 -0.2066081
  0.2610930  0.1667311  0.2584216  0.0017296  0.3464021  0.4994902 -0.2393389
  0.2652820  0.1536843  0.3047047  0.0177531  0.3540859  0.5432788 -0.2208210
  0.2885302  0.1728846  0.1832646  0.0075787  0.3647175  0.4705686 -0.2797253
  0.3055517  0.1754157  0.1906285  0.0053118  0.3441681  0.4543931 -0.2584527
  0.2922728  0.1581718  0.2371073  0.0247564  0.3710311  0.5168558 -0.2549921
  0.3089489  0.1604006  0.2437573  0.0221505  0.3498823  0.4999620 -0.2340543
  0.2858209  0.1840787  0.1284926  0.0150752  0.4111808  0.4868568 -0.3432890
  0.2821615  0.1999487  0.0705744 -0.0030425  0.4052879  0.4407219 -0.3731900
  0.3028920  0.1866553  0.1366709  0.0140846  0.3897834  0.4699508 -0.3191953
  0.2990227  0.2023473  0.0783433 -0.0042128  0.3835255  0.4228057 -0.3486752
  0.2953292  0.1318956  0.3630467  0.0259965  0.3226523  0.5585343 -0.1694911
  0.2940946  0.1471888  0.2912381  0.0049730  0.3230904  0.5014812 -0.2052701
  0.3121840  0.1335101  0.3726255  0.0357008  0.2956296  0.5444225 -0.1360962
  0.3107261  0.1491720  0.3027176  0.0153114  0.2957530  0.4878312 -0.1698022
  0.2835176  0.1307644  0.4439513  0.0311087  0.2845261  0.5890479 -0.1139880
  0.2681024  0.1292883  0.4320376  0.0142664  0.3125708  0.5990957 -0.1527917
  0.2824212  0.1457096  0.3704174  0.0099617  0.2874156  0.5294385 -0.1490594
  0.2671601  0.1436515  0.3553551 -0.0078872  0.3157918  0.5380287 -0.1905608
  0.2840152  0.1197437  0.5058155  0.0082052  0.2349944  0.5992476 -0.0852270
  0.2842784  0.1045797  0.5934887  0.0342380  0.2295743  0.6756570 -0.0479304
  0.2678232  0.1184256  0.4911381 -0.0147478  0.2723845  0.6099121 -0.1335217
  0.2661182  0.1031113  0.5804537  0.0137891  0.2629070  0.6836408 -0.0893980
  0.2961134  0.1207548  0.4182053  0.0035699  0.2701323  0.5514050 -0.1296298
  0.3129743  0.1221989  0.4295471  0.0185560  0.2390111  0.5392574 -0.0911543
  0.2970213  0.1056105  0.4982978  0.0269624  0.2677441  0.6193179 -0.0940577
  0.3136753  0.1069582  0.5093654  0.0420159  0.2362420  0.6079770 -0.0565956
  0.2407254  0.1264453  0.4934999 -0.0031451  0.3033253  0.6371855 -0.1468306
  0.2405117  0.1379752  0.4258252 -0.0231819  0.3083912  0.5827754 -0.1801321
  0.2566363  0.1281310  0.5071256  0.0173351  0.2754983  0.6308399 -0.1063792
  0.2559305  0.1415791  0.4499003  0.0008044  0.2791098  0.5835758 -0.1328711
  0.2296393  0.1251921  0.5763239  0.0085367  0.2569462  0.6753362 -0.0904756
  0.2152623  0.1234539  0.5606016 -0.0143362  0.2859769  0.6786215 -0.1323561
  0.2296128  0.1353584  0.5294695 -0.0054919  0.2609669  0.6356861 -0.1117085
  0.2152552  0.1318133  0.5035748 -0.0314330  0.2909049  0.6312721 -0.1591303
  0.2291362  0.1181824  0.6053452 -0.0077980  0.2386005  0.6872532 -0.0897059
  0.2277355  0.1091980  0.6557891  0.0084774  0.2330503  0.7309635 -0.0666970
  0.2151275  0.1174503  0.5971811 -0.0221349  0.2672679  0.6965710 -0.1215249
  0.2147522  0.1094076  0.6530140 -0.0050049  0.2632225  0.7453515 -0.0973424
  0.2401033  0.1183432  0.5448674 -0.0310203  0.2735555  0.6540939 -0.1402468
  0.2560570  0.1180503  0.5559203  0.0123308  0.2329158  0.6420671 -0.0738160
  0.2381900  0.1077376  0.6485724  0.0063687  0.2537535  0.7367348 -0.0817937
  0.2537688  0.1039574  0.6341611  0.0400741  0.2184313  0.7058276 -0.0315924
  0.2969314  0.0786884  0.6552798  0.0223502  0.2083984  0.7177344 -0.0401044
  0.2972405  0.0943389  0.5584308 -0.0070341  0.2154948  0.6311919 -0.0797952
  0.3137792  0.0795457  0.6661370  0.0429992  0.1728235  0.7108589 -0.0017227
  0.3138910  0.0955293  0.5715230  0.0145012  0.1793388  0.6242684 -0.0382442
  0.2847445  0.0780032  0.7412225  0.0397218  0.1717927  0.7810340 -0.0000897
  0.2682972  0.0769883  0.7289593  0.0195773  0.2109503  0.7869495 -0.0384128
  0.2844738  0.0933954  0.6493899  0.0124127  0.1764818  0.6950178 -0.0332151
  0.2662452  0.0920082  0.6369136 -0.0061539  0.2118171  0.7004129 -0.0696532
  0.2845059  0.0670544  0.8020036  0.0018153  0.1213647  0.8200060 -0.0161871
  0.2835833  0.0525342  0.8946634  0.0304751  0.1140903  0.9094718  0.0156666
  0.2688312  0.0664227  0.7929001 -0.0159871  0.1574988  0.8224847 -0.0455717
  0.2682378  0.0525766  0.8898988  0.0137214  0.1505770  0.9150543 -0.0114340
  0.2965499  0.0673263  0.7239062 -0.0176712  0.1531410  0.7542863 -0.0480513
  0.3137802  0.0674373  0.7325231  0.0085379  0.1081103  0.7483220 -0.0072611
  0.2958169  0.0519348  0.8452786  0.0197995  0.1425663  0.8692073 -0.0041292
  0.3138945  0.0503398  0.8419101  0.0412188  0.1006285  0.8543631  0.0287658
  0.2402107  0.0730734  0.8036531  0.0136508  0.2012532  0.8519676 -0.0346637
  0.2378449  0.0834190  0.7447270 -0.0050795  0.1947940  0.7923130 -0.0526655
  0.2563645  0.0756674  0.8133191  0.0109107  0.1764831  0.8504197 -0.0261899
  0.2537510  0.0893350  0.7679151 -0.0033892  0.1720937  0.8045707 -0.0400448
  0.2291633  0.0715661  0.8967500  0.0016680  0.1658811  0.9265029 -0.0280849
  0.2151348  0.0700421  0.8895831 -0.0019785  0.1874438  0.9273886 -0.0397840
  0.2273689  0.0803933  0.8593148 -0.0093767  0.1635646  0.8890915 -0.0391533
  0.2146540  0.0780427  0.8464943 -0.0148419  0.1869408  0.8853173 -0.0536649
  0.2298913  0.0645977  0.9344552 -0.0053949  0.1247791  0.9507393 -0.0216791
  0.2300858  0.0543868  0.9923193  0.0118769  0.1234083  1.0076142 -0.0034179
  0.2153298  0.0640496  0.9279944 -0.0153417  0.1604169  0.9545275 -0.0418748
  0.2153820  0.0556783  0.9985517  0.0057904  0.1584292  1.0232215 -0.0188794
  0.2411113  0.0650927  0.8535501 -0.0171898  0.1634114  0.8832073 -0.0468470
  0.2572036  0.0658970  0.8639099  0.0003193  0.1238417  0.8813183 -0.0170891
  0.2412059  0.0536347  0.9467194  0.0106617  0.1590828  0.9730167 -0.0156356
  0.2568828  0.0528715  0.9459841  0.0252001  0.1190902  0.9611373  0.0100468
  0.2230288  0.0920332  0.7803458 -0.0103907  0.1836762  0.8209282 -0.0509731
  0.2257252  0.0858774  0.8213813  0.0005101  0.1888008  0.8627234 -0.0408321
  0.2134911  0.0909223  0.7703521 -0.0188447  0.2085452  0.8220709 -0.0705635
  0.2142136  0.0836375  0.8090473 -0.0075347  0.2087349  0.8593104 -0.0577978
  0.2288381  0.0948522  0.7315941  0.0094888  0.2174042  0.7919956 -0.0509127
  0.2351715  0.1014432  0.6833896 -0.0332067  0.2417869  0.7573396 -0.1071567
  0.2347977  0.0892547  0.7068948  0.0291121  0.2146451  0.7691516 -0.0331448
  0.2480724  0.0962417  0.6778801 -0.0078598  0.2334645  0.7498179 -0.0797976
  0.2231368  0.0967426  0.7434743  0.0273687  0.2041258  0.7975733 -0.0267303
  0.2135200  0.0963095  0.7274622 -0.0137314  0.2361974  0.7963324 -0.0826016
  0.2261279  0.1034532  0.6844900 -0.0003533  0.2214641  0.7498660 -0.0657293
  0.2143215  0.1037429  0.6768404 -0.0310916  0.2458355  0.7538350 -0.1080862
  0.2888364  0.0272822  1.0111071  0.0153038  0.0808578  1.0176299  0.0087809
  0.2937501  0.0412050  0.8914331 -0.0300516  0.1055578  0.9033703 -0.0419888
  0.3032960  0.0251300  1.0008468  0.0445005  0.0335549  1.0020226  0.0433246
  0.3110852  0.0390036  0.8853204 -0.0044552  0.0651247  0.8900618 -0.0091965
  0.2782210  0.0286760  1.0427996  0.0408092  0.0554277  1.0458564  0.0377524
  0.2636786  0.0303319  1.0445151  0.0087574  0.0922776  1.0526720  0.0006004
  0.2818992  0.0422507  0.9473738  0.0046819  0.0748891  0.9532860 -0.0012304
  0.2668572  0.0429061  0.9413879 -0.0297549  0.1127060  0.9542964 -0.0426634
  0.2752231  0.0186974  1.0949279 -0.0040584  0.0257122  1.0955292 -0.0046597
  0.2707112  0.0050099  1.2182167  0.0413989  0.0019260  1.2182199  0.0413957
  0.2609497  0.0202922  1.0995422 -0.0264405  0.0636918  1.1031335 -0.0300318
  0.2566726  0.0054373  1.2134707  0.0145946  0.0432788  1.2150310  0.0130343
  0.2853971  0.0174976  1.0692109 -0.0380303  0.0531988  1.0717610 -0.0405804
  0.2989195  0.0158144  1.0688024 -0.0049010  0.0228153  1.0692870 -0.0053856
  0.2809145  0.0046885  1.1514863 -0.0032910  0.0324742  1.1523988 -0.0042035
  0.2947518  0.0042375  1.1598012  0.0338275 -0.0003867  1.1598014  0.0338273
  0.3214566  0.0167758  0.9827126  0.0340841  0.0362361  0.9840948  0.0327019
  0.3120366  0.0223148  0.9990499  0.0039142  0.0449115  1.0010726  0.0018914
  0.3301895  0.0221840  0.9434816 -0.0112863  0.0601507  0.9472562 -0.0150609
  0.3208492  0.0339069  0.9665652 -0.0212313  0.0599955  0.9701958 -0.0248618
  0.3180769  0.0116695  1.0283552 -0.0073702  0.0073565  1.0284074 -0.0074225
  0.3175762  0.0031268  1.1113905  0.0187224 -0.0020996  1.1113946  0.0187183
  0.3076760  0.0142528  1.0445046 -0.0260137  0.0387827  1.0459078 -0.0274169
  0.3045753  0.0038190  1.1091475 -0.0020406  0.0262877  1.1097690 -0.0026621
  0.3254757  0.0116317  1.0031825 -0.0077164  0.0176570  1.0034908 -0.0080247
  0.3352886  0.0141119  1.0120274 -0.0256829 -0.0019991  1.0120312 -0.0256867
  0.3270359  0.0031167  1.0591374  0.0124187  0.0282039  1.0598968  0.0116593
  0.3398793  0.0037813  1.0560421 -0.0062650  0.0099061  1.0561345 -0.0063574
  0.3434288  0.0688905  0.6594237  0.0024527  0.1033859  0.6753091 -0.0134328
  0.3453475  0.0531051  0.7631044  0.0331745  0.1065940  0.7783521  0.0179268
  0.3263413  0.0678564  0.6515843 -0.0032645  0.1423789  0.6812012 -0.0328814
  0.3271661  0.0506534  0.7481570  0.0255667  0.1428760  0.7753818 -0.0016581
  0.3553874  0.0695236  0.5700862  0.0027507  0.1323058  0.5994236 -0.0265867
  0.3709714  0.0702192  0.5753154  0.0069882  0.0981635  0.5917929 -0.0094892
  0.3575373  0.0543081  0.6668182  0.0313950  0.1360757  0.6947325  0.0034807
  0.3726591  0.0551429  0.6732512  0.0360680  0.1009723  0.6888691  0.0204500
  0.3543040  0.0808927  0.5084523  0.0339038  0.2057195  0.5852155 -0.0428595
  0.3534943  0.0967379  0.4135527  0.0057965  0.2067454  0.5000363 -0.0806872
  0.3701010  0.0814749  0.5143803  0.0428770  0.1718583  0.5703719 -0.0131146
  0.3694108  0.0971497  0.4183895  0.0143957  0.1731337  0.4824340 -0.0496488
  0.3424832  0.0805063  0.5958530  0.0443818  0.1709894  0.6445670 -0.0043322
  0.3259848  0.0800328  0.5889098  0.0300726  0.2066397  0.6570177 -0.0380353
  0.3418184  0.0964557  0.4941038  0.0143693  0.1742252  0.5507002 -0.0422271
  0.3258356  0.0960965  0.4875859 -0.0002107  0.2110069  0.5661939 -0.0788186
  0.3537829  0.0275767  0.8945161  0.0121724  0.0553229  0.8979713  0.0087172
  0.3388513  0.0250781  0.8883114  0.0303163  0.0808055  0.8958552  0.0227724
  0.3481218  0.0420351  0.8290071 -0.0139698  0.0402636  0.8309258 -0.0158886
  0.3305182  0.0391910  0.8240929  0.0016136  0.0620294  0.8287447 -0.0030382
  0.3579411  0.0175753  0.9595323 -0.0312813 -0.0079453  0.9595960 -0.0313451
  0.3636403  0.0047093  1.0134813 -0.0050117  0.0086602  1.0135549 -0.0050854
  0.3439877  0.0157044  0.9603617 -0.0047111  0.0111819  0.9604913 -0.0048407
  0.3496874  0.0042080  1.0206645  0.0259046  0.0306461  1.0216078  0.0249613
  0.3683235  0.0184921  0.8988827 -0.0075373  0.0161128  0.8991690 -0.0078236
  0.3827354  0.0191263  0.8945228 -0.0346153 -0.0163390  0.8948101 -0.0349025
  0.3738994  0.0049550  0.9969430  0.0325600  0.0397145  0.9985757  0.0309273
  0.3879751  0.0051249  0.9892177  0.0031936  0.0053202  0.9892464  0.0031649
  0.3646008  0.0287919  0.8346849  0.0303081  0.0822900  0.8430171  0.0219759
  0.3600060  0.0433940  0.7340844 -0.0040831  0.0662156  0.7399770 -0.0099758
  0.3792240  0.0296132  0.8358652  0.0170597  0.0472913  0.8385875  0.0143373
  0.3748704  0.0442625  0.7354680 -0.0170316  0.0318433  0.7368131 -0.0183767
  0.3978940  0.0819831  0.4282024  0.0299807  0.1765754  0.4952193 -0.0370362
  0.3817808  0.0817671  0.4261038  0.0269229  0.2104558  0.5165616 -0.0635349
  0.3971338  0.0974043  0.3342715  0.0019179  0.1758606  0.4100486 -0.0738591
  0.3811039  0.0973283  0.3330037 -0.0009053  0.2099362  0.4342786 -0.1021801
  0.3987405  0.0708064  0.4905311  0.0003264  0.0911737  0.5069394 -0.0160818
  0.4002931  0.0556921  0.5996364  0.0330126  0.0949286  0.6151172  0.0175318
  0.3825878  0.0705629  0.4886070 -0.0007228  0.1322155  0.5220461 -0.0341619
  0.3841155  0.0555137  0.5981874  0.0321062  0.1359404  0.6291401  0.0011535
  0.4102512  0.0708712  0.3996355 -0.0074062  0.1346376  0.4401393 -0.0479099
  0.4255464  0.0708048  0.3979255 -0.0115537  0.0932663  0.4181679 -0.0317961
  0.4116925  0.0557060  0.5201630  0.0291038  0.1400680  0.5573060 -0.0080392
  0.4266589  0.0555655  0.5178042  0.0246786  0.0977443  0.5364718  0.0060110
  0.4094605  0.0820476  0.3364373  0.0109453  0.2262317  0.4523794 -0.1049967
  0.4087416  0.0974169  0.2465683 -0.0163319  0.2221585  0.3732529 -0.1430165
  0.4249478  0.0820077  0.3339255  0.0032854  0.1941636  0.4236157 -0.0864048
  0.4244248  0.0973754  0.2440816 -0.0238981  0.1904905  0.3429864 -0.1228030
  0.4056181  0.0302097  0.7815848  0.0229404  0.0314309  0.7828847  0.0216404
  0.3902145  0.0299931  0.7851872  0.0405006  0.0768525  0.7930357  0.0326520
  0.4021359  0.0448143  0.6610035 -0.0168414  0.0156475  0.6613645 -0.0172025
  0.3861591  0.0446431  0.6649028  0.0002439  0.0595350  0.6701934 -0.0050467
  0.4084072  0.0196097  0.8476789 -0.0358581 -0.0292421  0.8486456 -0.0368248
  0.4125451  0.0052544  0.9758413  0.0108871 -0.0055171  0.9758728  0.0108555
  0.3934758  0.0194257  0.8555921 -0.0048047  0.0143634  0.8558318 -0.0050445
  0.3983302  0.0052051  0.9853684  0.0440382  0.0406450  0.9871201  0.0422865
  0.4192023  0.0196785  0.8220613 -0.0080830  0.0130147  0.8222653 -0.0082870
  0.4337637  0.0196826  0.8115051 -0.0434158 -0.0436719  0.8137302 -0.0456409
  0.4229148  0.0052728  0.9901922  0.0508179  0.0405580  0.9919401  0.0490700
  0.4370306  0.0052739  0.9792677  0.0143559 -0.0179265  0.9796006  0.0140230
  0.4166551  0.0302775  0.7377283  0.0438081  0.0736595  0.7454610  0.0360753
  0.4134085  0.0448290  0.5956558 -0.0033177  0.0549156  0.6006490 -0.0083109
  0.4314052  0.0302462  0.7306096  0.0210008  0.0232585  0.7313711  0.0202393
  0.4282287  0.0446979  0.5875840 -0.0263745  0.0045500  0.5876177 -0.0264083
  0.4076616  0.1243191  0.1356404 -0.0314502  0.3025214  0.3659406 -0.2617504
  0.4238946  0.1243338  0.1294681 -0.0521997  0.2804769  0.3334529 -0.2561845
  0.4082596  0.1087435  0.1978295 -0.0120798  0.3105016  0.4206350 -0.2348853
  0.4241425  0.1087167  0.1913530 -0.0333397  0.2879488  0.3880960 -0.2300827
  0.4070477  0.1357240  0.1001399 -0.0326891  0.3783606  0.4178707 -0.3504198
  0.4059685  0.1513072  0.0556250 -0.0481265  0.3657323  0.3731423 -0.3656438
  0.4234400  0.1357447  0.0897008 -0.0676653  0.3621312  0.3815984 -0.3595629
  0.4224461  0.1513028  0.0451670 -0.0829500  0.3495650  0.3364945 -0.3742775
  0.3952985  0.1357042  0.1623482 -0.0082496  0.3347076  0.4224549 -0.2683563
  0.3795915  0.1356709  0.1667077  0.0066568  0.3550072  0.4505973 -0.2772329
  0.3941668  0.1513043  0.1045210 -0.0265755  0.3280642  0.3735213 -0.2955758
  0.3784014  0.1512917  0.1089419 -0.0116984  0.3482996  0.4021060 -0.3048626
  0.3959543  0.1243000  0.2069394 -0.0094232  0.2586180  0.3790909 -0.1815747
  0.3966141  0.1087430  0.2813379  0.0130468  0.2610877  0.4407257 -0.1463409
  0.3802023  0.1242624  0.2079569 -0.0054794  0.2852820  0.4058279 -0.2033504
  0.3806810  0.1087149  0.2823900  0.0169598  0.2874506  0.4662837 -0.1669339
  0.3404922  0.1234435  0.3542761  0.0176567  0.2427092  0.4813236 -0.1093908
  0.3412849  0.1079607  0.4363504  0.0418639  0.2410666  0.5505843 -0.0723700
  0.3248655  0.1229193  0.3487002  0.0076633  0.2723668  0.4995230 -0.1431595
  0.3255357  0.1075879  0.4316405  0.0321873  0.2704897  0.5681510 -0.1043232
  0.3521765  0.1237650  0.2787058  0.0074560  0.2767340  0.4512624 -0.1651006
  0.3684721  0.1241191  0.2818488  0.0124826  0.2477709  0.4291763 -0.1348449
  0.3529242  0.1082255  0.3586578  0.0312511  0.2765615  0.5163343 -0.1264254
  0.3689743  0.1085762  0.3618588  0.0363576  0.2471555  0.4950365 -0.0968201
  0.3513661  0.1351667  0.2327298  0.0264653  0.3407369  0.4856002 -0.2264051
  0.3498995  0.1507774  0.1679440  0.0066161  0.3369179  0.4337196 -0.2591595
  0.3678199  0.1355269  0.2326919  0.0217649  0.3166688  0.4609973 -0.2065405
  0.3665401  0.1511505  0.1679432  0.0019799  0.3131232  0.4088938 -0.2389707
  0.3396399  0.1348376  0.3013796  0.0338434  0.3058554  0.5014399 -0.1662170
  0.3240570  0.1342983  0.2982515  0.0308806  0.3307672  0.5213275 -0.1921954
  0.3381039  0.1504838  0.2295177  0.0124860  0.3041713  0.4439506 -0.2019469
  0.3225183  0.1500549  0.2268902  0.0096709  0.3291076  0.4648464 -0.2282853
  0.3455943  0.1776483  0.0779270  0.0032351  0.3843967  0.4267876 -0.3456255
  0.3618343  0.1780768  0.0742813 -0.0133613  0.3651216  0.3982019 -0.3372818
  0.3483530  0.1621603  0.1308138  0.0216891  0.3932288  0.4732476 -0.3207447
  0.3649362  0.1625517  0.1270887  0.0053740  0.3743168  0.4454630 -0.3130003
  0.3436448  0.1890783  0.0430942  0.0151802  0.4302553  0.4596188 -0.4013444
  0.3410773  0.2048173 -0.0071178 -0.0021212  0.4221547  0.4175426 -0.4267816
  0.3598616  0.1894909  0.0396585 -0.0002944  0.4121620  0.4323279 -0.3929638
  0.3575741  0.2051499 -0.0107718 -0.0174393  0.4043106  0.3902188 -0.4184299
  0.3316718  0.1886464  0.0816148  0.0155765  0.4003599  0.4503148 -0.3531236
  0.3151777  0.1878792  0.0825560  0.0271589  0.4211047  0.4768721 -0.3671572
  0.3287322  0.2043848  0.0265077 -0.0028768  0.3928426  0.4049327 -0.3813018
  0.3115013  0.2035359  0.0272501  0.0081503  0.4126661  0.4304768 -0.3950764
  0.3337609  0.1772486  0.1229671  0.0037304  0.3542794  0.4226094 -0.2959119
  0.3365287  0.1618478  0.1839944  0.0232734  0.3607353  0.4732117 -0.2659439
  0.3176712  0.1765850  0.1227242  0.0107410  0.3760425  0.4469208 -0.3134556
  0.3208072  0.1613856  0.1845057  0.0307091  0.3831427  0.4983908 -0.2831760
  0.3891672  0.1896858 -0.0015947 -0.0365020  0.4266057  0.4079142 -0.4460109
  0.3720593  0.1896537  0.0066736 -0.0086845  0.4423318  0.4413930 -0.4434039
  0.3872331  0.2052825 -0.0431763 -0.0518158  0.4160361  0.3685625 -0.4635545
  0.3699415  0.2052746 -0.0349299 -0.0242649  0.4316145  0.4020500 -0.4612448
  0.3906945  0.1782791  0.0244494 -0.0429733  0.3792944  0.3715276 -0.3900516
  0.3929331  0.1627122  0.0699241 -0.0258584  0.3908123  0.4157686 -0.3717029
  0.3739189  0.1782458  0.0325746 -0.0156128  0.3952911  0.4045056 -0.3875438
  0.3768815  0.1626996  0.0784768  0.0027649  0.4075492  0.4499244 -0.3686828
  0.4029084  0.1782929 -0.0058271 -0.0610067  0.4110375  0.3785455 -0.4453793
  0.4195017  0.1782971 -0.0185794 -0.1035436  0.3981523  0.3393508 -0.4614738
  0.4048594  0.1627135  0.0304178 -0.0455597  0.4266048  0.4207220 -0.4358639
  0.4213909  0.1627047  0.0175861 -0.0882729  0.4136572  0.3816863 -0.4523731
  0.4015206  0.1897009 -0.0256934 -0.0545066  0.4556605  0.4157881 -0.4959881
  0.3996802  0.2052889 -0.0575942 -0.0682588  0.4407779  0.3778837 -0.5037367
  0.4181630  0.1897100 -0.0381940 -0.0962301  0.4442139  0.3779486 -0.5123727
  0.4163947  0.2052983 -0.0700404 -0.1098020  0.4293810  0.3399198 -0.5197622
  0.3852182  0.2322789 -0.1039356 -0.0559430  0.4389142  0.3596304 -0.5195090
  0.3861750  0.2166953 -0.0663575 -0.0434298  0.4474778  0.3927310 -0.5025183
  0.3678962  0.2322482 -0.0965894 -0.0312325  0.4534023  0.3906674 -0.5184893
  0.3688260  0.2166877 -0.0589664 -0.0187371  0.4619572  0.4235432 -0.5012467
  0.3977534  0.2323013 -0.1026587 -0.0721925  0.4568878  0.3697161 -0.5445673
  0.4146781  0.2323316 -0.1140649 -0.1103718  0.4467325  0.3345180 -0.5589547
  0.3986707  0.2167036 -0.0749864 -0.0619894  0.4698761  0.4014331 -0.5384089
  0.4154609  0.2167187 -0.0865114 -0.1004862  0.4596263  0.3661806 -0.5531783
  0.3972311  0.2437143 -0.1178647 -0.0639704  0.4703716  0.3802253 -0.5620604
  0.3967217  0.2592977 -0.1438867 -0.0727846  0.4582293  0.3512706 -0.5679419
  0.4142481  0.2437447 -0.1289912 -0.1012121  0.4604991  0.3456069 -0.5758102
  0.4138561  0.2593130 -0.1549625 -0.1097804  0.4484124  0.3166097 -0.5813526
  0.3846541  0.2436913 -0.1255012 -0.0477061  0.4550116  0.3700676 -0.5432749
  0.3673099  0.2436588 -0.1180667 -0.0227067  0.4683936  0.4004275 -0.5412008
  0.3840696  0.2592869 -0.1600441 -0.0588337  0.4467171  0.3401354 -0.5590132
  0.3666380  0.2592727 -0.1526060 -0.0339454  0.4600423  0.3705767 -0.5571281
  0.3384011  0.2315636 -0.0840035 -0.0088201  0.4474859  0.4026503 -0.4954739
  0.3553516  0.2320566 -0.0863780 -0.0210697  0.4304196  0.3779326 -0.4853803
  0.3396723  0.2162012 -0.0380833  0.0058428  0.4529288  0.4373407 -0.4695812
  0.3563656  0.2165553 -0.0408902 -0.0067278  0.4355439  0.4120697 -0.4596877
  0.3376239  0.2430166 -0.1123446  0.0004486  0.4637496  0.4112182 -0.5231143
  0.3367718  0.2589441 -0.1559315 -0.0132290  0.4586141  0.3795511 -0.5487116
  0.3547082  0.2434781 -0.1151166 -0.0126821  0.4472594  0.3862830 -0.5140817
  0.3539646  0.2591808 -0.1593153 -0.0264819  0.4421437  0.3542057 -0.5400029
  0.3250046  0.2424458 -0.0965000  0.0050911  0.4386013  0.3958285 -0.4872374
  0.3076124  0.2413480 -0.0991826  0.0072967  0.4589043  0.4160393 -0.5079252
  0.3241085  0.2584477 -0.1500051 -0.0111153  0.4364901  0.3614196 -0.5225401
  0.3067043  0.2573284 -0.1527549 -0.0089323  0.4567750  0.3815574 -0.5432446
  0.3258237  0.2310006 -0.0613225 -0.0061450  0.4214128  0.3885812 -0.4560487
  0.3271652  0.2157336 -0.0087645  0.0098476  0.4240126  0.4246562 -0.4235732
  0.3084120  0.2299552 -0.0639832 -0.0039882  0.4425331  0.4095630 -0.4775344
  0.3096884  0.2148102 -0.0109838  0.0121295  0.4450885  0.4458113 -0.4446656
  0.3363912  0.2856195 -0.2211739 -0.0153192  0.4563772  0.3495934 -0.5860865
  0.3537029  0.2860884 -0.2238897 -0.0280599  0.4407930  0.3255623 -0.5775119
  0.3364415  0.2703595 -0.1808707 -0.0031927  0.4605418  0.3770004 -0.5610638
  0.3536953  0.2705982 -0.1841924 -0.0161557  0.4448436  0.3525344 -0.5528825
  0.3363669  0.2970317 -0.2426089 -0.0025608  0.4448411  0.3381639 -0.5833336
  0.3363506  0.3129504 -0.2803833 -0.0139060  0.4400683  0.3126517 -0.6069409
  0.3536964  0.2975001 -0.2459853 -0.0172351  0.4303878  0.3137160 -0.5769363
  0.3536709  0.3131874 -0.2843186 -0.0287557  0.4255366  0.2877707 -0.6008450
  0.3236824  0.2964593 -0.2576380 -0.0004110  0.4285010  0.3183618 -0.5764108
  0.3063571  0.2953639 -0.2593649  0.0040459  0.4470177  0.3383567 -0.5936758
  0.3236698  0.3124536 -0.3067245 -0.0151407  0.4267233  0.2900087 -0.6118739
  0.3063454  0.3113332 -0.3085283 -0.0107067  0.4452382  0.3098625 -0.6290975
  0.3237067  0.2850471 -0.2301538 -0.0130581  0.4390206  0.3306349 -0.5738467
  0.3237607  0.2698627 -0.1810846  0.0016701  0.4398825  0.3595660 -0.5389805
  0.3063636  0.2839522 -0.2329123 -0.0115052  0.4586052  0.3495687 -0.5939862
  0.3063697  0.2687441 -0.1839019  0.0031988  0.4594119  0.3784885 -0.5591916
  0.3837489  0.2862878 -0.2103652 -0.0584940  0.4411151  0.3131738 -0.5820330
  0.3838271  0.2707005 -0.1788510 -0.0489406  0.4487423  0.3395233 -0.5673149
  0.3663924  0.2862675 -0.2031428 -0.0342938  0.4534374  0.3425116 -0.5799481
  0.3663922  0.2706896 -0.1716419 -0.0248435  0.4610138  0.3685776 -0.5650630
  0.3964465  0.2863048 -0.1809354 -0.0690385  0.4468604  0.3253622 -0.5753362
  0.4137805  0.2863311 -0.1912938 -0.1036876  0.4376802  0.2923760 -0.5873574
  0.3965114  0.2707098 -0.1570756 -0.0617611  0.4578906  0.3509456 -0.5697823
  0.4137308  0.2707240 -0.1675212 -0.0966463  0.4486409  0.3179546 -0.5821220
  0.3964127  0.2977167 -0.1920490 -0.0551395  0.4340898  0.3158599 -0.5630485
  0.3963854  0.3132997 -0.2144948 -0.0619215  0.4235879  0.2921944 -0.5686107
  0.4137715  0.2977427 -0.2020067 -0.0884452  0.4253788  0.2839257 -0.5743776
  0.4136970  0.3133128 -0.2244980 -0.0953235  0.4148446  0.2599315 -0.5797530
  0.3837151  0.2976997 -0.2270435 -0.0465322  0.4301393  0.3027186 -0.5762943
  0.3663833  0.2976791 -0.2198459 -0.0224230  0.4414925  0.3312587 -0.5735276
  0.3837010  0.3132905 -0.2562522 -0.0553130  0.4225362  0.2785341 -0.5900993
  0.3663584  0.3132785 -0.2490431 -0.0312140  0.4338865  0.3072190 -0.5874761
  0.3363501  0.3396307 -0.3342190 -0.0101567  0.4110945  0.2696863 -0.6140620
  0.3536744  0.3400904 -0.3381147 -0.0262424  0.3977655  0.2450608 -0.6094179
  0.3363461  0.3243648 -0.2997682  0.0001753  0.4162233  0.2926212 -0.5922141
  0.3536650  0.3245994 -0.3041654 -0.0160653  0.4028158  0.2676825 -0.5879132
  0.3363561  0.3510651 -0.3494388  0.0038964  0.3760828  0.2427401 -0.5882826
  0.3363686  0.3670383 -0.3809431 -0.0055442  0.3706405  0.2222145 -0.6087018
  0.3536760  0.3515080 -0.3536987 -0.0129972  0.3640852  0.2186190 -0.5853149
  0.3536710  0.3672106 -0.3857500 -0.0226174  0.3585370  0.1977057 -0.6060731
  0.3236749  0.3504929 -0.3937604 -0.0000205  0.3668206  0.2194209 -0.6132018
  0.3063491  0.3493727 -0.3933603  0.0103639  0.3827162  0.2411911 -0.6241875
  0.3236886  0.3665419 -0.4363008 -0.0127748  0.3631934  0.1958823 -0.6449579
  0.3063488  0.3653580 -0.4360679 -0.0024488  0.3790620  0.2174273 -0.6559440
  0.3236689  0.3390585 -0.3743322 -0.0140824  0.4016784  0.2460091 -0.6344238
  0.3236662  0.3238680 -0.3300214 -0.0007901  0.4040074  0.2708514 -0.6016629
  0.3063475  0.3379547 -0.3752724 -0.0074599  0.4191740  0.2663766 -0.6491088
  0.3063428  0.3227454 -0.3310159  0.0058154  0.4214982  0.2912990 -0.6164995
  0.3836929  0.3402967 -0.2972257 -0.0491657  0.3923288  0.2382716 -0.5846630
  0.3836951  0.3247044 -0.2705740 -0.0411671  0.3998677  0.2601235 -0.5718646
  0.3663598  0.3402688 -0.2900811 -0.0252051  0.4026996  0.2662752 -0.5815615
  0.3663521  0.3246904 -0.2634097 -0.0172131  0.4102393  0.2879987 -0.5686214
  0.3963945  0.3403129 -0.2450144 -0.0515647  0.3901073  0.2536301 -0.5502092
  0.4137630  0.3403291 -0.2540767 -0.0818389  0.3819578  0.2235881 -0.5595038
  0.3963805  0.3247133 -0.2240101 -0.0452853  0.3996530  0.2748741 -0.5441695
  0.4136948  0.3247239 -0.2331084 -0.0756566  0.3914745  0.2449294 -0.5536945
  0.3963976  0.3517445 -0.2529248 -0.0334848  0.3563639  0.2296674 -0.5160770
  0.3963919  0.3673768 -0.2723547 -0.0393225  0.3475817  0.2107525 -0.5224297
  0.4137639  0.3517461 -0.2612784 -0.0613365  0.3488151  0.2015509 -0.5241658
  0.4136978  0.3673324 -0.2807950 -0.0672889  0.3399805  0.1823048 -0.5303887
  0.3836959  0.3517284 -0.3092103 -0.0336067  0.3592537  0.2133675 -0.5561845
  0.3663607  0.3516857 -0.3024909 -0.0110118  0.3684550  0.2394797 -0.5529824
  0.3837065  0.3673678 -0.3329122 -0.0407051  0.3521370  0.1944349 -0.5680523
  0.3663552  0.3672989 -0.3262388 -0.0181430  0.3613178  0.2205957 -0.5649775
  0.2763572  0.2925132 -0.2686476 -0.0037828  0.4499651  0.3328337 -0.6052641
  0.2763465  0.3077499 -0.3292246 -0.0219528  0.4517145  0.3015381 -0.6527155
  0.2936764  0.2943065 -0.2600954  0.0038228  0.4264741  0.3182866 -0.5745591
  0.2936651  0.3100729 -0.3186375 -0.0137367  0.4281645  0.2883082 -0.6206824
  0.2636776  0.2913975 -0.2585290 -0.0081290  0.4261299  0.3108126 -0.5774706
  0.2463553  0.2901427 -0.2689083 -0.0258395  0.4534356  0.3220667 -0.6168145
  0.2636670  0.3064601 -0.3255932 -0.0282392  0.4310122  0.2790184 -0.6328508
  0.2463445  0.3052593 -0.3357332 -0.0458778  0.4583001  0.2898639 -0.6714749
  0.2636990  0.2800658 -0.2200150 -0.0275636  0.4339023  0.3206548 -0.5682334
  0.2637470  0.2641698 -0.1479251 -0.0059858  0.4277346  0.3566268 -0.5105376
  0.2463610  0.2787526 -0.2317638 -0.0487268  0.4618346  0.3305697 -0.6110604
  0.2463659  0.2627507 -0.1601059 -0.0272345  0.4556371  0.3667848 -0.5541253
  0.2763787  0.2811815 -0.2371158 -0.0228652  0.4606745  0.3429755 -0.6029565
  0.2936821  0.2829164 -0.2277508 -0.0120450  0.4368931  0.3301108 -0.5699066
  0.2764265  0.2654596 -0.1774928 -0.0050000  0.4579990  0.3748024 -0.5572952
  0.2936866  0.2675643 -0.1666474  0.0062838  0.4340925  0.3624384 -0.5228020
  0.2636671  0.3340095 -0.4302397 -0.0276452  0.4133778  0.2308421 -0.6887269
  0.2636642  0.3178780 -0.3605081 -0.0067240  0.4096825  0.2626244 -0.6298565
  0.2463489  0.3327976 -0.4388889 -0.0405602  0.4398987  0.2431598 -0.7226089
  0.2463428  0.3166886 -0.3690575 -0.0196071  0.4361932  0.2755543 -0.6642188
  0.2763460  0.3351076 -0.4109351 -0.0175911  0.4291489  0.2578054 -0.6863316
  0.2936674  0.3368961 -0.4038123 -0.0140231  0.4065472  0.2419310 -0.6597663
  0.2763435  0.3191631 -0.3536174 -0.0003955  0.4286564  0.2866073 -0.6406202
  0.2936627  0.3214847 -0.3445094  0.0037682  0.4060346  0.2714307 -0.6121719
  0.2763498  0.3465933 -0.4332303  0.0060234  0.3919115  0.2356521 -0.6628590
  0.2763579  0.3620284 -0.4900078 -0.0110087  0.3909172  0.2079416 -0.7089581
  0.2936684  0.3483278 -0.4279509  0.0047508  0.3702818  0.2172546 -0.6404547
  0.2936666  0.3641486 -0.4833366 -0.0118654  0.3692996  0.1905240 -0.6857260
  0.2636709  0.3454955 -0.4604055 -0.0031671  0.3784534  0.2103604 -0.6739330
  0.2463499  0.3442305 -0.4676344 -0.0113551  0.4037547  0.2242568 -0.7032464
  0.2636785  0.3607443 -0.5230775 -0.0219714  0.3804845  0.1830470 -0.7280959
  0.2463466  0.3593566 -0.5308067 -0.0303058  0.4057862  0.1961908 -0.7573033
  0.2163505  0.3325167 -0.4631026 -0.0787712  0.4510801  0.2193701 -0.7612439
  0.2336705  0.3323976 -0.4570620 -0.0568927  0.4218605  0.2099275 -0.7238822
  0.2163449  0.3168656 -0.3859285 -0.0556125  0.4439497  0.2529051 -0.6944460
  0.2336636  0.3164174 -0.3814774 -0.0342096  0.4148750  0.2419009 -0.6575878
  0.2163617  0.3438701 -0.5015253 -0.0430258  0.4168370  0.2034434 -0.7479945
  0.2163869  0.3592373 -0.5720732 -0.0642103  0.4216000  0.1740246 -0.8103081
  0.2336735  0.3437950 -0.4972569 -0.0277389  0.3887003  0.1915942 -0.7165901
  0.2336748  0.3589528 -0.5687749 -0.0491955  0.3934906  0.1625289 -0.7804993
  0.2036825  0.3440405 -0.5287412 -0.0667656  0.4009685  0.1649897 -0.7604964
  0.1863541  0.3444308 -0.5362202 -0.0981629  0.4338523  0.1688139 -0.8031971
  0.2037074  0.3595186 -0.6137095 -0.0922981  0.4110775  0.1337736 -0.8397811
  0.1863546  0.3600027 -0.6206697 -0.1234986  0.4438546  0.1366414 -0.8808097
  0.2036713  0.3326874 -0.4804101 -0.1041634  0.4322045  0.1790848 -0.7636582
  0.2036655  0.3171480 -0.3931245 -0.0779663  0.4202503  0.2132769 -0.6843677
  0.1863510  0.3330346 -0.4898570 -0.1415596  0.4659392  0.1817121 -0.8131287
  0.1863434  0.3174714 -0.4027043 -0.1153987  0.4539998  0.2171332 -0.7352363
  0.2036637  0.2899974 -0.2564468 -0.0820655  0.4236256  0.2632492 -0.6017614
  0.1863404  0.2903582 -0.2663444 -0.1211022  0.4568258  0.2688387 -0.6562853
  0.2036635  0.3057093 -0.3430442 -0.1080439  0.4361794  0.2261846 -0.6772727
  0.1863405  0.3060363 -0.3531288 -0.1471375  0.4694074  0.2304409 -0.7307072
  0.2036655  0.2783841 -0.2051940 -0.1036291  0.4264296  0.2750312 -0.5838543
  0.2036702  0.2623678 -0.1205771 -0.0782538  0.4140104  0.3151355 -0.5139663
  0.1863409  0.2788926 -0.2142407 -0.1421285  0.4588246  0.2820545 -0.6384238
  0.1863423  0.2632460 -0.1276235 -0.1161468  0.4461062  0.3242580 -0.5680283
  0.2163482  0.2782136 -0.2220772 -0.0867393  0.4616988  0.3122231 -0.6210396
  0.2336734  0.2782563 -0.2135220 -0.0588745  0.4311407  0.3018214 -0.5742179
  0.2163505  0.2620854 -0.1411434 -0.0624627  0.4526765  0.3525797 -0.5561858
  0.2336661  0.2621922 -0.1322601 -0.0344854  0.4220653  0.3415144 -0.5082598
  0.2163464  0.2898269 -0.2670364 -0.0635881  0.4556197  0.3015251 -0.6321496
  0.2163438  0.3054269 -0.3421353 -0.0861140  0.4637101  0.2669301 -0.6951795
  0.2336729  0.2897219 -0.2596775 -0.0374916  0.4258423  0.2915101 -0.5886792
  0.2336643  0.3049824 -0.3364450 -0.0605095  0.4341020  0.2570221 -0.6539766
  0.1563187  0.2910434 -0.2583983 -0.2029888  0.4523748  0.2225288 -0.6839159
  0.1563166  0.3066861 -0.3518977 -0.2310319  0.4704408  0.1828417 -0.7657713
  0.1736543  0.2906385 -0.2436671 -0.1465506  0.4166102  0.2243217 -0.6145394
  0.1736540  0.3062980 -0.3370669 -0.1745691  0.4346603  0.1863708 -0.6980069
  0.1436140  0.2912827 -0.2182256 -0.2344720  0.3993088  0.1730426 -0.6257402
  0.1262399  0.2915313 -0.2386994 -0.3073419  0.4362265  0.1645539 -0.7105952
  0.1436304  0.3069195 -0.3144236 -0.2633938  0.4225141  0.1343751 -0.7121925
  0.1263083  0.3071694 -0.3349467 -0.3364789  0.4595397  0.1238275 -0.7952532
  0.1436153  0.2799110 -0.1585067 -0.2418315  0.3918032  0.1938430 -0.5941812
  0.1436352  0.2644799 -0.0689744 -0.2150388  0.3719396  0.2370353 -0.5210485
  0.1262403  0.2801304 -0.1763026 -0.3049836  0.4265378  0.1907201 -0.6720063
  0.1263096  0.2646208 -0.0872717 -0.2785050  0.4068727  0.2350686 -0.6008452
  0.1563200  0.2796718 -0.2009994 -0.2159139  0.4491393  0.2407446 -0.6576579
  0.1736547  0.2792377 -0.1879615 -0.1649148  0.4148539  0.2385758 -0.5914521
  0.1563214  0.2642464 -0.1123144 -0.1893127  0.4329604  0.2838551 -0.5854822
  0.1736553  0.2637494 -0.0996361 -0.1384192  0.3987390  0.2801826 -0.5182379
  0.1436314  0.3339077 -0.4809583 -0.2733360  0.4483143  0.0830294 -0.8373237
  0.1436350  0.3183409 -0.3759572 -0.2418525  0.4214948  0.1178901 -0.7356998
  0.1262713  0.3342002 -0.5045280 -0.3578599  0.4886207  0.0628992 -0.9252871
  0.1263167  0.3186025 -0.3997871 -0.3266409  0.4619503  0.1001818 -0.8266098
  0.1563308  0.3336656 -0.5072041 -0.2331107  0.4812613  0.1302367 -0.8705515
  0.1736662  0.3332967 -0.4917239 -0.1744373  0.4433545  0.1378026 -0.8039637
  0.1563198  0.3181066 -0.4088035 -0.2035567  0.4625774  0.1676441 -0.7800044
  0.1736572  0.3177282 -0.3933846 -0.1449077  0.4246862  0.1733395 -0.7116318
  0.1563426  0.3451136 -0.5624265 -0.1855149  0.4568855  0.1202559 -0.8681973
  0.1563637  0.3608311 -0.6666020 -0.2168284  0.4744135  0.0833012 -0.9667316
  0.1736693  0.3447183 -0.5484734 -0.1310281  0.4169792  0.1265505 -0.8060519
  0.1736689  0.3603544 -0.6531779 -0.1624379  0.4345495  0.0912309 -0.9068467
  0.1436431  0.3453556 -0.5444118 -0.2291392  0.4339267  0.0748971 -0.8484481
  0.1262745  0.3456215 -0.5705325 -0.3224535  0.4805018  0.0497607 -0.9427467
  0.1436789  0.3610650 -0.6654579 -0.2656273  0.4635935  0.0393189 -0.9704040
  0.1263285  0.3612273 -0.6924085 -0.3592836  0.5104151  0.0110587 -1.0627507
  0.2773035  0.2381947 -0.0773167 -0.0006720  0.4533322  0.4159547 -0.4939435
  0.2766743  0.2539414 -0.1396598 -0.0191392  0.4547281  0.3793041 -0.5381031
  0.2948309  0.2402089 -0.0674015  0.0087182  0.4292920  0.4016342 -0.4603175
  0.2939944  0.2561209 -0.1288864 -0.0094212  0.4303973  0.3653688 -0.5036764
  0.2642702  0.2370246 -0.0322478 -0.0019895  0.4165843  0.3997402 -0.4339776
  0.2461901  0.2358419 -0.0442747 -0.0257739  0.4458510  0.4109227 -0.4809712
  0.2639000  0.2526370 -0.1039669 -0.0230867  0.4227738  0.3611767 -0.4882303
  0.2463201  0.2512528 -0.1174588 -0.0478804  0.4529733  0.3716377 -0.5369769
  0.2649889  0.2253756  0.0165846 -0.0209292  0.3996170  0.3978846 -0.4022292
  0.2665821  0.2091623  0.0948299  0.0014592  0.3980741  0.4489468 -0.3526578
  0.2462473  0.2235336  0.0038593 -0.0371090  0.4308857  0.4147475 -0.4479973
  0.2465336  0.2053175  0.0754479 -0.0157908  0.4274096  0.4596659 -0.4000087
  0.2782287  0.2267943 -0.0354233 -0.0092503  0.4348979  0.4127579 -0.4574315
  0.2956589  0.2288282 -0.0268164 -0.0033328  0.4122307  0.3973233 -0.4274724
  0.2801272  0.2113943  0.0217437  0.0075337  0.4362278  0.4509244 -0.4216470
  0.2970846  0.2136475  0.0316264  0.0139150  0.4129880  0.4358536 -0.3903122
  0.4581049  0.0303142  0.6618418  0.0078463  0.0229147  0.6626437  0.0070443
  0.4425117  0.0302560  0.6726246  0.0458433  0.0861186  0.6842418  0.0342261
  0.4558386  0.0450165  0.4992895 -0.0456925  0.0023194  0.4992993 -0.0457024
  0.4395978  0.0447481  0.5073860 -0.0100384  0.0625652  0.5148437 -0.0174961
  0.4596653  0.0196639  0.7714403 -0.0482840 -0.0623548  0.7761564 -0.0530001
  0.4616621  0.0052689  0.9990287  0.0244993 -0.0388790  1.0005773  0.0229507
  0.4446057  0.0196786  0.7822532 -0.0128953  0.0159444  0.7825727 -0.0132149
  0.4474129  0.0052729  1.0102877  0.0618420  0.0438448  1.0123103  0.0598195
  0.4705021  0.0193597  0.7396091 -0.0314283  0.0338617  0.7410934 -0.0329125
  0.4850492  0.0185433  0.7092809 -0.0774014 -0.0803042  0.7173946 -0.0855151
  0.4720430  0.0051874  1.0515615  0.0660022  0.0592899  1.0551155  0.0624482
  0.4861549  0.0049687  1.0339973  0.0230147 -0.0568986  1.0371895  0.0198225
  0.4694590  0.0300519  0.5871354  0.0215207  0.1302067  0.6156699 -0.0070138
  0.4681500  0.0450915  0.3628416 -0.0480643  0.1132455  0.3919850 -0.0772077
  0.4848857  0.0292772  0.5651870 -0.0141377  0.0434511  0.5684279 -0.0173785
  0.4855448  0.0450282  0.3535691 -0.0765759  0.0369295  0.3567166 -0.0797234
  0.5172180  0.4479811 -0.0613970 -0.0371818  0.0744404  0.0261292 -0.1247080
  0.5338956  0.4440821 -0.0632645 -0.0506333  0.0768480  0.0201582 -0.1340560
  0.5168610  0.4347866 -0.0681342 -0.0394309  0.0777447  0.0252758 -0.1328408
  0.5337999  0.4329993 -0.0712742 -0.0531232  0.0807551  0.0190648 -0.1434622
  0.5180934  0.4569697 -0.0697964 -0.0235697  0.0453820  0.0042458 -0.0976119
  0.5201281  0.4683323 -0.0497869 -0.0160567  0.0409153  0.0113331 -0.0771766
  0.5341301  0.4520156 -0.0650975 -0.0343659  0.0538148  0.0062339 -0.1056972
  0.5346753  0.4626075 -0.0421165 -0.0269641  0.0496110  0.0156459 -0.0847265
  0.5057385  0.4610963 -0.1056188 -0.0314302  0.0591569  0.0013005 -0.1383494
  0.4880210  0.4674164 -0.1184752 -0.0129046  0.0423727  0.0019986 -0.1333784
  0.5078793  0.4749631 -0.0492979 -0.0111710  0.0477952  0.0212223 -0.0816912
  0.4889624  0.4873538 -0.0756562  0.0007337  0.0352114  0.0144877 -0.0894102
  0.5047825  0.4505875 -0.1103613 -0.0435517  0.1036959  0.0319871 -0.1859001
  0.5043114  0.4357435 -0.1205037 -0.0470964  0.1098922  0.0320596 -0.1996597
  0.4874855  0.4538091 -0.1069959 -0.0266848  0.1013322  0.0421582 -0.1758388
  0.4869639  0.4365706 -0.1157258 -0.0297160  0.1066652  0.0422873 -0.1877291
  0.5244592  0.4830331 -0.0310607 -0.0039398  0.0192336  0.0060330 -0.0410335
  0.5358359  0.4796189 -0.0246146 -0.0109696  0.0291636  0.0121588 -0.0477431
  0.5218338  0.4753160 -0.0520929 -0.0122330  0.0239026 -0.0010417 -0.0632843
  0.5351324  0.4700038 -0.0442151 -0.0172572  0.0318042  0.0038064 -0.0652787
  0.5236864  0.4888463 -0.0261670 -0.0146575 -0.0004723 -0.0146382 -0.0261864
  0.5189498  0.4970114 -0.0033848 -0.0059302  0.0052816  0.0007753 -0.0100903
  0.5356288  0.4867016 -0.0181511 -0.0070790  0.0121836  0.0007673 -0.0259974
  0.5343596  0.4964367 -0.0012848 -0.0016973  0.0138976  0.0124080 -0.0153901
  0.5170641  0.4876042 -0.0291590  0.0002258  0.0179820  0.0087545 -0.0376877
  0.5109140  0.4820659 -0.0515568 -0.0184374  0.0292935 -0.0013469 -0.0686473
  0.5082371  0.4966786 -0.0596812  0.0123444  0.0136140  0.0148317 -0.0621686
  0.4943793  0.4951946 -0.0683776 -0.0072006  0.0244850  0.0013921 -0.0769703
  0.0067591  0.4877745 -1.8903624 -5.3108771  0.7026188 -1.7516597 -5.4495798
  0.0018111  0.4844555 -1.8737671 -5.8269733  0.7387604 -1.7402217 -5.9605187
  0.0075846  0.4967242 -1.3462416 -5.2462952  1.0954970 -1.0595927 -5.5329441
  0.0020323  0.4958349 -1.4527824 -5.7160235  1.0398838 -1.2126600 -5.9561458
  0.0082795  0.4825405 -1.8314584 -4.5775737  0.6327585 -1.6926726 -4.7163595
  0.0132589  0.4771908 -1.6859557 -3.8824403  0.8793969 -1.3772598 -4.1911362
  0.0022185  0.4764783 -1.3190596 -3.2286503  0.1315540 -1.3100393 -3.2376706
  0.0035527  0.4660635 -1.3820131 -3.1054381  0.5532336 -1.2197062 -3.2677451
  0.0108394  0.4879802 -2.2217495 -4.6493312  1.3502195 -1.6199465 -5.2511342
  0.0117719  0.4967793 -3.4334267 -5.2958953  2.4192019 -1.7724158 -6.9569061
  0.0170388  0.4852232 -2.0155359 -3.1507061  1.3854834 -1.0858845 -4.0803575
  0.0176596  0.4960406 -2.9922305 -3.5717444  2.2628359 -1.0006753 -5.5632997
  0.0281880  0.1848592  0.4439917 -0.2774079  0.1005846  0.4577537 -0.2911698
  0.0323264  0.1981670  0.3714350 -0.3193346  0.1326924  0.3960474 -0.3439470
  0.0408963  0.1829884  0.4576386 -0.1975000  0.0778995  0.4667739 -0.2066353
  0.0486783  0.1963171  0.3844507 -0.2547950  0.1137543  0.4040900 -0.2744343
  0.0185627  0.1855855  0.4531539 -0.2563249  0.0172855  0.4535747 -0.2567458
  0.0049738  0.1856991  0.4461269 -0.2817073  0.0442573  0.4488082 -0.2843886
  0.0207747  0.1986676  0.3882672 -0.2790406  0.0284545  0.3894783 -0.2802518
  0.0055666  0.1981857  0.3791444 -0.3027550  0.0530878  0.3832526 -0.3068633
  0.0169180  0.1764022  0.5050768 -0.2266164  0.0230489  0.5058021 -0.2273418
  0.0146368  0.1643949  0.5700518 -0.2035799  0.0116310  0.5702266 -0.2037547
  0.0045332  0.1766636  0.5008574 -0.2442711  0.0425352  0.5032776 -0.2466913
  0.0039219  0.1644650  0.5642101 -0.2243418  0.0343397  0.5657027 -0.2258344
  0.0255163  0.1757642  0.5050121 -0.2601307  0.0971044  0.5171433 -0.2722619
  0.0366222  0.1742827  0.5139704 -0.2100769  0.0820682  0.5231561 -0.2192625
  0.0223552  0.1642240  0.5617488 -0.2295237  0.0730173  0.5684303 -0.2362052
  0.0327274  0.1638270  0.5773281 -0.1710073  0.0539554  0.5811983 -0.1748775
  0.0548792  0.1756495  0.4814521 -0.1752957  0.1350171  0.5081261 -0.2019697
  0.0480481  0.1805207  0.4627533 -0.2469475  0.1184122  0.4819888 -0.2661830
  0.0632676  0.1809893  0.4522436 -0.2627413  0.1560791  0.4848301 -0.2953278
  0.0569689  0.1917144  0.4462345 -0.2920400  0.1386998  0.4714321 -0.3172375
  0.0511734  0.1708009  0.5117808 -0.2079317  0.1100757  0.5282398 -0.2243907
  0.0494373  0.1628941  0.5693735 -0.1827281  0.0919669  0.5804559 -0.1938105
  0.0434971  0.1729528  0.5149954 -0.2400052  0.1241254  0.5348786 -0.2598883
  0.0399840  0.1634707  0.5621909 -0.2152189  0.1074268  0.5767626 -0.2297906
  0.0571299  0.1709362  0.4947390 -0.2144379  0.1534838  0.5265315 -0.2462305
  0.0657270  0.1734577  0.5137052 -0.1989673  0.1335957  0.5379255 -0.2231876
  0.0564478  0.1629303  0.5505465 -0.1968338  0.1479366  0.5787637 -0.2250511
  0.0661478  0.1636060  0.5566571 -0.1864170  0.1312212  0.5791490 -0.2089088
  0.2369224  0.0278483  1.1376501 -0.0238535  0.0728013  1.1421954 -0.0283988
  0.2506870  0.0227441  1.1057834 -0.0049902  0.0379329  1.1070773 -0.0062841
  0.2338189  0.0180075  1.2477459  0.0178188  0.0504213  1.2498095  0.0157552
  0.2467873  0.0089199  1.1863536  0.0248544  0.0224265  1.1867865  0.0244216
  0.2387309  0.0352522  1.0900822  0.0115454  0.1104441  1.1012757  0.0003519
  0.2405681  0.0456390  0.9933803 -0.0205497  0.1230761  1.0081061 -0.0352755
  0.2530973  0.0320940  1.0707922  0.0277735  0.0700373  1.0754741  0.0230916
  0.2557826  0.0438140  0.9862826 -0.0010605  0.0825666  0.9931396 -0.0079176
  0.2285121  0.0377627  1.0836423  0.0179419  0.0850330  1.0903845  0.0111997
  0.2149603  0.0414632  1.1105159  0.0103408  0.1244522  1.1244184 -0.0035617
  0.2297163  0.0471964  1.0176111 -0.0029860  0.0913378  1.0257208 -0.0110958
  0.2152830  0.0496263  1.0315442 -0.0137662  0.1295904  1.0473703 -0.0295924
  0.2272595  0.0312943  1.1059467 -0.0101241  0.0629997  1.1094917 -0.0136691
  0.2250417  0.0230562  1.1685226  0.0102429  0.0548750  1.1711166  0.0076489
  0.2146247  0.0356046  1.1352706 -0.0103667  0.0949564  1.1430878 -0.0181838
  0.2140304  0.0277619  1.2103755  0.0127062  0.0902186  1.2171334  0.0059483
  0.2262174  0.0090845  1.2896255  0.0015593  0.0165548  1.2898383  0.0013466
  0.2309505  0.0129797  1.2749053 -0.0182485  0.0255291  1.2754091 -0.0187523
  0.2320805  0.0024342  1.2770728  0.0212986  0.0205445  1.2774088  0.0209626
  0.2418017  0.0034779  1.2686742 -0.0016341  0.0268280  1.2692405 -0.0022004
  0.2210977  0.0124976  1.2581182  0.0084404  0.0233089  1.2585528  0.0080058
  0.2129736  0.0151721  1.2907508  0.0130309  0.0591676  1.2934849  0.0102969
  0.2233906  0.0180196  1.1917098 -0.0128465  0.0341587  1.1926777 -0.0138144
  0.2135880  0.0222870  1.2262716 -0.0065894  0.0623474  1.2294166 -0.0097344
  0.2214239  0.0082625  1.2892072 -0.0298294 -0.0031410  1.2892147 -0.0298369
  0.2246080  0.0022139  1.3448616 -0.0079969  0.0105542  1.3449439 -0.0080793
  0.2130610  0.0099119  1.3096626 -0.0092918  0.0258265  1.3101681 -0.0097973
  0.2139142  0.0026559  1.3505144  0.0038260  0.0303175  1.3511966  0.0031439
  0.0002885  0.0003503  1.7539249 -0.0003826 -0.0004388  1.7539250 -0.0003827
  0.0003046  0.0000939  1.7562779  0.0003303 -0.0003441  1.7562780  0.0003302
  0.0000773  0.0003103  1.7535253 -0.0003922  0.0003601  1.7535254 -0.0003923
  0.0000816  0.0000832  1.7562068  0.0004146  0.0004272  1.7562069  0.0004145
  0.0004492  0.0003768  1.7528236 -0.0004933  0.0003498  1.7528237 -0.0004933
  0.0006768  0.0004093  1.7531466 -0.0004632 -0.0004933  1.7531468 -0.0004633
  0.0004694  0.0001010  1.7560348  0.0004766  0.0004664  1.7560349  0.0004764
  0.0006968  0.0001097  1.7561065  0.0004302 -0.0003929  1.7561066  0.0004301
  0.0004243  0.0005747  1.7508271  0.0004011  0.0005043  1.7508272  0.0004010
  0.0003767  0.0008395  1.7478704 -0.0005462  0.0001903  1.7478705 -0.0005463
  0.0006493  0.0006430  1.7513607  0.0003317 -0.0001713  1.7513607  0.0003316
  0.0005942  0.0009820  1.7490174 -0.0004146 -0.0004064  1.7490175 -0.0004147
  0.0002697  0.0005295  1.7524940  0.0003711 -0.0001975  1.7524940  0.0003711
  0.0000723  0.0004744  1.7520829  0.0003348  0.0003445  1.7520830  0.0003348
  0.0002343  0.0007627  1.7505507 -0.0002281 -0.0003415  1.7505508 -0.0002282
  0.0000628  0.0006953  1.7498860 -0.0003294  0.0002649  1.7498861 -0.0003295
  0.0010949  0.0004520  1.7527921 -0.0004710 -0.0004971  1.7527923 -0.0004711
  0.0011020  0.0001211  1.7559523  0.0004795 -0.0004292  1.7559524  0.0004794
  0.0008499  0.0004294  1.7526032 -0.0004417  0.0003254  1.7526032 -0.0004418
  0.0008663  0.0001151  1.7559187  0.0005592  0.0004324  1.7559188  0.0005591
  0.0012795  0.0004618  1.7522889 -0.0005904  0.0004888  1.7522890 -0.0005906
  0.0015388  0.0004662  1.7523483 -0.0005317 -0.0004614  1.7523484 -0.0005318
  0.0012823  0.0001238  1.7558945  0.0004908  0.0004782  1.7558946  0.0004906
  0.0015392  0.0001249  1.7559206  0.0005400 -0.0004808  1.7559208  0.0005398
  0.0012781  0.0007122  1.7502202  0.0005411  0.0005185  1.7502203  0.0005409
  0.0012770  0.0010582  1.7465964 -0.0005460  0.0005145  1.7465965 -0.0005462
  0.0015391  0.0007174  1.7502746  0.0005572 -0.0004491  1.7502747  0.0005570
  0.0015401  0.0010622  1.7466382 -0.0005337 -0.0004455  1.7466383 -0.0005338
  0.0010873  0.0007014  1.7505432  0.0006191 -0.0004199  1.7505433  0.0006190
  0.0008270  0.0006769  1.7502551  0.0005439  0.0006668  1.7502554  0.0005436
  0.0010736  0.0010519  1.7466627 -0.0005455 -0.0004782  1.7466629 -0.0005457
  0.0007809  0.0010389  1.7465419 -0.0005718  0.0004963  1.7465421 -0.0005719
  0.0019894  0.0004695  1.7522685 -0.0005318 -0.0004606  1.7522686 -0.0005320
  0.0019879  0.0001258  1.7558799  0.0005516 -0.0004717  1.7558800  0.0005515
  0.0017290  0.0004683  1.7522520 -0.0005481  0.0004968  1.7522521 -0.0005483
  0.0017283  0.0001255  1.7558727  0.0005381  0.0004882  1.7558729  0.0005380
  0.0021796  0.0004701  1.7522197 -0.0005569  0.0005023  1.7522199 -0.0005571
  0.0024389  0.0004705  1.7522306 -0.0005350 -0.0004533  1.7522307 -0.0005351
  0.0021778  0.0001260  1.7558481  0.0005317  0.0004863  1.7558482  0.0005315
  0.0024370  0.0001261  1.7558555  0.0005526 -0.0004696  1.7558556  0.0005525
  0.0021814  0.0007222  1.7501253  0.0005181  0.0005098  1.7501254  0.0005180
  0.0021848  0.0010670  1.7465068 -0.0005678  0.0005379  1.7465070 -0.0005680
  0.0024410  0.0007229  1.7501419  0.0005542 -0.0004456  1.7501421  0.0005541
  0.0024449  0.0010677  1.7465246 -0.0005314 -0.0004153  1.7465247 -0.0005315
  0.0019909  0.0007214  1.7501853  0.0005521 -0.0004547  1.7501854  0.0005520
  0.0017301  0.0007198  1.7501577  0.0005113  0.0005072  1.7501578  0.0005112
  0.0019938  0.0010661  1.7465674 -0.0005336 -0.0004278  1.7465675 -0.0005337
  0.0017321  0.0010643  1.7465383 -0.0005747  0.0005312  1.7465384 -0.0005749
  0.0010900  0.0016657  1.7408252 -0.0006085 -0.0004027  1.7408252 -0.0006086
  0.0010743  0.0013103  1.7447550  0.0005733 -0.0004883  1.7447551  0.0005731
  0.0008266  0.0016791  1.7409653 -0.0006174  0.0006750  1.7409656 -0.0006176
  0.0007808  0.0013074  1.7447122  0.0005143  0.0004898  1.7447123  0.0005141
  0.0012832  0.0016611  1.7408563 -0.0006160  0.0005637  1.7408565 -0.0006162
  0.0015477  0.0016620  1.7408874 -0.0005420 -0.0004058  1.7408875 -0.0005421
  0.0012784  0.0013124  1.7444947  0.0004766  0.0005134  1.7444948  0.0004765
  0.0015424  0.0013153  1.7445464  0.0005570 -0.0004581  1.7445465  0.0005569
  0.0012886  0.0019150  1.7387999  0.0005053  0.0005135  1.7388000  0.0005052
  0.0012984  0.0022602  1.7351988 -0.0005758  0.0005603  1.7351989 -0.0005760
  0.0015523  0.0019156  1.7388130  0.0005308 -0.0004379  1.7388131  0.0005307
  0.0015597  0.0022618  1.7352225 -0.0005469 -0.0004001  1.7352226 -0.0005470
  0.0010999  0.0019202  1.7385060  0.0005023 -0.0004958  1.7385061  0.0005021
  0.0008481  0.0019350  1.7386150  0.0004155  0.0003863  1.7386151  0.0004154
  0.0011112  0.0022604  1.7351869 -0.0004986 -0.0003969  1.7351870 -0.0004987
  0.0008610  0.0022627  1.7351699 -0.0006245  0.0004964  1.7351700 -0.0006246
  0.0020036  0.0016643  1.7408688 -0.0005328 -0.0003965  1.7408689 -0.0005329
  0.0019972  0.0013187  1.7444851  0.0005531 -0.0004420  1.7444852  0.0005530
  0.0017407  0.0016629  1.7408397 -0.0005852  0.0005628  1.7408399 -0.0005853
  0.0017350  0.0013170  1.7444528  0.0004997  0.0005199  1.7444529  0.0004995
  0.0021955  0.0016650  1.7408010 -0.0005991  0.0005823  1.7408012 -0.0005993
  0.0024569  0.0016657  1.7408276 -0.0005314 -0.0003719  1.7408277 -0.0005315
  0.0021885  0.0013196  1.7444136  0.0004862  0.0005265  1.7444138  0.0004860
  0.0024492  0.0013203  1.7444411  0.0005544 -0.0004307  1.7444413  0.0005543
  0.0022012  0.0019182  1.7387111  0.0004594  0.0005537  1.7387112  0.0004593
  0.0022100  0.0022645  1.7351002 -0.0006262  0.0006223  1.7351005 -0.0006264
  0.0024634  0.0019188  1.7387405  0.0005406 -0.0004082  1.7387406  0.0005405
  0.0024734  0.0022648  1.7351270 -0.0005461 -0.0003352  1.7351271 -0.0005462
  0.0020088  0.0019176  1.7387788  0.0005352 -0.0004264  1.7387790  0.0005351
  0.0017453  0.0019163  1.7387442  0.0004596  0.0005402  1.7387443  0.0004595
  0.0020168  0.0022639  1.7351621 -0.0005518 -0.0003645  1.7351622 -0.0005519
  0.0017522  0.0022628  1.7351286 -0.0006267  0.0005982  1.7351288 -0.0006269
  0.0029116  0.0016653  1.7407955 -0.0005265 -0.0003530  1.7407956 -0.0005265
  0.0029021  0.0013204  1.7444069  0.0005594 -0.0004229  1.7444070  0.0005593
  0.0026488  0.0016658  1.7407774 -0.0006008  0.0006048  1.7407776 -0.0006010
  0.0026404  0.0013205  1.7443859  0.0004839  0.0005390  1.7443860  0.0004837
  0.0031034  0.0016648  1.7407642 -0.0006072  0.0006229  1.7407644 -0.0006074
  0.0033645  0.0016637  1.7407791 -0.0005242 -0.0003306  1.7407792 -0.0005243
  0.0030932  0.0013200  1.7443683  0.0004771  0.0005459  1.7443685  0.0004769
  0.0033537  0.0013192  1.7443860  0.0005610 -0.0004100  1.7443861  0.0005609
  0.0031116  0.0019174  1.7386783  0.0004472  0.0005808  1.7386785  0.0004470
  0.0031240  0.0022627  1.7350812 -0.0006364  0.0006741  1.7350815 -0.0006366
  0.0033734  0.0019160  1.7386960  0.0005480 -0.0003784  1.7386961  0.0005480
  0.0033869  0.0022609  1.7350942 -0.0005374 -0.0002809  1.7350942 -0.0005374
  0.0029193  0.0019181  1.7387127  0.0005427 -0.0003959  1.7387128  0.0005426
  0.0026558  0.0019187  1.7386915  0.0004516  0.0005693  1.7386917  0.0004514
  0.0029310  0.0022636  1.7351039 -0.0005436 -0.0003108  1.7351040 -0.0005437
  0.0026666  0.0022645  1.7350854 -0.0006336  0.0006511  1.7350856 -0.0006339
  0.0030831  0.0007229  1.7500722  0.0005137  0.0005228  1.7500723  0.0005136
  0.0030878  0.0010677  1.7464578 -0.0005713  0.0005609  1.7464580 -0.0005715
  0.0033424  0.0007225  1.7500818  0.0005574 -0.0004320  1.7500819  0.0005573
  0.0033478  0.0010671  1.7464649 -0.0005284 -0.0003914  1.7464650 -0.0005285
  0.0028926  0.0007230  1.7501118  0.0005535 -0.0004410  1.7501119  0.0005534
  0.0026315  0.0007231  1.7501001  0.0005140  0.0005183  1.7501003  0.0005138
  0.0028970  0.0010679  1.7464930 -0.0005327 -0.0004065  1.7464931 -0.0005328
  0.0026358  0.0010679  1.7464817 -0.0005721  0.0005521  1.7464819 -0.0005723
  0.0028902  0.0004707  1.7521985 -0.0005349 -0.0004526  1.7521986 -0.0005350
  0.0028882  0.0001261  1.7558242  0.0005530 -0.0004699  1.7558243  0.0005528
  0.0026293  0.0004707  1.7521922 -0.0005560  0.0005078  1.7521924 -0.0005561
  0.0026274  0.0001261  1.7558179  0.0005318  0.0004910  1.7558180  0.0005317
  0.0030805  0.0004706  1.7521650 -0.0005558  0.0005089  1.7521652 -0.0005559
  0.0033395  0.0004704  1.7521701 -0.0005317 -0.0004443  1.7521702 -0.0005318
  0.0030783  0.0001261  1.7557911  0.0005322  0.0004892  1.7557912  0.0005320
  0.0033370  0.0001260  1.7557979  0.0005568 -0.0004653  1.7557980  0.0005567
  0.0037918  0.0004694  1.7521403 -0.0005281 -0.0004431  1.7521404 -0.0005282
  0.0037885  0.0001258  1.7557602  0.0005582 -0.0004695  1.7557603  0.0005581
  0.0035301  0.0004701  1.7521378 -0.0005567  0.0005186  1.7521380 -0.0005568
  0.0035273  0.0001260  1.7557528  0.0005281  0.0004940  1.7557529  0.0005280
  0.0039827  0.0004689  1.7521130 -0.0005594  0.0005208  1.7521132 -0.0005596
  0.0042426  0.0004682  1.7521151 -0.0005284 -0.0004365  1.7521152 -0.0005285
  0.0039793  0.0001256  1.7557192  0.0005228  0.0004926  1.7557193  0.0005227
  0.0042392  0.0001254  1.7557271  0.0005555 -0.0004643  1.7557272  0.0005554
  0.0039863  0.0007203  1.7500315  0.0005060  0.0005355  1.7500316  0.0005058
  0.0039926  0.0010636  1.7464375 -0.0005734  0.0005839  1.7464377 -0.0005736
  0.0042462  0.0007190  1.7500353  0.0005570 -0.0004196  1.7500354  0.0005569
  0.0042529  0.0010617  1.7464342 -0.0005245 -0.0003698  1.7464343 -0.0005246
  0.0037953  0.0007211  1.7500581  0.0005570 -0.0004304  1.7500582  0.0005569
  0.0035333  0.0007220  1.7500534  0.0005097  0.0005328  1.7500535  0.0005095
  0.0038014  0.0010648  1.7464463 -0.0005275 -0.0003849  1.7464464 -0.0005276
  0.0035390  0.0010663  1.7464465 -0.0005733  0.0005770  1.7464467 -0.0005735
  0.0038200  0.0016598  1.7407686 -0.0005206 -0.0003161  1.7407687 -0.0005207
  0.0038080  0.0013164  1.7443680  0.0005631 -0.0004035  1.7443681  0.0005630
  0.0035565  0.0016624  1.7407672 -0.0006068  0.0006449  1.7407675 -0.0006070
  0.0035453  0.0013183  1.7443594  0.0004745  0.0005606  1.7443596  0.0004743
  0.0040121  0.0016577  1.7407791 -0.0006086  0.0006597  1.7407793 -0.0006089
  0.0042734  0.0016546  1.7407777 -0.0005153 -0.0002933  1.7407778 -0.0005153
  0.0039995  0.0013148  1.7443581  0.0004696  0.0005664  1.7443583  0.0004694
  0.0042602  0.0013124  1.7443640  0.0005654 -0.0003893  1.7443641  0.0005653
  0.0040225  0.0019089  1.7387063  0.0004387  0.0006102  1.7387065  0.0004385
  0.0040381  0.0022523  1.7351375 -0.0006387  0.0007242  1.7351378 -0.0006390
  0.0042844  0.0019052  1.7387052  0.0005527 -0.0003483  1.7387052  0.0005526
  0.0043011  0.0022476  1.7351265 -0.0005282 -0.0002297  1.7351265 -0.0005282
  0.0038299  0.0019114  1.7386915  0.0005478 -0.0003666  1.7386915  0.0005477
  0.0035659  0.0019144  1.7386888  0.0004425  0.0005991  1.7386890  0.0004423
  0.0038449  0.0022553  1.7350994 -0.0005357 -0.0002598  1.7350994 -0.0005357
  0.0035800  0.0022589  1.7351025 -0.0006389  0.0007029  1.7351028 -0.0006392
  0.0047300  0.0016462  1.7407949 -0.0005101 -0.0002808  1.7407949 -0.0005102
  0.0047154  0.0013062  1.7443641  0.0005662 -0.0003846  1.7443642  0.0005661
  0.0044658  0.0016516  1.7408172 -0.0006042  0.0006815  1.7408174 -0.0006044
  0.0044520  0.0013101  1.7443721  0.0004675  0.0005814  1.7443723  0.0004673
  0.0049225  0.0016422  1.7408650 -0.0006044  0.0006938  1.7408653 -0.0006047
  0.0051842  0.0016365  1.7408407 -0.0005054 -0.0002616  1.7408407 -0.0005055
  0.0049076  0.0013031  1.7443964  0.0004610  0.0005867  1.7443966  0.0004608
  0.0051692  0.0012988  1.7443857  0.0005642 -0.0003698  1.7443858  0.0005641
  0.0049347  0.0018905  1.7388176  0.0004321  0.0006394  1.7388178  0.0004319
  0.0049532  0.0022298  1.7353061 -0.0006303  0.0007700  1.7353064 -0.0006307
  0.0051967  0.0018836  1.7387885  0.0005525 -0.0003163  1.7387885  0.0005524
  0.0052160  0.0022210  1.7352577 -0.0005163 -0.0001815  1.7352577 -0.0005163
  0.0047419  0.0018953  1.7387326  0.0005490 -0.0003368  1.7387326  0.0005490
  0.0044772  0.0019016  1.7387580  0.0004353  0.0006290  1.7387583  0.0004351
  0.0047599  0.0022357  1.7351746 -0.0005266 -0.0002110  1.7351746 -0.0005266
  0.0044945  0.0022432  1.7352123 -0.0006363  0.0007519  1.7352126 -0.0006366
  0.0048928  0.0007141  1.7500078  0.0005036  0.0005507  1.7500079  0.0005034
  0.0048996  0.0010544  1.7464504 -0.0005650  0.0006023  1.7464506 -0.0005652
  0.0051538  0.0007119  1.7500018  0.0005553 -0.0004086  1.7500019  0.0005552
  0.0051610  0.0010510  1.7464318 -0.0005171 -0.0003552  1.7464319 -0.0005172
  0.0047010  0.0007157  1.7500169  0.0005531 -0.0004182  1.7500170  0.0005530
  0.0044377  0.0007178  1.7500224  0.0005041  0.0005478  1.7500226  0.0005039
  0.0047077  0.0010568  1.7464285 -0.0005246 -0.0003683  1.7464286 -0.0005247
  0.0044445  0.0010599  1.7464441 -0.0005707  0.0005978  1.7464443 -0.0005709
  0.0046974  0.0004660  1.7520857 -0.0005275 -0.0004406  1.7520858 -0.0005276
  0.0046942  0.0001249  1.7556807  0.0005514 -0.0004671  1.7556808  0.0005512
  0.0044341  0.0004674  1.7520906 -0.0005558  0.0005281  1.7520907 -0.0005559
  0.0044308  0.0001252  1.7556749  0.0005199  0.0005012  1.7556750  0.0005197
  0.0048892  0.0004649  1.7520670 -0.0005507  0.0005265  1.7520672 -0.0005509
  0.0051498  0.0004635  1.7520623 -0.0005211 -0.0004327  1.7520624 -0.0005212
  0.0048859  0.0001246  1.7556389  0.0005212  0.0004991  1.7556390  0.0005211
  0.0051463  0.0001242  1.7556451  0.0005541 -0.0004613  1.7556452  0.0005540
  0.0056065  0.0004603  1.7520371 -0.0005170 -0.0004367  1.7520372 -0.0005171
  0.0056026  0.0001233  1.7555951  0.0005509 -0.0004682  1.7555953  0.0005508
  0.0053421  0.0004623  1.7520463 -0.0005486  0.0005355  1.7520464 -0.0005488
  0.0053383  0.0001239  1.7555893  0.0005147  0.0005050  1.7555894  0.0005146
  0.0057994  0.0004590  1.7520220 -0.0005487  0.0005349  1.7520221 -0.0005489
  0.0060618  0.0004575  1.7520166 -0.0005164 -0.0004333  1.7520167 -0.0005165
  0.0057955  0.0001230  1.7555478  0.0005095  0.0005040  1.7555480  0.0005093
  0.0060583  0.0001226  1.7555546  0.0005454 -0.0004629  1.7555547  0.0005453
  0.0058034  0.0007048  1.7499936  0.0004950  0.0005627  1.7499938  0.0004948
  0.0058105  0.0010402  1.7464897 -0.0005576  0.0006146  1.7464899 -0.0005578
  0.0060655  0.0007022  1.7499841  0.0005446 -0.0003985  1.7499842  0.0005445
  0.0060722  0.0010361  1.7464637 -0.0005128 -0.0003478  1.7464638 -0.0005129
  0.0056106  0.0007069  1.7499918  0.0005502 -0.0004101  1.7499919  0.0005501
  0.0053461  0.0007099  1.7500061  0.0005007  0.0005611  1.7500063  0.0005005
  0.0056180  0.0010434  1.7464432 -0.0005158 -0.0003567  1.7464433 -0.0005159
  0.0053535  0.0010480  1.7464742 -0.0005603  0.0006144  1.7464744 -0.0005606
  0.0056411  0.0016232  1.7408905 -0.0005027 -0.0002570  1.7408906 -0.0005028
  0.0056261  0.0012889  1.7444081  0.0005585 -0.0003636  1.7444082  0.0005584
  0.0053767  0.0016314  1.7409421 -0.0005922  0.0007084  1.7409424 -0.0005925
  0.0053617  0.0012949  1.7444366  0.0004620  0.0006027  1.7444368  0.0004618
  0.0058334  0.0016174  1.7410111 -0.0005866  0.0007112  1.7410114 -0.0005869
  0.0060942  0.0016101  1.7409677 -0.0004975 -0.0002439  1.7409677 -0.0004976
  0.0058186  0.0012847  1.7444720  0.0004574  0.0006077  1.7444722  0.0004572
  0.0060799  0.0012793  1.7444492  0.0005525 -0.0003464  1.7444493  0.0005524
  0.0058460  0.0018605  1.7390122  0.0004288  0.0006662  1.7390124  0.0004285
  0.0058656  0.0021919  1.7355959 -0.0006058  0.0008000  1.7355963 -0.0006062
  0.0061065  0.0018513  1.7389586  0.0005426 -0.0002800  1.7389587  0.0005426
  0.0061258  0.0021794  1.7355084 -0.0005022 -0.0001452  1.7355084 -0.0005022
  0.0056538  0.0018676  1.7388570  0.0005446 -0.0003023  1.7388570  0.0005445
  0.0053894  0.0018775  1.7389170  0.0004317  0.0006579  1.7389173  0.0004314
  0.0056735  0.0022010  1.7353652 -0.0005127 -0.0001663  1.7353652 -0.0005128
  0.0054091  0.0022133  1.7354496 -0.0006182  0.0007923  1.7354499 -0.0006185
  0.0065489  0.0015956  1.7410319 -0.0005026 -0.0002482  1.7410320 -0.0005026
  0.0065365  0.0012690  1.7444778  0.0005354 -0.0003372  1.7444779  0.0005354
  0.0062859  0.0016042  1.7410927 -0.0005742  0.0007181  1.7410930 -0.0005745
  0.0062723  0.0012751  1.7445115  0.0004560  0.0006258  1.7445118  0.0004557
  0.0067406  0.0015907  1.7411267 -0.0005743  0.0007173  1.7411270 -0.0005746
  0.0070010  0.0015859  1.7411001 -0.0005075 -0.0002451  1.7411002 -0.0005076
  0.0067294  0.0012655  1.7445198  0.0004468  0.0006411  1.7445200  0.0004465
  0.0069921  0.0012620  1.7445076  0.0005172 -0.0003137  1.7445076  0.0005172
  0.0067501  0.0018270  1.7391891  0.0004153  0.0007017  1.7391894  0.0004150
  0.0067650  0.0021472  1.7358738 -0.0005843  0.0007972  1.7358742 -0.0005847
  0.0070086  0.0018205  1.7391516  0.0004911 -0.0002320  1.7391516  0.0004911
  0.0070205  0.0021379  1.7358041 -0.0005172 -0.0001463  1.7358041 -0.0005172
  0.0065596  0.0018332  1.7390526  0.0005161 -0.0002629  1.7390527  0.0005160
  0.0062977  0.0018439  1.7391267  0.0004266  0.0006841  1.7391270  0.0004264
  0.0065763  0.0021557  1.7356555 -0.0005103 -0.0001476  1.7356556 -0.0005103
  0.0063163  0.0021697  1.7357649 -0.0005898  0.0008044  1.7357653 -0.0005902
  0.0067191  0.0006954  1.7499553  0.0004918  0.0005878  1.7499555  0.0004916
  0.0067236  0.0010256  1.7464969 -0.0005463  0.0006218  1.7464971 -0.0005465
  0.0069839  0.0006937  1.7499496  0.0005263 -0.0003821  1.7499497  0.0005262
  0.0069875  0.0010229  1.7464806 -0.0005149 -0.0003513  1.7464806 -0.0005150
  0.0065248  0.0006971  1.7499695  0.0005320 -0.0003963  1.7499696  0.0005319
  0.0062588  0.0007002  1.7499876  0.0004944  0.0005778  1.7499878  0.0004942
  0.0065300  0.0010283  1.7464747 -0.0005173 -0.0003563  1.7464748 -0.0005174
  0.0062650  0.0010329  1.7465088 -0.0005502  0.0006211  1.7465090 -0.0005504
  0.0065219  0.0004542  1.7519858 -0.0005172 -0.0004433  1.7519859 -0.0005173
  0.0065193  0.0001217  1.7554985  0.0005369 -0.0004670  1.7554987  0.0005368
  0.0062554  0.0004562  1.7519972 -0.0005429  0.0005398  1.7519973 -0.0005431
  0.0062523  0.0001222  1.7554945  0.0005066  0.0005143  1.7554947  0.0005065
  0.0067166  0.0004531  1.7519560 -0.0005378  0.0005387  1.7519561 -0.0005380
  0.0069817  0.0004520  1.7519538 -0.0005119 -0.0004406  1.7519539 -0.0005121
  0.0067142  0.0001214  1.7554460  0.0005094  0.0005173  1.7554461  0.0005093
  0.0069795  0.0001211  1.7554518  0.0005376 -0.0004615  1.7554519  0.0005375
  0.0074481  0.0004506  1.7519030 -0.0005118 -0.0004497  1.7519031 -0.0005120
  0.0074464  0.0001207  1.7553841  0.0005326 -0.0004678  1.7553842  0.0005325
  0.0071777  0.0004514  1.7519024 -0.0005373  0.0005484  1.7519026 -0.0005375
  0.0071757  0.0001209  1.7553779  0.0005055  0.0005291  1.7553780  0.0005053
  0.0076465  0.0004506  1.7518240 -0.0005394  0.0005537  1.7518241 -0.0005396
  0.0079182  0.0004512  1.7518377 -0.0005130 -0.0004512  1.7518378 -0.0005131
  0.0076452  0.0001207  1.7553065  0.0005054  0.0005385  1.7553066  0.0005053
  0.0079175  0.0001209  1.7553155  0.0005304 -0.0004642  1.7553156  0.0005303
  0.0076472  0.0006913  1.7498297  0.0004914  0.0006301  1.7498300  0.0004912
  0.0076478  0.0010192  1.7463844 -0.0005422  0.0006393  1.7463846 -0.0005424
  0.0079182  0.0006922  1.7498439  0.0005109 -0.0003603  1.7498440  0.0005108
  0.0079173  0.0010204  1.7464021 -0.0005216 -0.0003563  1.7464022 -0.0005217
  0.0074493  0.0006914  1.7499075  0.0005152 -0.0003767  1.7499076  0.0005152
  0.0071795  0.0006926  1.7499119  0.0004925  0.0006105  1.7499121  0.0004923
  0.0074508  0.0010194  1.7464547 -0.0005207 -0.0003596  1.7464548 -0.0005208
  0.0071823  0.0010213  1.7464662 -0.0005414  0.0006322  1.7464665 -0.0005417
  0.0074575  0.0015792  1.7411072 -0.0005208 -0.0002547  1.7411072 -0.0005208
  0.0074530  0.0012573  1.7444910  0.0004952 -0.0002940  1.7444911  0.0004951
  0.0071931  0.0015828  1.7411285 -0.0005635  0.0007240  1.7411288 -0.0005638
  0.0071860  0.0012598  1.7445008  0.0004495  0.0006752  1.7445010  0.0004492
  0.0076514  0.0015788  1.7410399 -0.0005606  0.0007303  1.7410403 -0.0005609
  0.0079169  0.0015811  1.7410737 -0.0005218 -0.0002520  1.7410737 -0.0005218
  0.0076489  0.0012570  1.7444164  0.0004526  0.0007076  1.7444167  0.0004523
  0.0079170  0.0012586  1.7444422  0.0004887 -0.0002651  1.7444423  0.0004887
  0.0076530  0.0018117  1.7391187  0.0004152  0.0007900  1.7391190  0.0004148
  0.0076546  0.0021263  1.7358265 -0.0005725  0.0008048  1.7358268 -0.0005729
  0.0079159  0.0018145  1.7391536  0.0004448 -0.0001560  1.7391536  0.0004448
  0.0079134  0.0021297  1.7358692 -0.0005403 -0.0001564  1.7358692 -0.0005403
  0.0074609  0.0018123  1.7391824  0.0004528 -0.0001986  1.7391824  0.0004528
  0.0071991  0.0018166  1.7392108  0.0004122  0.0007429  1.7392111  0.0004119
  0.0074656  0.0021270  1.7358799 -0.0005388 -0.0001580  1.7358799 -0.0005388
  0.0072082  0.0021324  1.7359212 -0.0005764  0.0007992  1.7359215 -0.0005767
  0.0083867  0.0015869  1.7409470 -0.0005329 -0.0002624  1.7409470 -0.0005329
  0.0083908  0.0012628  1.7443275  0.0004812 -0.0002482  1.7443276  0.0004812
  0.0081139  0.0015833  1.7409075 -0.0005464  0.0007448  1.7409078 -0.0005467
  0.0081158  0.0012601  1.7442996  0.0004712  0.0007508  1.7442999  0.0004709
  0.0085884  0.0015911  1.7407102 -0.0005407  0.0007569  1.7407105 -0.0005410
  0.0088664  0.0015989  1.7407857 -0.0005363 -0.0002654  1.7407858 -0.0005364
  0.0085939  0.0012657  1.7441336  0.0004867  0.0007856  1.7441340  0.0004863
  0.0088736  0.0012712  1.7441844  0.0004837 -0.0002308  1.7441844  0.0004837
  0.0085823  0.0018277  1.7387399  0.0004733  0.0008928  1.7387403  0.0004729
  0.0085713  0.0021486  1.7353751 -0.0005382  0.0008286  1.7353755 -0.0005386
  0.0088589  0.0018374  1.7388224  0.0004453 -0.0001047  1.7388224  0.0004453
  0.0088458  0.0021613  1.7354897 -0.0005569 -0.0001755  1.7354898 -0.0005569
  0.0083820  0.0018223  1.7390137  0.0004379 -0.0001272  1.7390137  0.0004379
  0.0081113  0.0018173  1.7389694  0.0004462  0.0008479  1.7389698  0.0004458
  0.0083731  0.0021412  1.7357155 -0.0005523 -0.0001693  1.7357155 -0.0005523
  0.0081059  0.0021337  1.7356431 -0.0005520  0.0008182  1.7356435 -0.0005524
  0.0086013  0.0006954  1.7496073  0.0005112  0.0006830  1.7496075  0.0005109
  0.0085974  0.0010257  1.7461284 -0.0005326  0.0006641  1.7461286 -0.0005329
  0.0088828  0.0006980  1.7496316  0.0005090 -0.0003471  1.7496317  0.0005089
  0.0088781  0.0010298  1.7461683 -0.0005301 -0.0003688  1.7461684 -0.0005302
  0.0083967  0.0006940  1.7497460  0.0005050 -0.0003555  1.7497460  0.0005050
  0.0081190  0.0006929  1.7497348  0.0005026  0.0006598  1.7497351  0.0005024
  0.0083935  0.0010235  1.7462969 -0.0005296 -0.0003675  1.7462970 -0.0005297
  0.0081171  0.0010216  1.7462767 -0.0005348  0.0006525  1.7462770 -0.0005350
  0.0083980  0.0004523  1.7517443 -0.0005176 -0.0004642  1.7517444 -0.0005177
  0.0083984  0.0001212  1.7552244  0.0005264 -0.0004700  1.7552245  0.0005263
  0.0081196  0.0004516  1.7517325 -0.0005371  0.0005637  1.7517327 -0.0005373
  0.0081193  0.0001210  1.7552174  0.0005084  0.0005556  1.7552176  0.0005082
  0.0086030  0.0004531  1.7516186 -0.0005359  0.0005713  1.7516188 -0.0005361
  0.0088849  0.0004547  1.7516401 -0.0005167 -0.0004685  1.7516402 -0.0005169
  0.0086037  0.0001214  1.7551245  0.0005159  0.0005681  1.7551247  0.0005157
  0.0088858  0.0001218  1.7551334  0.0005312 -0.0004709  1.7551335  0.0005310
  0.0093834  0.0004575  1.7515159 -0.0005214 -0.0004814  1.7515161 -0.0005215
  0.0093847  0.0001226  1.7550248  0.0005312 -0.0004813  1.7550249  0.0005311
  0.0090940  0.0004559  1.7514957 -0.0005378  0.0005843  1.7514959 -0.0005380
  0.0090951  0.0001222  1.7550169  0.0005185  0.0005836  1.7550171  0.0005183
  0.0095971  0.0004589  1.7513602 -0.0005414  0.0005957  1.7513604 -0.0005416
  0.0098916  0.0004609  1.7513849 -0.0005252 -0.0004883  1.7513850 -0.0005253
  0.0095986  0.0001230  1.7549071  0.0005226  0.0005972  1.7549073  0.0005224
  0.0098932  0.0001235  1.7549158  0.0005340 -0.0004861  1.7549160  0.0005339
  0.0095943  0.0007045  1.7493223  0.0005270  0.0007298  1.7493226  0.0005267
  0.0095881  0.0010397  1.7457964 -0.0005313  0.0006960  1.7457967 -0.0005315
  0.0098885  0.0007077  1.7493474  0.0005095 -0.0003468  1.7493475  0.0005095
  0.0098820  0.0010445  1.7458380 -0.0005438 -0.0003818  1.7458381 -0.0005439
  0.0093808  0.0007024  1.7494931  0.0005077 -0.0003494  1.7494932  0.0005076
  0.0090917  0.0006999  1.7494739  0.0005230  0.0007090  1.7494742  0.0005227
  0.0093750  0.0010365  1.7460052 -0.0005391 -0.0003801  1.7460053 -0.0005392
  0.0090864  0.0010327  1.7459719 -0.0005280  0.0006802  1.7459722 -0.0005283
  0.0093599  0.0016111  1.7405642 -0.0005536 -0.0002765  1.7405643 -0.0005536
  0.0093694  0.0012800  1.7439998  0.0004784 -0.0002240  1.7439998  0.0004784
  0.0090731  0.0016042  1.7405065 -0.0005294  0.0007745  1.7405069 -0.0005297
  0.0090814  0.0012750  1.7439616  0.0005083  0.0008234  1.7439620  0.0005079
  0.0095721  0.0016166  1.7402787 -0.0005301  0.0007946  1.7402791 -0.0005305
  0.0098651  0.0016248  1.7403481 -0.0005607 -0.0002748  1.7403481 -0.0005607
  0.0095822  0.0012841  1.7437662  0.0005179  0.0008541  1.7437667  0.0005174
  0.0098757  0.0012902  1.7438130  0.0004806 -0.0002141  1.7438130  0.0004806
  0.0095626  0.0018594  1.7382584  0.0005092  0.0009806  1.7382590  0.0005086
  0.0095465  0.0021904  1.7348081 -0.0005310  0.0008814  1.7348085 -0.0005315
  0.0098552  0.0018693  1.7383303  0.0004383 -0.0000766  1.7383303  0.0004383
  0.0098387  0.0022026  1.7349041 -0.0005948 -0.0001762  1.7349041 -0.0005948
  0.0093508  0.0018527  1.7385740  0.0004370 -0.0000927  1.7385740  0.0004370
  0.0090648  0.0018441  1.7385126  0.0005014  0.0009402  1.7385131  0.0005009
  0.0093353  0.0021817  1.7351926 -0.0005819 -0.0001848  1.7351926 -0.0005819
  0.0090506  0.0021701  1.7350994 -0.0005267  0.0008511  1.7350998 -0.0005271
  0.0103831  0.0016362  1.7401088 -0.0005772 -0.0002760  1.7401089 -0.0005773
  0.0103944  0.0012988  1.7436105  0.0004755 -0.0002086  1.7436106  0.0004755
  0.0100824  0.0016301  1.7400657 -0.0005285  0.0008215  1.7400661 -0.0005289
  0.0100933  0.0012941  1.7435827  0.0005288  0.0008880  1.7435831  0.0005283
  0.0106054  0.0016407  1.7398464 -0.0005320  0.0008486  1.7398468 -0.0005324
  0.0109119  0.0016471  1.7398916 -0.0005828 -0.0002688  1.7398916 -0.0005828
  0.0106168  0.0013022  1.7433900  0.0005335  0.0009180  1.7433905  0.0005330
  0.0109235  0.0013070  1.7434189  0.0004778 -0.0001994  1.7434189  0.0004778
  0.0105949  0.0018884  1.7377942  0.0005276  0.0010635  1.7377949  0.0005270
  0.0105779  0.0022265  1.7342735 -0.0005344  0.0009566  1.7342740 -0.0005349
  0.0109014  0.0018959  1.7378371  0.0004354 -0.0000472  1.7378371  0.0004354
  0.0108843  0.0022354  1.7343314 -0.0006221 -0.0001536  1.7343314 -0.0006222
  0.0103728  0.0018830  1.7380723  0.0004326 -0.0000632  1.7380723  0.0004326
  0.0100723  0.0018756  1.7380301  0.0005225  0.0010253  1.7380307  0.0005219
  0.0103558  0.0022198  1.7346003 -0.0006147 -0.0001683  1.7346003 -0.0006147
  0.0100555  0.0022105  1.7345377 -0.0005309  0.0009200  1.7345381 -0.0005314
  0.0106307  0.0007138  1.7490190  0.0005385  0.0007748  1.7490194  0.0005381
  0.0106236  0.0010539  1.7454475 -0.0005337  0.0007352  1.7454478 -0.0005340
  0.0109375  0.0007163  1.7490346  0.0005115 -0.0003485  1.7490347  0.0005114
  0.0109303  0.0010576  1.7454764 -0.0005567 -0.0003880  1.7454765 -0.0005568
  0.0104080  0.0007120  1.7491894  0.0005080 -0.0003500  1.7491895  0.0005080
  0.0101066  0.0007097  1.7491755  0.0005357  0.0007538  1.7491758  0.0005353
  0.0104011  0.0010511  1.7456531 -0.0005536 -0.0003892  1.7456531 -0.0005536
  0.0100998  0.0010475  1.7456256 -0.0005300  0.0007150  1.7456259 -0.0005303
  0.0104113  0.0004637  1.7512419 -0.0005317 -0.0005004  1.7512420 -0.0005318
  0.0104134  0.0001242  1.7547952  0.0005343 -0.0004954  1.7547954  0.0005341
  0.0101097  0.0004622  1.7512246 -0.0005427  0.0006090  1.7512248 -0.0005429
  0.0101115  0.0001239  1.7547892  0.0005267  0.0006132  1.7547894  0.0005264
  0.0106340  0.0004648  1.7510813 -0.0005443  0.0006220  1.7510815 -0.0005445
  0.0109408  0.0004664  1.7510999 -0.0005333 -0.0005061  1.7511000 -0.0005335
  0.0106361  0.0001245  1.7546685  0.0005318  0.0006275  1.7546687  0.0005315
  0.0109429  0.0001250  1.7546748  0.0005391 -0.0005007  1.7546749  0.0005389
  0.0114807  0.0004688  1.7509500 -0.0005376 -0.0005143  1.7509501 -0.0005378
  0.0114829  0.0001256  1.7545437  0.0005404 -0.0005083  1.7545438  0.0005403
  0.0111677  0.0004675  1.7509345 -0.0005475  0.0006364  1.7509348 -0.0005477
  0.0111698  0.0001253  1.7545383  0.0005336  0.0006421  1.7545385  0.0005333
  0.0117116  0.0004697  1.7507791 -0.0005501  0.0006502  1.7507793 -0.0005504
  0.0120296  0.0004711  1.7507954 -0.0005393 -0.0005188  1.7507956 -0.0005394
  0.0117139  0.0001259  1.7544018  0.0005366  0.0006561  1.7544021  0.0005364
  0.0120319  0.0001262  1.7544076  0.0005443 -0.0005129  1.7544078  0.0005442
  0.0117082  0.0007214  1.7486971  0.0005443  0.0008175  1.7486975  0.0005439
  0.0117011  0.0010651  1.7450907 -0.0005383  0.0007780  1.7450910 -0.0005386
  0.0120261  0.0007235  1.7487083  0.0005156 -0.0003467  1.7487084  0.0005155
  0.0120190  0.0010682  1.7451120 -0.0005640 -0.0003861  1.7451121 -0.0005641
  0.0114772  0.0007199  1.7488723  0.0005127 -0.0003493  1.7488724  0.0005126
  0.0111643  0.0007179  1.7488626  0.0005433  0.0007969  1.7488629  0.0005429
  0.0114701  0.0010629  1.7452919 -0.0005622 -0.0003894  1.7452919 -0.0005623
  0.0111572  0.0010601  1.7452728 -0.0005344  0.0007566  1.7452731 -0.0005347
  0.0114513  0.0016558  1.7396660 -0.0005936 -0.0002640  1.7396660 -0.0005936
  0.0114632  0.0013137  1.7432213  0.0004756 -0.0001915  1.7432213  0.0004756
  0.0111386  0.0016512  1.7396402 -0.0005317  0.0008769  1.7396406 -0.0005321
  0.0111503  0.0013101  1.7432067  0.0005409  0.0009490  1.7432072  0.0005403
  0.0116821  0.0016593  1.7394280 -0.0005330  0.0009045  1.7394285 -0.0005334
  0.0120000  0.0016642  1.7394556 -0.0005953 -0.0002543  1.7394556 -0.0005954
  0.0116941  0.0013164  1.7430134  0.0005453  0.0009778  1.7430140  0.0005448
  0.0120120  0.0013202  1.7430297  0.0004795 -0.0001815  1.7430297  0.0004795
  0.0116714  0.0019102  1.7373556  0.0005406  0.0011375  1.7373564  0.0005399
  0.0116543  0.0022528  1.7337895 -0.0005352  0.0010292  1.7337902 -0.0005358
  0.0119893  0.0019159  1.7373775  0.0004362 -0.0000161  1.7373775  0.0004362
  0.0119722  0.0022595  1.7338216 -0.0006365 -0.0001240  1.7338216 -0.0006365
  0.0114406  0.0019062  1.7375991  0.0004333 -0.0000325  1.7375991  0.0004333
  0.0111280  0.0019006  1.7375782  0.0005376  0.0011022  1.7375789  0.0005369
  0.0114235  0.0022479  1.7340641 -0.0006332 -0.0001407  1.7340641 -0.0006332
  0.0111109  0.0022412  1.7340303 -0.0005328  0.0009934  1.7340309 -0.0005334
  0.0125458  0.0019249  1.7371481  0.0004385  0.0000018  1.7371481  0.0004385
  0.0122236  0.0019198  1.7371320  0.0005454  0.0011718  1.7371328  0.0005446
  0.0125288  0.0022700  1.7335740 -0.0006396 -0.0001056  1.7335740 -0.0006396
  0.0122066  0.0022641  1.7335491 -0.0005354  0.0010636  1.7335498 -0.0005361
  0.0125566  0.0016721  1.7392369 -0.0006021 -0.0002447  1.7392370 -0.0006022
  0.0125690  0.0013264  1.7428301  0.0004786 -0.0001694  1.7428301  0.0004786
  0.0122343  0.0016676  1.7392148 -0.0005354  0.0009313  1.7392153 -0.0005359
  0.0122464  0.0013229  1.7428178  0.0005482  0.0010058  1.7428184  0.0005477
  0.0127941  0.0016755  1.7389861 -0.0005363  0.0009576  1.7389866 -0.0005368
  0.0131208  0.0016806  1.7390138 -0.0006031 -0.0002335  1.7390139 -0.0006031
  0.0128067  0.0013292  1.7426046  0.0005521  0.0010344  1.7426052  0.0005515
  0.0131336  0.0013333  1.7426225  0.0004824 -0.0001564  1.7426225  0.0004824
  0.0127833  0.0019289  1.7368945  0.0005450  0.0012055  1.7368953  0.0005442
  0.0127662  0.0022746  1.7332978 -0.0005398  0.0010982  1.7332985 -0.0005405
  0.0131098  0.0019346  1.7369168  0.0004406  0.0000213  1.7369168  0.0004406
  0.0130926  0.0022811  1.7333288 -0.0006416 -0.0000865  1.7333288 -0.0006416
  0.0128211  0.0007285  1.7483406  0.0005478  0.0008582  1.7483410  0.0005474
  0.0128140  0.0010754  1.7447010 -0.0005447  0.0008192  1.7447013 -0.0005451
  0.0131484  0.0007308  1.7483546  0.0005211 -0.0003388  1.7483547  0.0005211
  0.0131410  0.0010788  1.7447260 -0.0005681 -0.0003784  1.7447261 -0.0005682
  0.0125833  0.0007269  1.7485348  0.0005188 -0.0003438  1.7485349  0.0005187
  0.0122606  0.0007250  1.7485250  0.0005476  0.0008378  1.7485254  0.0005472
  0.0125762  0.0010731  1.7449215 -0.0005659 -0.0003829  1.7449216 -0.0005660
  0.0122535  0.0010703  1.7449024 -0.0005399  0.0007985  1.7449028 -0.0005402
  0.0125867  0.0004734  1.7506325 -0.0005424 -0.0005237  1.7506326 -0.0005426
  0.0125892  0.0001268  1.7542623  0.0005464 -0.0005173  1.7542624  0.0005463
  0.0122641  0.0004721  1.7506170 -0.0005532  0.0006630  1.7506172 -0.0005535
  0.0122664  0.0001265  1.7542566  0.0005386  0.0006690  1.7542569  0.0005383
  0.0128247  0.0004744  1.7504427 -0.0005562  0.0006759  1.7504430 -0.0005565
  0.0131520  0.0004759  1.7504608 -0.0005444 -0.0005276  1.7504609 -0.0005445
  0.0128272  0.0001271  1.7541010  0.0005412  0.0006825  1.7541012  0.0005409
  0.0131546  0.0001275  1.7541073  0.0005495 -0.0005206  1.7541075  0.0005494
  0.0137234  0.0004792  1.7502762 -0.0005488 -0.0005298  1.7502763 -0.0005490
  0.0137266  0.0001284  1.7539433  0.0005513 -0.0005203  1.7539435  0.0005511
  0.0133928  0.0004772  1.7502530 -0.0005609  0.0006861  1.7502533 -0.0005612
  0.0133956  0.0001279  1.7539359  0.0005439  0.0006943  1.7539362  0.0005436
  0.0139670  0.0004810  1.7500408 -0.0005640  0.0006973  1.7500410 -0.0005642
  0.0143021  0.0004837  1.7500709 -0.0005501 -0.0005331  1.7500710 -0.0005503
  0.0139704  0.0001289  1.7537549  0.0005502  0.0007077  1.7537551  0.0005499
  0.0143055  0.0001296  1.7537641  0.0005578 -0.0005225  1.7537642  0.0005576
  0.0139628  0.0007384  1.7479075  0.0005521  0.0009002  1.7479079  0.0005517
  0.0139547  0.0010896  1.7442224 -0.0005541  0.0008575  1.7442228 -0.0005546
  0.0142976  0.0007425  1.7479396  0.0005301 -0.0003209  1.7479396  0.0005300
  0.0142889  0.0010955  1.7442728 -0.0005707 -0.0003654  1.7442729 -0.0005708
  0.0137194  0.0007358  1.7481575  0.0005259 -0.0003298  1.7481576  0.0005258
  0.0133891  0.0007327  1.7481356  0.0005498  0.0008775  1.7481361  0.0005494
  0.0137116  0.0010859  1.7445116 -0.0005686 -0.0003706  1.7445116 -0.0005687
  0.0133815  0.0010816  1.7444764 -0.0005486  0.0008374  1.7444768 -0.0005490
  0.0136900  0.0016912  1.7387742 -0.0006064 -0.0002188  1.7387743 -0.0006064
  0.0137037  0.0013419  1.7423975  0.0004837 -0.0001378  1.7423975  0.0004837
  0.0133609  0.0016848  1.7387330 -0.0005418  0.0009815  1.7387335 -0.0005424
  0.0133740  0.0013367  1.7423686  0.0005519  0.0010606  1.7423692  0.0005512
  0.0139323  0.0016965  1.7384456 -0.0005437  0.0010069  1.7384461 -0.0005443
  0.0142653  0.0017046  1.7385030 -0.0006081 -0.0002057  1.7385030 -0.0006081
  0.0139466  0.0013463  1.7420976  0.0005553  0.0010919  1.7420983  0.0005546
  0.0142802  0.0013532  1.7421423  0.0004873 -0.0001185  1.7421423  0.0004873
  0.0139205  0.0019521  1.7363285  0.0005434  0.0012727  1.7363294  0.0005425
  0.0139023  0.0023005  1.7327112 -0.0005481  0.0011601  1.7327119 -0.0005488
  0.0142528  0.0019609  1.7363817  0.0004448  0.0000726  1.7363817  0.0004448
  0.0142337  0.0023100  1.7327726 -0.0006445 -0.0000428  1.7327726 -0.0006445
  0.0136785  0.0019463  1.7366643  0.0004448  0.0000462  1.7366643  0.0004448
  0.0133497  0.0019392  1.7366275  0.0005447  0.0012371  1.7366284  0.0005439
  0.0136607  0.0022941  1.7330643 -0.0006411 -0.0000632  1.7330643 -0.0006411
  0.0133323  0.0022863  1.7330201 -0.0005434  0.0011284  1.7330208 -0.0005441
  0.0148274  0.0019819  1.7360535  0.0004507  0.0001110  1.7360535  0.0004507
  0.0144958  0.0019689  1.7359587  0.0005393  0.0013038  1.7359597  0.0005383
  0.0148066  0.0023318  1.7324425 -0.0006400 -0.0000120  1.7324425 -0.0006400
  0.0144760  0.0023185  1.7323426 -0.0005525  0.0011845  1.7323434 -0.0005533
  0.0148417  0.0017241  1.7381968 -0.0006117 -0.0001849  1.7381968 -0.0006117
  0.0148597  0.0013700  1.7418467  0.0004881 -0.0000840  1.7418467  0.0004881
  0.0145089  0.0017120  1.7380995 -0.0005517  0.0010267  1.7381001 -0.0005523
  0.0145249  0.0013596  1.7417686  0.0005533  0.0011212  1.7417694  0.0005525
  0.0150863  0.0017349  1.7376691 -0.0005487  0.0010491  1.7376697 -0.0005493
  0.0154217  0.0017522  1.7378134 -0.0006123 -0.0001668  1.7378135 -0.0006123
  0.0151060  0.0013794  1.7413516  0.0005624  0.0011643  1.7413524  0.0005616
  0.0154444  0.0013947  1.7414726  0.0004925 -0.0000424  1.7414726  0.0004925
  0.0150708  0.0019932  1.7355095  0.0005319  0.0013459  1.7355105  0.0005308
  0.0150485  0.0023434  1.7319078 -0.0005575  0.0012122  1.7319087 -0.0005583
  0.0154042  0.0020113  1.7356505  0.0004433  0.0001609  1.7356505  0.0004433
  0.0153789  0.0023616  1.7320526 -0.0006460  0.0000169  1.7320526 -0.0006460
  0.0151289  0.0007585  1.7473059  0.0005645  0.0009513  1.7473064  0.0005640
  0.0151175  0.0011178  1.7435329 -0.0005688  0.0008921  1.7435333 -0.0005692
  0.0154715  0.0007679  1.7473892  0.0005479 -0.0002859  1.7473893  0.0005479
  0.0154577  0.0011309  1.7436567 -0.0005735 -0.0003524  1.7436568 -0.0005735
  0.0148803  0.0007527  1.7476893  0.0005401 -0.0003035  1.7476894  0.0005400
  0.0145435  0.0007463  1.7476339  0.0005559  0.0009211  1.7476343  0.0005554
  0.0148700  0.0011097  1.7439960 -0.0005689 -0.0003538  1.7439961 -0.0005689
  0.0145342  0.0011008  1.7439141 -0.0005609  0.0008736  1.7439145 -0.0005613
  0.0148855  0.0004906  1.7498435 -0.0005537 -0.0005336  1.7498436 -0.0005539
  0.0148896  0.0001314  1.7535766  0.0005661 -0.0005212  1.7535767  0.0005659
  0.0145482  0.0004863  1.7497964 -0.0005738  0.0007060  1.7497966 -0.0005741
  0.0145518  0.0001303  1.7535626  0.0005559  0.0007170  1.7535629  0.0005556
  0.0151348  0.0004945  1.7495067 -0.0005854  0.0007168  1.7495070 -0.0005857
  0.0154786  0.0005008  1.7495738 -0.0005633 -0.0005465  1.7495740 -0.0005635
  0.0151394  0.0001325  1.7533467  0.0005665  0.0007329  1.7533470  0.0005662
  0.0154840  0.0001342  1.7533650  0.0005740 -0.0005275  1.7533652  0.0005738
  0.0160801  0.0005166  1.7492520 -0.0005824 -0.0005630  1.7492522 -0.0005826
  0.0160879  0.0001384  1.7531447  0.0005856 -0.0005310  1.7531449  0.0005854
  0.0157319  0.0005067  1.7491512 -0.0006027  0.0007208  1.7491515 -0.0006030
  0.0157382  0.0001358  1.7531203  0.0005882  0.0007487  1.7531206  0.0005879
  0.0163395  0.0005252  1.7487191 -0.0006278  0.0007371  1.7487194 -0.0006281
  0.0166999  0.0005389  1.7488549 -0.0006126 -0.0005896  1.7488551 -0.0006128
  0.0163482  0.0001407  1.7528596  0.0006149  0.0007807  1.7528600  0.0006146
  0.0167098  0.0001444  1.7528897  0.0005985 -0.0005436  1.7528898  0.0005983
  0.0163282  0.0008047  1.7463382  0.0006113  0.0010385  1.7463388  0.0006106
  0.0163061  0.0011838  1.7423204 -0.0006014  0.0009079  1.7423209 -0.0006019
  0.0166865  0.0008260  1.7465165  0.0005497 -0.0002367  1.7465165  0.0005497
  0.0166600  0.0012155  1.7426122 -0.0006299 -0.0003771  1.7426123 -0.0006300
  0.0160703  0.0007915  1.7470088  0.0005607 -0.0002584  1.7470088  0.0005606
  0.0157237  0.0007767  1.7468777  0.0005845  0.0009841  1.7468782  0.0005839
  0.0160510  0.0011645  1.7432158 -0.0005807 -0.0003527  1.7432159 -0.0005807
  0.0157079  0.0011435  1.7430170 -0.0005766  0.0008992  1.7430174 -0.0005771
  0.0160006  0.0017968  1.7373361 -0.0006067 -0.0001358  1.7373362 -0.0006067
  0.0160324  0.0014339  1.7409825  0.0004994  0.0000296  1.7409825  0.0004994
  0.0156667  0.0017688  1.7370913 -0.0005480  0.0010650  1.7370919 -0.0005487
  0.0156926  0.0014093  1.7407801  0.0005688  0.0012123  1.7407809  0.0005679
  0.0162467  0.0018239  1.7362422 -0.0005456  0.0010637  1.7362429 -0.0005463
  0.0165854  0.0018701  1.7366421 -0.0006367 -0.0001303  1.7366421 -0.0006367
  0.0162843  0.0014569  1.7399740  0.0005972  0.0012849  1.7399750  0.0005963
  0.0166329  0.0014953  1.7402767  0.0004818  0.0001158  1.7402767  0.0004818
  0.0162182  0.0020853  1.7339750  0.0005110  0.0014642  1.7339762  0.0005098
  0.0161776  0.0024325  1.7306292 -0.0005177  0.0012456  1.7306301 -0.0005186
  0.0165481  0.0021332  1.7343529  0.0004294  0.0004095  1.7343530  0.0004293
  0.0164935  0.0024773  1.7310141 -0.0006060  0.0001430  1.7310141 -0.0006060
  0.0159767  0.0020572  1.7351261  0.0004362  0.0002494  1.7351261  0.0004362
  0.0156469  0.0020285  1.7348913  0.0005226  0.0013928  1.7348925  0.0005215
  0.0159432  0.0024059  1.7315866 -0.0006418  0.0000656  1.7315866 -0.0006418
  0.0156187  0.0023783  1.7313552 -0.0005518  0.0012281  1.7313561 -0.0005527
  0.0171913  0.0019939  1.7355510 -0.0007672 -0.0001445  1.7355510 -0.0007672
  0.0172567  0.0015851  1.7392740  0.0004100  0.0002080  1.7392740  0.0004100
  0.0168385  0.0019156  1.7348996 -0.0006097  0.0010369  1.7349002 -0.0006104
  0.0168934  0.0015297  1.7388655  0.0006372  0.0013882  1.7388666  0.0006361
  0.0174647  0.0020523  1.7330988 -0.0006906  0.0011705  1.7330996 -0.0006914
  0.0178587  0.0021337  1.7338074 -0.0007768 -0.0001730  1.7338074 -0.0007768
  0.0175335  0.0016270  1.7375980  0.0007145  0.0015560  1.7375994  0.0007131
  0.0179264  0.0016860  1.7380958  0.0005592  0.0001789  1.7380959  0.0005591
  0.0173940  0.0023536  1.7300276  0.0007551  0.0017959  1.7300294  0.0007532
  0.0172698  0.0027514  1.7262479 -0.0006779  0.0010251  1.7262485 -0.0006786
  0.0177816  0.0024812  1.7307483  0.0002008  0.0008574  1.7307487  0.0002004
  0.0176388  0.0029829  1.7276891 -0.0009382  0.0002609  1.7276891 -0.0009382
  0.0171289  0.0022739  1.7329108  0.0002315  0.0007430  1.7329112  0.0002311
  0.0167921  0.0021837  1.7323928  0.0005129  0.0015638  1.7323942  0.0005115
  0.0170237  0.0026301  1.7301463 -0.0007396  0.0002774  1.7301464 -0.0007397
  0.0167202  0.0025303  1.7294240 -0.0004851  0.0011517  1.7294248 -0.0004859
  0.0176052  0.0008914  1.7449565  0.0006784  0.0012045  1.7449573  0.0006776
  0.0175711  0.0013160  1.7404731 -0.0006790  0.0010189  1.7404737 -0.0006796
  0.0179982  0.0009202  1.7452043  0.0006138 -0.0001935  1.7452044  0.0006138
  0.0179638  0.0013609  1.7408831 -0.0006942 -0.0003691  1.7408832 -0.0006943
  0.0173253  0.0008709  1.7459028  0.0005520 -0.0002072  1.7459028  0.0005520
  0.0169537  0.0008437  1.7456749  0.0006343  0.0011145  1.7456756  0.0006336
  0.0172926  0.0012842  1.7418116 -0.0006882 -0.0003830  1.7418117 -0.0006882
  0.0169243  0.0012424  1.7414303 -0.0006515  0.0009402  1.7414308 -0.0006520
  0.0173414  0.0005676  1.7483828 -0.0006365 -0.0005988  1.7483830 -0.0006367
  0.0173526  0.0001521  1.7526037  0.0006304 -0.0005493  1.7526038  0.0006303
  0.0169683  0.0005503  1.7482095 -0.0006647  0.0007697  1.7482099 -0.0006650
  0.0169789  0.0001474  1.7525631  0.0006421  0.0008199  1.7525634  0.0006417
  0.0176219  0.0005805  1.7476429 -0.0007023  0.0008178  1.7476433 -0.0007027
  0.0180151  0.0005986  1.7478248 -0.0006689 -0.0006194  1.7478250 -0.0006691
  0.0176333  0.0001555  1.7522222  0.0006720  0.0008700  1.7522226  0.0006716
  0.0180267  0.0001604  1.7522658  0.0006640 -0.0005693  1.7522660  0.0006638
  0.0187183  0.0006276  1.7472578 -0.0006946 -0.0006336  1.7472580 -0.0006948
  0.0187289  0.0001682  1.7519164  0.0007034 -0.0005887  1.7519166  0.0007032
  0.0183089  0.0006112  1.7470930 -0.0007270  0.0008540  1.7470935 -0.0007275
  0.0183203  0.0001638  1.7518761  0.0007083  0.0009041  1.7518766  0.0007078
  0.0190244  0.0006383  1.7465683 -0.0007563  0.0008986  1.7465687 -0.0007568
  0.0194515  0.0006510  1.7466982 -0.0007245 -0.0006527  1.7466984 -0.0007247
  0.0190343  0.0001710  1.7515323  0.0007330  0.0009384  1.7515328  0.0007325
  0.0194600  0.0001744  1.7515657  0.0007359 -0.0006191  1.7515659  0.0007357
  0.0190107  0.0009823  1.7436641  0.0007600  0.0013072  1.7436650  0.0007590
  0.0189831  0.0014550  1.7387419 -0.0007243  0.0011556  1.7387427 -0.0007251
  0.0194397  0.0010018  1.7438259  0.0006893 -0.0002416  1.7438259  0.0006893
  0.0194162  0.0014835  1.7389915 -0.0007673 -0.0003740  1.7389915 -0.0007674
  0.0187033  0.0009658  1.7444840  0.0006704 -0.0002210  1.7444841  0.0006704
  0.0182925  0.0009402  1.7442637  0.0007429  0.0012679  1.7442646  0.0007419
  0.0186730  0.0014303  1.7398382 -0.0007332 -0.0003850  1.7398383 -0.0007332
  0.0182591  0.0013915  1.7394882 -0.0007012  0.0010848  1.7394889 -0.0007019
  0.0185852  0.0022576  1.7325188 -0.0008201 -0.0001648  1.7325188 -0.0008201
  0.0186413  0.0017765  1.7369506  0.0005574  0.0001737  1.7369506  0.0005574
  0.0181589  0.0021887  1.7320004 -0.0006074  0.0011973  1.7320012 -0.0006082
  0.0182233  0.0017261  1.7365840  0.0008267  0.0015829  1.7365854  0.0008253
  0.0189060  0.0022963  1.7306775 -0.0007714  0.0014908  1.7306788 -0.0007727
  0.0193565  0.0023331  1.7309856 -0.0008501 -0.0000658  1.7309856 -0.0008501
  0.0189550  0.0018071  1.7356885  0.0007511  0.0017400  1.7356903  0.0007493
  0.0193939  0.0018403  1.7359771  0.0006618  0.0001404  1.7359771  0.0006618
  0.0188721  0.0026610  1.7276173  0.0007715  0.0021066  1.7276199  0.0007690
  0.0188285  0.0031682  1.7224973 -0.0007856  0.0018581  1.7224993 -0.0007876
  0.0193284  0.0026982  1.7279233  0.0006390  0.0004792  1.7279234  0.0006388
  0.0192891  0.0032026  1.7227696 -0.0009264  0.0002439  1.7227696 -0.0009264
  0.0185400  0.0026222  1.7289741  0.0007297  0.0004707  1.7289743  0.0007295
  0.0180887  0.0025532  1.7283460  0.0009349  0.0021824  1.7283487  0.0009321
  0.0184727  0.0031370  1.7236708 -0.0009162  0.0000674  1.7236708 -0.0009162
  0.0179611  0.0030862  1.7233450 -0.0006598  0.0016143  1.7233465 -0.0006614
  0.0201136  0.0027498  1.7270509  0.0006372  0.0005134  1.7270510  0.0006370
  0.0196610  0.0027219  1.7268185  0.0007273  0.0021320  1.7268211  0.0007247
  0.0200806  0.0032543  1.7219244 -0.0009122  0.0003282  1.7219245 -0.0009123
  0.0196246  0.0032256  1.7216873 -0.0008248  0.0019344  1.7216894 -0.0008270
  0.0201358  0.0023826  1.7301102 -0.0008470 -0.0000009  1.7301102 -0.0008470
  0.0201634  0.0018839  1.7351942  0.0006858  0.0001509  1.7351942  0.0006858
  0.0196860  0.0023562  1.7298840 -0.0007903  0.0015948  1.7298855 -0.0007917
  0.0197177  0.0018609  1.7349968  0.0007525  0.0017630  1.7349986  0.0007507
  0.0204671  0.0023998  1.7291876 -0.0008122  0.0016748  1.7291892 -0.0008138
  0.0209227  0.0024205  1.7293696 -0.0008489  0.0000460  1.7293696 -0.0008489
  0.0204924  0.0018988  1.7343691  0.0007473  0.0018053  1.7343710  0.0007454
  0.0209458  0.0019165  1.7345211  0.0007011  0.0001673  1.7345211  0.0007011
  0.0204465  0.0027682  1.7261198  0.0007223  0.0021908  1.7261226  0.0007196
  0.0204154  0.0032738  1.7209477 -0.0008387  0.0020207  1.7209500 -0.0008410
  0.0209035  0.0027908  1.7263051  0.0006399  0.0005572  1.7263053  0.0006397
  0.0208741  0.0032982  1.7211502 -0.0009154  0.0003943  1.7211503 -0.0009155
  0.0205236  0.0010372  1.7426052  0.0007532  0.0014026  1.7426063  0.0007521
  0.0205075  0.0015337  1.7374152 -0.0008048  0.0013306  1.7374162 -0.0008059
  0.0209738  0.0010478  1.7427045  0.0007516 -0.0002367  1.7427046  0.0007515
  0.0209595  0.0015486  1.7375587 -0.0007931 -0.0003014  1.7375588 -0.0007932
  0.0201977  0.0010282  1.7432412  0.0007260 -0.0002409  1.7432413  0.0007260
  0.0197578  0.0010141  1.7431113  0.0007387  0.0013614  1.7431123  0.0007377
  0.0201800  0.0015210  1.7382057 -0.0007866 -0.0003263  1.7382058 -0.0007867
  0.0197370  0.0015012  1.7380195 -0.0007912  0.0012631  1.7380204 -0.0007921
  0.0202066  0.0006687  1.7461966 -0.0007442 -0.0006529  1.7461969 -0.0007445
  0.0202131  0.0001792  1.7512257  0.0007643 -0.0006336  1.7512260  0.0007641
  0.0197682  0.0006592  1.7460948 -0.0007842  0.0009416  1.7460953 -0.0007847
  0.0197759  0.0001766  1.7511960  0.0007460  0.0009659  1.7511966  0.0007455
  0.0205316  0.0006747  1.7456314 -0.0008103  0.0009889  1.7456319 -0.0008109
  0.0209809  0.0006818  1.7457138 -0.0007589 -0.0006517  1.7457140 -0.0007591
  0.0205374  0.0001808  1.7508448  0.0007533  0.0009989  1.7508454  0.0007527
  0.0209861  0.0001827  1.7508734  0.0007886 -0.0006442  1.7508736  0.0007884
  0.0217711  0.0006923  1.7452491 -0.0007667 -0.0006513  1.7452493 -0.0007669
  0.0217753  0.0001855  1.7505035  0.0008093 -0.0006506  1.7505037  0.0008091
  0.0213131  0.0006865  1.7451764 -0.0008233  0.0010230  1.7451770 -0.0008239
  0.0213178  0.0001839  1.7504756  0.0007660  0.0010258  1.7504762  0.0007654
  0.0221096  0.0006964  1.7447155 -0.0008377  0.0010527  1.7447162 -0.0008383
  0.0225763  0.0007017  1.7447845 -0.0007755 -0.0006546  1.7447848 -0.0007758
  0.0221136  0.0001866  1.7500851  0.0007728  0.0010500  1.7500857  0.0007721
  0.0225803  0.0001880  1.7501136  0.0008228 -0.0006577  1.7501139  0.0008226
  0.0221035  0.0010698  1.7416157  0.0007709  0.0014847  1.7416170  0.0007697
  0.0220910  0.0015802  1.7362862 -0.0008282  0.0014336  1.7362873 -0.0008294
  0.0225704  0.0010779  1.7416946  0.0007816 -0.0002111  1.7416946  0.0007816
  0.0225582  0.0015918  1.7364017 -0.0008066 -0.0002606  1.7364017 -0.0008066
  0.0217648  0.0010637  1.7421983  0.0007676 -0.0002246  1.7421984  0.0007676
  0.0213064  0.0010549  1.7421129  0.0007606  0.0014419  1.7421140  0.0007594
  0.0217520  0.0015713  1.7369726 -0.0008006 -0.0002787  1.7369727 -0.0008006
  0.0212929  0.0015587  1.7368480 -0.0008194  0.0013848  1.7368491 -0.0008205
  0.0217014  0.0028264  1.7256117  0.0006468  0.0006077  1.7256119  0.0006466
  0.0212398  0.0028064  1.7254467  0.0007178  0.0022579  1.7254497  0.0007149
  0.0216740  0.0033373  1.7204172 -0.0009187  0.0004590  1.7204173 -0.0009188
  0.0212114  0.0033152  1.7202319 -0.0008540  0.0021049  1.7202345 -0.0008566
  0.0217191  0.0024529  1.7286957 -0.0008505  0.0000907  1.7286957 -0.0008505
  0.0217397  0.0019436  1.7339046  0.0007154  0.0001959  1.7339046  0.0007154
  0.0212582  0.0024348  1.7285337 -0.0008255  0.0017440  1.7285355 -0.0008273
  0.0212800  0.0019285  1.7337729  0.0007497  0.0018545  1.7337749  0.0007477
  0.0220590  0.0024657  1.7278891 -0.0008374  0.0018126  1.7278910 -0.0008393
  0.0225269  0.0024826  1.7280415 -0.0008545  0.0001309  1.7280416 -0.0008545
  0.0220791  0.0019542  1.7331818  0.0007531  0.0019119  1.7331839  0.0007510
  0.0225465  0.0019682  1.7333045  0.0007270  0.0002278  1.7333045  0.0007270
  0.0220418  0.0028406  1.7247798  0.0007204  0.0023324  1.7247829  0.0007172
  0.0220148  0.0033531  1.7195244 -0.0008627  0.0021883  1.7195272 -0.0008654
  0.0225099  0.0028593  1.7249343  0.0006547  0.0006599  1.7249346  0.0006545
  0.0224834  0.0033740  1.7197012 -0.0009215  0.0005184  1.7197013 -0.0009216
  0.0233309  0.0028928  1.7242501  0.0006608  0.0007180  1.7242504  0.0006605
  0.0228554  0.0028733  1.7240868  0.0007200  0.0024120  1.7240902  0.0007166
  0.0233039  0.0034114  1.7189837 -0.0009252  0.0005766  1.7189839 -0.0009254
  0.0228288  0.0033897  1.7187975 -0.0008728  0.0022713  1.7188005 -0.0008758
  0.0233481  0.0025128  1.7273842 -0.0008567  0.0001691  1.7273842 -0.0008567
  0.0233678  0.0019930  1.7326952  0.0007389  0.0002634  1.7326952  0.0007388
  0.0228723  0.0024952  1.7272223 -0.0008485  0.0018801  1.7272243 -0.0008505
  0.0228918  0.0019786  1.7325653  0.0007568  0.0019748  1.7325675  0.0007545
  0.0236992  0.0025262  1.7265144 -0.0008577  0.0019458  1.7265166 -0.0008599
  0.0241828  0.0025453  1.7266921 -0.0008612  0.0002067  1.7266921 -0.0008612
  0.0237193  0.0020041  1.7319093  0.0007631  0.0020422  1.7319117  0.0007607
  0.0242038  0.0020198  1.7320517  0.0007491  0.0003052  1.7320517  0.0007491
  0.0236818  0.0029078  1.7233466  0.0007254  0.0024981  1.7233502  0.0007218
  0.0236542  0.0034281  1.7180251 -0.0008774  0.0023530  1.7180283 -0.0008806
  0.0241647  0.0029290  1.7235261  0.0006683  0.0007836  1.7235265  0.0006679
  0.0241361  0.0034519  1.7182312 -0.0009267  0.0006363  1.7182315 -0.0009269
  0.0237443  0.0010985  1.7405423  0.0007884  0.0015783  1.7405437  0.0007870
  0.0237314  0.0016215  1.7350848 -0.0008490  0.0015274  1.7350862 -0.0008504
  0.0242298  0.0011075  1.7406324  0.0008059 -0.0001797  1.7406324  0.0008059
  0.0242164  0.0016345  1.7352165 -0.0008190 -0.0002316  1.7352166 -0.0008191
  0.0233922  0.0010921  1.7411793  0.0007931 -0.0001967  1.7411793  0.0007931
  0.0229157  0.0010838  1.7410962  0.0007774  0.0015308  1.7410975  0.0007761
  0.0233796  0.0016124  1.7358254 -0.0008133 -0.0002458  1.7358254 -0.0008133
  0.0229035  0.0016004  1.7357042 -0.0008404  0.0014823  1.7357055 -0.0008416
  0.0233982  0.0007112  1.7443047 -0.0007830 -0.0006612  1.7443050 -0.0007832
  0.0234022  0.0001906  1.7497006  0.0008353 -0.0006656  1.7497008  0.0008351
  0.0229216  0.0007057  1.7442324 -0.0008500  0.0010815  1.7442330 -0.0008507
  0.0229255  0.0001891  1.7496702  0.0007809  0.0010769  1.7496709  0.0007803
  0.0237505  0.0007154  1.7437203 -0.0008627  0.0011075  1.7437210 -0.0008634
  0.0242362  0.0007213  1.7437986 -0.0007903 -0.0006684  1.7437989 -0.0007905
  0.0237545  0.0001917  1.7492353  0.0007913  0.0011019  1.7492360  0.0007906
  0.0242403  0.0001933  1.7492682  0.0008501 -0.0006738  1.7492684  0.0008498
  0.0250945  0.0007334  1.7432580 -0.0007988 -0.0006812  1.7432583 -0.0007991
  0.0250989  0.0001965  1.7488053  0.0008648 -0.0006868  1.7488056  0.0008646
  0.0245963  0.0007261  1.7431652 -0.0008793  0.0011392  1.7431660 -0.0008801
  0.0246005  0.0001946  1.7487678  0.0008009  0.0011330  1.7487685  0.0008002
  0.0254634  0.0007392  1.7425630 -0.0008993  0.0011689  1.7425638 -0.0009001
  0.0259732  0.0007478  1.7426706 -0.0008140 -0.0006955  1.7426709 -0.0008143
  0.0254681  0.0001981  1.7482762  0.0008141  0.0011644  1.7482770  0.0008134
  0.0259785  0.0002004  1.7483178  0.0008796 -0.0006980  1.7483180  0.0008793
  0.0254558  0.0011346  1.7392701  0.0008124  0.0016921  1.7392718  0.0008107
  0.0254398  0.0016739  1.7336387 -0.0008777  0.0016242  1.7336403 -0.0008793
  0.0259648  0.0011478  1.7393984  0.0008283 -0.0001422  1.7393984  0.0008283
  0.0259473  0.0016932  1.7338312 -0.0008426 -0.0002141  1.7338312 -0.0008426
  0.0250873  0.0011258  1.7400464  0.0008184 -0.0001640  1.7400464  0.0008184
  0.0245896  0.0011148  1.7399371  0.0007976  0.0016338  1.7399387  0.0007961
  0.0250723  0.0016610  1.7345624 -0.0008271 -0.0002229  1.7345624 -0.0008271
  0.0245757  0.0016451  1.7344016 -0.0008634  0.0015779  1.7344030 -0.0008648
  0.0250138  0.0029725  1.7227373  0.0006730  0.0008603  1.7227377  0.0006726
  0.0245216  0.0029464  1.7225131  0.0007253  0.0025944  1.7225170  0.0007214
  0.0249816  0.0035002  1.7174214 -0.0009296  0.0006973  1.7174217 -0.0009299
  0.0244918  0.0034712  1.7171665 -0.0008860  0.0024385  1.7171699 -0.0008895
  0.0250343  0.0025845  1.7259448 -0.0008651  0.0002411  1.7259449 -0.0008651
  0.0250581  0.0020519  1.7313519  0.0007600  0.0003513  1.7313519  0.0007599
  0.0245406  0.0025609  1.7257238 -0.0008683  0.0020141  1.7257261 -0.0008706
  0.0245625  0.0020326  1.7311760  0.0007701  0.0021195  1.7311786  0.0007675
  0.0253994  0.0026037  1.7248231 -0.0008780  0.0020793  1.7248256 -0.0008805
  0.0259029  0.0026326  1.7250932 -0.0008772  0.0002756  1.7250933 -0.0008772
  0.0254247  0.0020675  1.7303493  0.0007839  0.0022036  1.7303522  0.0007811
  0.0259307  0.0020911  1.7305620  0.0007678  0.0004067  1.7305621  0.0007677
  0.0253774  0.0029940  1.7215557  0.0007366  0.0027023  1.7215600  0.0007324
  0.0253429  0.0035240  1.7161789 -0.0008864  0.0025207  1.7161826 -0.0008901
  0.0258786  0.0030263  1.7218319  0.0006766  0.0009540  1.7218324  0.0006761
  0.0258403  0.0035603  1.7164992 -0.0009341  0.0007615  1.7164996 -0.0009344
  0.0267638  0.0030970  1.7207690  0.0006701  0.0010615  1.7207697  0.0006694
  0.0262501  0.0030540  1.7204060  0.0007475  0.0028265  1.7204106  0.0007429
  0.0267158  0.0036410  1.7154145 -0.0009536  0.0008206  1.7154149 -0.0009540
  0.0262081  0.0035917  1.7149805 -0.0008957  0.0026018  1.7149844 -0.0008996
  0.0267937  0.0026951  1.7241159 -0.0009060  0.0003041  1.7241160 -0.0009060
  0.0268274  0.0021410  1.7296615  0.0007648  0.0004671  1.7296616  0.0007646
  0.0262765  0.0026571  1.7237649 -0.0008996  0.0021493  1.7237676 -0.0009023
  0.0263065  0.0021108  1.7293930  0.0007953  0.0023035  1.7293960  0.0007922
  0.0271782  0.0027261  1.7225378 -0.0009299  0.0022300  1.7225407 -0.0009328
  0.0277116  0.0027726  1.7229607 -0.0009528  0.0003412  1.7229608 -0.0009529
  0.0272144  0.0021654  1.7283071  0.0008111  0.0024217  1.7283105  0.0008077
  0.0277512  0.0022016  1.7286224  0.0007565  0.0005388  1.7286226  0.0007563
  0.0271457  0.0031328  1.7190451  0.0007707  0.0029742  1.7190503  0.0007655
  0.0270929  0.0036832  1.7134962 -0.0009220  0.0026759  1.7135003 -0.0009262
  0.0276752  0.0031873  1.7194862  0.0006305  0.0011799  1.7194870  0.0006297
  0.0276155  0.0037492  1.7140627 -0.0010269  0.0008686  1.7140631 -0.0010273
  0.0272577  0.0011887  1.7376934  0.0008434  0.0018485  1.7376954  0.0008414
  0.0272357  0.0017534  1.7317955 -0.0009280  0.0017478  1.7317973 -0.0009298
  0.0277977  0.0012081  1.7378764  0.0008485 -0.0000873  1.7378764  0.0008485
  0.0277742  0.0017824  1.7320778 -0.0008932 -0.0001903  1.7320778 -0.0008932
  0.0268680  0.0011754  1.7386814  0.0008362 -0.0001193  1.7386814  0.0008362
  0.0263432  0.0011587  1.7385223  0.0008255  0.0017658  1.7385240  0.0008237
  0.0268473  0.0017338  1.7330118 -0.0008661 -0.0002078  1.7330119 -0.0008661
  0.0263244  0.0017093  1.7327705 -0.0009013  0.0016819  1.7327722 -0.0009029
  0.0268779  0.0007658  1.7420278 -0.0008327 -0.0007135  1.7420281 -0.0008330
  0.0268843  0.0002052  1.7477889  0.0008950 -0.0007109  1.7477892  0.0008947
  0.0263522  0.0007549  1.7418974 -0.0009225  0.0012071  1.7418982 -0.0009234
  0.0263579  0.0002023  1.7477418  0.0008302  0.0012076  1.7477426  0.0008293
  0.0272682  0.0007744  1.7411673 -0.0009487  0.0012479  1.7411682 -0.0009495
  0.0278089  0.0007870  1.7413156 -0.0008527 -0.0007258  1.7413159 -0.0008530
  0.0272750  0.0002075  1.7471715  0.0008519  0.0012522  1.7471724  0.0008510
  0.0278161  0.0002109  1.7472236  0.0009190 -0.0007207  1.7472239  0.0009187
  0.0287717  0.0008111  1.7405383 -0.0008739 -0.0007375  1.7405386 -0.0008742
  0.0287794  0.0002173  1.7466045  0.0009451 -0.0007324  1.7466048  0.0009448
  0.0282118  0.0007969  1.7403710 -0.0009808  0.0013016  1.7403720 -0.0009818
  0.0282192  0.0002135  1.7465461  0.0008709  0.0013062  1.7465470  0.0008699
  0.0291880  0.0008218  1.7395201 -0.0010112  0.0013538  1.7395211 -0.0010123
  0.0297656  0.0008366  1.7396950 -0.0008955 -0.0007453  1.7396953 -0.0008958
  0.0291959  0.0002202  1.7458791  0.0008955  0.0013572  1.7458802  0.0008945
  0.0297735  0.0002242  1.7459413  0.0009775 -0.0007425  1.7459416  0.0009772
  0.0291757  0.0012621  1.7358194  0.0008902  0.0020413  1.7358218  0.0008878
  0.0291499  0.0018633  1.7295552 -0.0009911  0.0019289  1.7295574 -0.0009932
  0.0297533  0.0012851  1.7360399  0.0009107 -0.0000262  1.7360399  0.0009107
  0.0297275  0.0018979  1.7298928 -0.0009353 -0.0001349  1.7298928 -0.0009353
  0.0287595  0.0012455  1.7369948  0.0008734 -0.0000563  1.7369948  0.0008734
  0.0282001  0.0012234  1.7367848  0.0008618  0.0019462  1.7367870  0.0008596
  0.0287341  0.0018385  1.7310347 -0.0009169 -0.0001661  1.7310347 -0.0009169
  0.0281757  0.0018052  1.7307105 -0.0009628  0.0018362  1.7307125 -0.0009647
  0.0286647  0.0028645  1.7216410 -0.0009815  0.0004008  1.7216411 -0.0009816
  0.0287087  0.0022723  1.7274565  0.0007755  0.0006165  1.7274567  0.0007753
  0.0281099  0.0028097  1.7211429 -0.0009702  0.0023477  1.7211461 -0.0009734
  0.0281516  0.0022303  1.7270890  0.0008259  0.0025633  1.7270928  0.0008221
  0.0290793  0.0029053  1.7196249 -0.0009970  0.0024838  1.7196285 -0.0010006
  0.0296573  0.0029620  1.7201414 -0.0009972  0.0004641  1.7201415 -0.0009973
  0.0291241  0.0023036  1.7257973  0.0008670  0.0027081  1.7258016  0.0008627
  0.0297018  0.0023472  1.7261839  0.0008272  0.0006793  1.7261841  0.0008270
  0.0290373  0.0033455  1.7157765  0.0008320  0.0033666  1.7157831  0.0008254
  0.0289672  0.0039464  1.7097659 -0.0010074  0.0030021  1.7097712 -0.0010127
  0.0296156  0.0034136  1.7163439  0.0007102  0.0014086  1.7163451  0.0007090
  0.0295461  0.0040327  1.7105036 -0.0010758  0.0010633  1.7105043 -0.0010764
  0.0286235  0.0032966  1.7179906  0.0006175  0.0013002  1.7179916  0.0006165
  0.0280712  0.0032312  1.7174623  0.0007847  0.0031636  1.7174682  0.0007789
  0.0285549  0.0038849  1.7123949 -0.0011006  0.0009421  1.7123954 -0.0011012
  0.0280072  0.0038032  1.7117010 -0.0009826  0.0028045  1.7117056 -0.0009872
  0.0306890  0.0030580  1.7186102 -0.0010067  0.0005309  1.7186104 -0.0010069
  0.0307307  0.0024218  1.7248699  0.0008806  0.0007299  1.7248703  0.0008803
  0.0300886  0.0030029  1.7181058 -0.0010201  0.0026221  1.7181098 -0.0010241
  0.0301323  0.0023788  1.7244828  0.0009032  0.0028347  1.7244874  0.0008986
  0.0311349  0.0030962  1.7166130 -0.0010575  0.0027636  1.7166174 -0.0010619
  0.0317529  0.0031454  1.7170684 -0.0010310  0.0006051  1.7170686 -0.0010312
  0.0311748  0.0024522  1.7231809  0.0009201  0.0029509  1.7231860  0.0009151
  0.0317898  0.0024920  1.7235472  0.0009191  0.0007777  1.7235475  0.0009188
  0.0310997  0.0035708  1.7125708  0.0008936  0.0036763  1.7125787  0.0008857
  0.0310433  0.0042232  1.7060839 -0.0010725  0.0033908  1.7060907 -0.0010793
  0.0317212  0.0036264  1.7130506  0.0008157  0.0015222  1.7130520  0.0008143
  0.0316717  0.0042871  1.7066318 -0.0011272  0.0012654  1.7066327 -0.0011281
  0.0306514  0.0035268  1.7146606  0.0007920  0.0014500  1.7146618  0.0007908
  0.0300481  0.0034622  1.7141095  0.0009045  0.0035405  1.7141168  0.0008972
  0.0305903  0.0041711  1.7084397 -0.0011014  0.0011334  1.7084404 -0.0011022
  0.0299810  0.0040929  1.7077700 -0.0010284  0.0031922  1.7077759 -0.0010344
  0.0312218  0.0013419  1.7337883  0.0009372  0.0022096  1.7337911  0.0009344
  0.0311981  0.0019821  1.7271520 -0.0010542  0.0021176  1.7271546 -0.0010568
  0.0318345  0.0013642  1.7340121  0.0009896  0.0000174  1.7340121  0.0009896
  0.0318117  0.0020147  1.7274796 -0.0009707 -0.0000685  1.7274796 -0.0009707
  0.0307793  0.0013252  1.7350410  0.0009547 -0.0000058  1.7350410  0.0009547
  0.0301830  0.0013020  1.7348141  0.0009183  0.0021309  1.7348167  0.0009157
  0.0307549  0.0019575  1.7286952 -0.0009502 -0.0001041  1.7286952 -0.0009502
  0.0301576  0.0019231  1.7283547 -0.0010209  0.0020256  1.7283570 -0.0010232
  0.0307911  0.0008626  1.7388076 -0.0009191 -0.0007536  1.7388079 -0.0009194
  0.0307990  0.0002311  1.7452339  0.0010078 -0.0007535  1.7452342  0.0010075
  0.0301951  0.0008476  1.7386288 -0.0010430  0.0014072  1.7386299 -0.0010442
  0.0302030  0.0002271  1.7451690  0.0009180  0.0014075  1.7451701  0.0009169
  0.0312333  0.0008735  1.7377051 -0.0010720  0.0014555  1.7377064 -0.0010732
  0.0318456  0.0008881  1.7378822 -0.0009417 -0.0007600  1.7378825 -0.0009421
  0.0312412  0.0002340  1.7444279  0.0009438  0.0014529  1.7444292  0.0009426
  0.0318533  0.0002380  1.7444941  0.0010408 -0.0007637  1.7444944  0.0010405
  0.0329261  0.0009143  1.7369284 -0.0009662 -0.0007642  1.7369287 -0.0009665
  0.0329343  0.0002450  1.7437229  0.0010710 -0.0007695  1.7437233  0.0010707
  0.0322992  0.0008991  1.7367430 -0.0011064  0.0015029  1.7367443 -0.0011077
  0.0323069  0.0002409  1.7436529  0.0009654  0.0014965  1.7436542  0.0009641
  0.0333905  0.0009262  1.7357115 -0.0011397  0.0015465  1.7357128 -0.0011411
  0.0340323  0.0009435  1.7359188 -0.0009889 -0.0007742  1.7359192 -0.0009892
  0.0333990  0.0002482  1.7428382  0.0009971  0.0015412  1.7428396  0.0009957
  0.0340415  0.0002528  1.7429151  0.0011087 -0.0007775  1.7429155  0.0011083
  0.0333790  0.0014216  1.7315731  0.0009646  0.0023755  1.7315764  0.0009613
  0.0333561  0.0020969  1.7246034 -0.0011256  0.0023008  1.7246064 -0.0011287
  0.0340198  0.0014473  1.7318404  0.0010643  0.0001022  1.7318404  0.0010643
  0.0339948  0.0021332  1.7249795 -0.0009932  0.0000228  1.7249795 -0.0009932
  0.0329150  0.0014038  1.7329558  0.0010261  0.0000522  1.7329558  0.0010261
  0.0322882  0.0013808  1.7327192  0.0009478  0.0022891  1.7327222  0.0009448
  0.0328928  0.0020716  1.7262526 -0.0009846 -0.0000230  1.7262526 -0.0009846
  0.0322658  0.0020387  1.7259154 -0.0010930  0.0022111  1.7259182 -0.0010958
  0.0328099  0.0037160  1.7115229  0.0008709  0.0016226  1.7115244  0.0008694
  0.0321795  0.0036653  1.7110473  0.0008285  0.0038348  1.7110559  0.0008199
  0.0327693  0.0043841  1.7048931 -0.0011243  0.0014412  1.7048943 -0.0011256
  0.0321342  0.0043302  1.7043929 -0.0011749  0.0036356  1.7044007 -0.0011827
  0.0328374  0.0032273  1.7156103 -0.0010433  0.0007066  1.7156106 -0.0010436
  0.0328720  0.0025602  1.7222334  0.0009474  0.0008547  1.7222338  0.0009470
  0.0322091  0.0031805  1.7151650 -0.0011072  0.0029074  1.7151700 -0.0011121
  0.0322446  0.0025210  1.7218615  0.0009057  0.0030622  1.7218670  0.0009003
  0.0332999  0.0032622  1.7136595 -0.0011392  0.0030469  1.7136649 -0.0011446
  0.0339351  0.0033109  1.7141335 -0.0010423  0.0008154  1.7141339 -0.0010427
  0.0333349  0.0025901  1.7204558  0.0009022  0.0031892  1.7204618  0.0008962
  0.0339721  0.0026326  1.7208648  0.0009796  0.0009626  1.7208653  0.0009791
  0.0332728  0.0037533  1.7095133  0.0008132  0.0039650  1.7095225  0.0008040
  0.0332337  0.0044229  1.7028279 -0.0011964  0.0038014  1.7028363 -0.0012049
  0.0339070  0.0038045  1.7100020  0.0008938  0.0017559  1.7100038  0.0008920
  0.0338673  0.0044749  1.7033252 -0.0011134  0.0015908  1.7033267 -0.0011148
  0.0350008  0.0039111  1.7083769  0.0008945  0.0019582  1.7083791  0.0008923
  0.0343700  0.0038468  1.7077767  0.0007919  0.0041053  1.7077866  0.0007821
  0.0349515  0.0045781  1.7017865 -0.0010886  0.0017559  1.7017883 -0.0010905
  0.0343276  0.0045165  1.7011986 -0.0011867  0.0039277  1.7012077 -0.0011958
  0.0350368  0.0034141  1.7125949 -0.0010186  0.0009340  1.7125954 -0.0010191
  0.0350858  0.0027235  1.7193435  0.0010103  0.0011258  1.7193442  0.0010096
  0.0344004  0.0033516  1.7119890 -0.0011410  0.0031595  1.7119948 -0.0011469
  0.0344413  0.0026683  1.7188235  0.0009131  0.0033270  1.7188299  0.0009066
  0.0355053  0.0034715  1.7098761 -0.0011350  0.0032340  1.7098822 -0.0011411
  0.0361490  0.0035656  1.7107471 -0.0010469  0.0010226  1.7107478 -0.0010475
  0.0355633  0.0027728  1.7167774  0.0009510  0.0035068  1.7167846  0.0009438
  0.0362233  0.0028521  1.7174688  0.0009887  0.0013380  1.7174699  0.0009876
  0.0354619  0.0039701  1.7055365  0.0007635  0.0042914  1.7055473  0.0007527
  0.0354012  0.0046336  1.6993418 -0.0011077  0.0040393  1.6993514 -0.0011173
  0.0360907  0.0040671  1.7063681  0.0008842  0.0023160  1.7063712  0.0008811
  0.0360059  0.0047236  1.7001758 -0.0009915  0.0019822  1.7001782 -0.0009938
  0.0356345  0.0015313  1.7287454  0.0010381  0.0026058  1.7287493  0.0010342
  0.0355979  0.0022529  1.7212700 -0.0012082  0.0024446  1.7212735 -0.0012117
  0.0363099  0.0015761  1.7291707  0.0010985  0.0002506  1.7291707  0.0010985
  0.0362665  0.0023190  1.7219182 -0.0010814  0.0000742  1.7219182 -0.0010814
  0.0351478  0.0015026  1.7306054  0.0011010  0.0001728  1.7306054  0.0011009
  0.0344938  0.0014690  1.7302671  0.0009956  0.0024735  1.7302706  0.0009920
  0.0351155  0.0022113  1.7235797 -0.0010065  0.0000624  1.7235797 -0.0010065
  0.0344663  0.0021639  1.7230953 -0.0011558  0.0023759  1.7230986 -0.0011590
  0.0351639  0.0009804  1.7348266 -0.0010248 -0.0007927  1.7348270 -0.0010251
  0.0351755  0.0002627  1.7420691  0.0011465 -0.0007860  1.7420695  0.0011461
  0.0345075  0.0009580  1.7345669 -0.0011864  0.0015860  1.7345684 -0.0011878
  0.0345175  0.0002567  1.7419796  0.0010360  0.0015880  1.7419811  0.0010346
  0.0356526  0.0009994  1.7332752 -0.0012497  0.0016396  1.7332767 -0.0012513
  0.0363313  0.0010286  1.7336002 -0.0010848 -0.0008199  1.7336006 -0.0010852
  0.0356655  0.0002678  1.7410486  0.0010809  0.0016590  1.7410502  0.0010793
  0.0363463  0.0002756  1.7411515  0.0011791 -0.0007951  1.7411519  0.0011787
  0.0375401  0.0010901  1.7322205 -0.0011361 -0.0008129  1.7322209 -0.0011365
  0.0375583  0.0002921  1.7401427  0.0012386 -0.0007811  1.7401431  0.0012383
  0.0368371  0.0010529  1.7318137 -0.0013321  0.0017219  1.7318154 -0.0013338
  0.0368535  0.0002821  1.7400162  0.0011268  0.0017507  1.7400180  0.0011250
  0.0380669  0.0011195  1.7301586 -0.0014188  0.0018288  1.7301606 -0.0014207
  0.0388030  0.0011627  1.7306298 -0.0011876 -0.0008070  1.7306302 -0.0011880
  0.0380859  0.0003000  1.7388582  0.0011886  0.0018597  1.7388602  0.0011866
  0.0388229  0.0003115  1.7390062  0.0013229 -0.0007771  1.7390065  0.0013225
  0.0380397  0.0017169  1.7249690  0.0011113  0.0029926  1.7249742  0.0011061
  0.0379846  0.0025296  1.7166219 -0.0013959  0.0027767  1.7166264 -0.0014003
  0.0387751  0.0017837  1.7256161  0.0012651  0.0004502  1.7256163  0.0012649
  0.0387188  0.0026293  1.7175921 -0.0011450  0.0002459  1.7175922 -0.0011451
  0.0375142  0.0016713  1.7274979  0.0011161  0.0003487  1.7274980  0.0011160
  0.0368136  0.0016137  1.7269604  0.0010647  0.0027852  1.7269649  0.0010602
  0.0374613  0.0024614  1.7198898 -0.0011743  0.0001247  1.7198898 -0.0011743
  0.0367658  0.0023749  1.7190574 -0.0013140  0.0025636  1.7190613 -0.0013178
  0.0373022  0.0038110  1.7081819 -0.0012303  0.0010918  1.7081826 -0.0012310
  0.0374045  0.0030347  1.7150396  0.0008827  0.0015699  1.7150411  0.0008812
  0.0366305  0.0036566  1.7068463 -0.0012375  0.0032873  1.7068526 -0.0012439
  0.0367167  0.0029223  1.7141344  0.0010015  0.0037588  1.7141427  0.0009933
  0.0378181  0.0039283  1.7028173 -0.0014317  0.0036473  1.7028251 -0.0014395
  0.0385561  0.0040942  1.7043398 -0.0012130  0.0011750  1.7043406 -0.0012138
  0.0379253  0.0031221  1.7110655  0.0010792  0.0041362  1.7110755  0.0010692
  0.0386601  0.0032484  1.7122315  0.0011868  0.0016154  1.7122330  0.0011853
  0.0377052  0.0044978  1.6969694  0.0011290  0.0051505  1.6969851  0.0011133
  0.0375036  0.0052475  1.6902948 -0.0012162  0.0040427  1.6903045 -0.0012258
  0.0384380  0.0047467  1.6984586  0.0005257  0.0033967  1.6984654  0.0005189
  0.0382191  0.0056837  1.6929695 -0.0013665  0.0025504  1.6929733 -0.0013703
  0.0372011  0.0043424  1.7031071  0.0004609  0.0030374  1.7031125  0.0004555
  0.0365568  0.0041669  1.7020609  0.0007478  0.0045726  1.7020732  0.0007355
  0.0370273  0.0050178  1.6980814 -0.0012149  0.0023385  1.6980846 -0.0012181
  0.0364416  0.0048266  1.6966899 -0.0009859  0.0039773  1.6966992 -0.0009952
  0.0398389  0.0050422  1.6944723  0.0016820  0.0029050  1.6944773  0.0016770
  0.0390097  0.0048926  1.6928928  0.0012890  0.0060144  1.6929142  0.0012676
  0.0397658  0.0059853  1.6848800 -0.0012024  0.0026112  1.6848840 -0.0012065
  0.0388253  0.0058814  1.6840213 -0.0013874  0.0054046  1.6840387 -0.0014047
  0.0398967  0.0043683  1.7012381 -0.0011499  0.0013376  1.7012391 -0.0011510
  0.0399815  0.0034701  1.7093067  0.0012994  0.0017215  1.7093084  0.0012977
  0.0391131  0.0042121  1.6999139 -0.0012782  0.0037974  1.6999223 -0.0012867
  0.0392111  0.0033417  1.7081876  0.0012391  0.0042435  1.7081981  0.0012286
  0.0404725  0.0044687  1.6961533 -0.0015995  0.0043520  1.6961645 -0.0016107
  0.0412617  0.0045866  1.6973347 -0.0012028  0.0016152  1.6973362 -0.0012044
  0.0405490  0.0035673  1.7049605  0.0010385  0.0045953  1.7049728  0.0010261
  0.0413287  0.0037043  1.7063585  0.0015005  0.0018362  1.7063604  0.0014985
  0.0404348  0.0051341  1.6903106  0.0009753  0.0059106  1.6903313  0.0009546
  0.0404084  0.0060507  1.6814285 -0.0016812  0.0059286  1.6814494 -0.0017021
  0.0412336  0.0052353  1.6914278  0.0015667  0.0030466  1.6914333  0.0015612
  0.0412237  0.0061255  1.6822446 -0.0011850  0.0031219  1.6822504 -0.0011908
  0.0406658  0.0019843  1.7199574  0.0012233  0.0033446  1.7199639  0.0012168
  0.0406008  0.0029016  1.7111240 -0.0014153  0.0031868  1.7111299 -0.0014212
  0.0414664  0.0020969  1.7210367  0.0016804  0.0007628  1.7210370  0.0016801
  0.0413836  0.0030372  1.7124655 -0.0008771  0.0005581  1.7124657 -0.0008773
  0.0400921  0.0019145  1.7235335  0.0014345  0.0005125  1.7235336  0.0014343
  0.0393250  0.0018367  1.7227629  0.0012050  0.0031714  1.7227687  0.0011991
  0.0400339  0.0028126  1.7149403 -0.0011435  0.0003169  1.7149404 -0.0011436
  0.0392678  0.0027052  1.7138790 -0.0014602  0.0029659  1.7138841 -0.0014654
  0.0401216  0.0012507  1.7289134 -0.0011938 -0.0007974  1.7289137 -0.0011941
  0.0401443  0.0003351  1.7377673  0.0014585 -0.0007809  1.7377677  0.0014581
  0.0393536  0.0011978  1.7283337 -0.0015049  0.0019243  1.7283358 -0.0015070
  0.0393744  0.0003210  1.7375792  0.0012648  0.0019383  1.7375814  0.0012627
  0.0406995  0.0013001  1.7259626 -0.0016414  0.0019815  1.7259649 -0.0016436
  0.0415101  0.0013824  1.7268576 -0.0011961 -0.0009117  1.7268580 -0.0011966
  0.0407263  0.0003484  1.7361649  0.0014131  0.0019981  1.7361673  0.0014108
  0.0415465  0.0003704  1.7364429  0.0016720 -0.0008700  1.7364433  0.0016716
  0.0430195  0.0016315  1.7239106 -0.0014171 -0.0010986  1.7239113 -0.0014178
  0.0430539  0.0004372  1.7348836  0.0018730 -0.0010106  1.7348842  0.0018725
  0.0421317  0.0014711  1.7222765 -0.0019556  0.0020406  1.7222789 -0.0019580
  0.0421702  0.0003942  1.7344262  0.0016869  0.0021673  1.7344289  0.0016842
  0.0436943  0.0017537  1.7170492 -0.0026968  0.0027420  1.7170536 -0.0027011
  0.0446501  0.0019271  1.7191662 -0.0012985 -0.0009085  1.7191667 -0.0012990
  0.0437203  0.0004699  1.7325178  0.0019204  0.0024096  1.7325211  0.0019170
  0.0446571  0.0005164  1.7332974  0.0029356 -0.0012877  1.7332984  0.0029346
  0.0436256  0.0026569  1.7070223  0.0017312  0.0045640  1.7070345  0.0017190
  0.0434638  0.0038408  1.6952717 -0.0017758  0.0040524  1.6952814 -0.0017855
  0.0446317  0.0030097  1.7102823  0.0028123  0.0013302  1.7102833  0.0028112
  0.0445884  0.0045566  1.7003117 -0.0001757  0.0012754  1.7003127 -0.0001767
  0.0429408  0.0024454  1.7169052  0.0014565  0.0014558  1.7169064  0.0014553
  0.0420760  0.0022205  1.7152726  0.0011521  0.0037162  1.7152807  0.0011440
  0.0427601  0.0034749  1.7092126 -0.0008896  0.0009000  1.7092130 -0.0008901
  0.0419622  0.0031908  1.7068316 -0.0014083  0.0032777  1.7068379 -0.0014146
  0.0424250  0.0053445  1.6881091  0.0010200  0.0034368  1.6881161  0.0010130
  0.0417668  0.0052917  1.6874212  0.0005892  0.0061226  1.6874434  0.0005670
  0.0425714  0.0060986  1.6797697 -0.0015292  0.0040961  1.6797797 -0.0015391
  0.0418032  0.0061383  1.6800365 -0.0016354  0.0063169  1.6800602 -0.0016591
  0.0424396  0.0048113  1.6951854  0.0000895  0.0019015  1.6951876  0.0000874
  0.0426258  0.0041088  1.7027340  0.0021398  0.0022977  1.7027371  0.0021367
  0.0417888  0.0046784  1.6934471 -0.0012027  0.0045053  1.6934591 -0.0012147
  0.0418852  0.0038494  1.7004004  0.0007971  0.0045047  1.7004124  0.0007851
  0.0428220  0.0051335  1.6905583  0.0007935  0.0053302  1.6905751  0.0007767
  0.0432160  0.0058810  1.6860527 -0.0019960  0.0071231  1.6860828 -0.0020261
  0.0432485  0.0045044  1.6876592  0.0014904  0.0054085  1.6876765  0.0014731
  0.0442090  0.0053259  1.6852970 -0.0007004  0.0066628  1.6853233 -0.0007267
  0.0427909  0.0078385  1.6651664 -0.0017638  0.0049057  1.6651808 -0.0017782
  0.0426694  0.0067669  1.6747869  0.0011755  0.0043441  1.6747982  0.0011642
  0.0418805  0.0077709  1.6644106 -0.0023990  0.0078429  1.6644475 -0.0024359
  0.0418337  0.0068026  1.6750245  0.0008101  0.0074641  1.6750578  0.0007769
  0.0435206  0.0078655  1.6625475 -0.0039948  0.0086804  1.6625927 -0.0040400
  0.0446036  0.0078714  1.6631384 -0.0022326  0.0042998  1.6631495 -0.0022437
  0.0434032  0.0066130  1.6796676  0.0013437  0.0072897  1.6796993  0.0013120
  0.0445721  0.0062281  1.6764586  0.0017956  0.0035619  1.6764662  0.0017880
  0.0435182  0.0087638  1.6520175  0.0011110  0.0101147  1.6520795  0.0010490
  0.0433941  0.0099656  1.6393992 -0.0026923  0.0095924  1.6394553 -0.0027484
  0.0446029  0.0090544  1.6546069  0.0017526  0.0066873  1.6546340  0.0017255
  0.0445697  0.0106431  1.6443992 -0.0013126  0.0065586  1.6444254 -0.0013387
  0.0427887  0.0086071  1.6601930  0.0009044  0.0063728  1.6602174  0.0008799
  0.0418807  0.0084696  1.6590343  0.0003881  0.0089322  1.6590824  0.0003400
  0.0426612  0.0096353  1.6521240 -0.0014931  0.0060940  1.6521465 -0.0015155
  0.0418343  0.0094103  1.6499318 -0.0023322  0.0088561  1.6499793 -0.0023797
  0.0404064  0.0076590  1.6671150 -0.0020168  0.0075356  1.6671491 -0.0020508
  0.0412416  0.0077228  1.6678444 -0.0013993  0.0047815  1.6678581 -0.0014130
  0.0404008  0.0067273  1.6759491  0.0006361  0.0073441  1.6759813  0.0006039
  0.0412258  0.0067920  1.6767045  0.0012663  0.0045557  1.6767168  0.0012539
  0.0404180  0.0083296  1.6619891  0.0003491  0.0085365  1.6620330  0.0003052
  0.0404439  0.0092298  1.6532632 -0.0022833  0.0088206  1.6533102 -0.0023303
  0.0412454  0.0083952  1.6627424  0.0010217  0.0058497  1.6627630  0.0010011
  0.0412401  0.0093016  1.6541329 -0.0015581  0.0060258  1.6541549 -0.0015801
  0.0398241  0.0083083  1.6637539  0.0009949  0.0052538  1.6637705  0.0009783
  0.0390290  0.0083158  1.6635649  0.0001493  0.0078958  1.6636024  0.0001118
  0.0398679  0.0091974  1.6553180 -0.0015791  0.0057372  1.6553378 -0.0015990
  0.0390904  0.0091807  1.6548849 -0.0025188  0.0084586  1.6549281 -0.0025619
  0.0397935  0.0076337  1.6696009 -0.0016379  0.0044126  1.6696126 -0.0016496
  0.0397536  0.0066797  1.6797141  0.0014243  0.0040043  1.6797237  0.0014147
  0.0389540  0.0076281  1.6693316 -0.0023475  0.0076982  1.6693670 -0.0023829
  0.0388103  0.0066144  1.6789429  0.0006268  0.0069760  1.6789719  0.0005978
  0.0404676  0.0107282  1.6392787 -0.0025924  0.0096070  1.6393349 -0.0026486
  0.0412299  0.0107933  1.6400995 -0.0019133  0.0068133  1.6401278 -0.0019416
  0.0404572  0.0098725  1.6479545  0.0000161  0.0093882  1.6480080 -0.0000374
  0.0412360  0.0099442  1.6488101  0.0006964  0.0066526  1.6488370  0.0006696
  0.0404754  0.0113492  1.6340109 -0.0002345  0.0105969  1.6340796 -0.0003032
  0.0404864  0.0121898  1.6257365 -0.0027235  0.0108350  1.6258086 -0.0027956
  0.0412347  0.0114109  1.6347845  0.0004753  0.0079282  1.6348230  0.0004368
  0.0412539  0.0122489  1.6264696 -0.0020311  0.0081962  1.6265108 -0.0020724
  0.0399200  0.0113074  1.6368144  0.0003978  0.0076521  1.6368502  0.0003620
  0.0391617  0.0112551  1.6361604 -0.0002241  0.0102694  1.6362249 -0.0002886
  0.0399276  0.0121452  1.6286969 -0.0020416  0.0078565  1.6287348 -0.0020794
  0.0391686  0.0120823  1.6279401 -0.0026941  0.0104743  1.6280074 -0.0027613
  0.0399102  0.0106885  1.6418242 -0.0019123  0.0066983  1.6418515 -0.0019396
  0.0398909  0.0098351  1.6502700  0.0006331  0.0064326  1.6502950  0.0006080
  0.0391494  0.0106449  1.6412253 -0.0025661  0.0094132  1.6412792 -0.0026200
  0.0391227  0.0098048  1.6498135  0.0000270  0.0091152  1.6498639 -0.0000233
  0.0423998  0.0114829  1.6320632 -0.0001072  0.0084938  1.6321074 -0.0001514
  0.0417503  0.0114467  1.6315585 -0.0005586  0.0110490  1.6316333 -0.0006334
  0.0425609  0.0122115  1.6243368 -0.0024952  0.0092122  1.6243890 -0.0025474
  0.0418098  0.0122547  1.6246043 -0.0026659  0.0113380  1.6246833 -0.0027449
  0.0423986  0.0109616  1.6387479 -0.0008032  0.0070723  1.6387784 -0.0008337
  0.0425566  0.0102662  1.6462915  0.0012543  0.0073296  1.6463242  0.0012217
  0.0417473  0.0108559  1.6372273 -0.0021558  0.0097686  1.6372855 -0.0022140
  0.0417985  0.0100497  1.6442579 -0.0000999  0.0096032  1.6443140 -0.0001560
  0.0427878  0.0112657  1.6345422 -0.0003749  0.0104961  1.6346096 -0.0004422
  0.0431997  0.0119905  1.6306769 -0.0031290  0.0122396  1.6307686 -0.0032207
  0.0431984  0.0106360  1.6321682  0.0005004  0.0107712  1.6322393  0.0004293
  0.0441937  0.0114299  1.6301334 -0.0017010  0.0119220  1.6302205 -0.0017881
  0.0404835  0.0136647  1.6126972 -0.0029879  0.0121407  1.6127885 -0.0030791
  0.0412727  0.0137541  1.6135944 -0.0024327  0.0096479  1.6136520 -0.0024903
  0.0404885  0.0128103  1.6207000 -0.0005890  0.0120329  1.6207893 -0.0006783
  0.0412641  0.0128768  1.6214144 -0.0000836  0.0094995  1.6214700 -0.0001393
  0.0404698  0.0142875  1.6077585 -0.0010560  0.0131619  1.6078662 -0.0011637
  0.0404376  0.0151349  1.5999880 -0.0033772  0.0131582  1.6000960 -0.0034852
  0.0412605  0.0143923  1.6087638 -0.0005205  0.0106989  1.6088350 -0.0005916
  0.0412184  0.0152588  1.6011885 -0.0027807  0.0106675  1.6012594 -0.0028517
  0.0399008  0.0142150  1.6110872 -0.0006172  0.0101423  1.6111511 -0.0006810
  0.0391368  0.0141217  1.6101920 -0.0009905  0.0126128  1.6102907 -0.0010892
  0.0398715  0.0150512  1.6034994 -0.0028896  0.0100928  1.6035628 -0.0029530
  0.0391060  0.0149465  1.6025045 -0.0032924  0.0125564  1.6026027 -0.0033906
  0.0399155  0.0136010  1.6160180 -0.0023571  0.0091057  1.6160693 -0.0024084
  0.0399264  0.0127598  1.6237429 -0.0000439  0.0090169  1.6237930 -0.0000940
  0.0391529  0.0135166  1.6151358 -0.0029173  0.0115986  1.6152189 -0.0030005
  0.0391663  0.0126883  1.6229761 -0.0005706  0.0115169  1.6230578 -0.0006522
  0.0427874  0.0139049  1.6106878 -0.0028050  0.0099125  1.6107487 -0.0028659
  0.0426648  0.0128605  1.6196147 -0.0000712  0.0093638  1.6196688 -0.0001254
  0.0418901  0.0138184  1.6097861 -0.0034980  0.0126986  1.6098861 -0.0035979
  0.0418472  0.0128902  1.6197743 -0.0004770  0.0123325  1.6198682 -0.0005709
  0.0435140  0.0139447  1.6076989 -0.0051584  0.0137860  1.6078167 -0.0052762
  0.0446018  0.0139671  1.6085175 -0.0031970  0.0094744  1.6085732 -0.0032527
  0.0433943  0.0127083  1.6244192  0.0000827  0.0123275  1.6245128 -0.0000108
  0.0445698  0.0123224  1.6213374  0.0006837  0.0086987  1.6213841  0.0006371
  0.0435064  0.0148311  1.5973495 -0.0002327  0.0150537  1.5974913 -0.0003745
  0.0433660  0.0160165  1.5853489 -0.0038695  0.0144375  1.5854800 -0.0040006
  0.0445998  0.0151489  1.6000661  0.0003336  0.0117112  1.6001518  0.0002479
  0.0445622  0.0167329  1.5903318 -0.0025926  0.0115337  1.5904153 -0.0026761
  0.0427773  0.0146547  1.6058846 -0.0006254  0.0113433  1.6059647 -0.0007055
  0.0418788  0.0144907  1.6046410 -0.0009938  0.0137300  1.6047584 -0.0011112
  0.0426272  0.0156591  1.5985801 -0.0028174  0.0109594  1.5986551 -0.0028924
  0.0418052  0.0153993  1.5962943 -0.0034982  0.0134911  1.5964081 -0.0036120
  0.0403581  0.0165902  1.5867660 -0.0038114  0.0138517  1.5868866 -0.0039320
  0.0411298  0.0167152  1.5879893 -0.0034036  0.0112346  1.5880686 -0.0034830
  0.0404076  0.0157519  1.5948001 -0.0014038  0.0140011  1.5949229 -0.0015267
  0.0411834  0.0158812  1.5960513 -0.0009879  0.0113991  1.5961327 -0.0010693
  0.0403201  0.0172049  1.5813547 -0.0017562  0.0150904  1.5814985 -0.0019000
  0.0402661  0.0180462  1.5735771 -0.0040847  0.0149433  1.5737187 -0.0042262
  0.0410971  0.0173287  1.5825509 -0.0013286  0.0125062  1.5826497 -0.0014273
  0.0410614  0.0181708  1.5747270 -0.0036726  0.0124182  1.5748247 -0.0037703
  0.0397534  0.0171125  1.5855935 -0.0014193  0.0120914  1.5856856 -0.0015114
  0.0389820  0.0169836  1.5844365 -0.0017010  0.0145555  1.5845701 -0.0018346
  0.0396905  0.0179495  1.5780900 -0.0036755  0.0118676  1.5781791 -0.0037645
  0.0389136  0.0178097  1.5768543 -0.0039814  0.0143090  1.5769838 -0.0041109
  0.0397942  0.0164999  1.5907746 -0.0033553  0.0108638  1.5908487 -0.0034293
  0.0398430  0.0156635  1.5985082 -0.0010345  0.0110271  1.5985842 -0.0011105
  0.0390255  0.0163784  1.5896468 -0.0036806  0.0133692  1.5897589 -0.0037928
  0.0390762  0.0155512  1.5974603 -0.0013357  0.0135422  1.5975750 -0.0014504
  0.0422991  0.0174781  1.5791551 -0.0016862  0.0131086  1.5792638 -0.0017949
  0.0416274  0.0174018  1.5782674 -0.0020937  0.0157075  1.5784235 -0.0022498
  0.0424343  0.0182228  1.5715185 -0.0040035  0.0136491  1.5716368 -0.0041217
  0.0416424  0.0182181  1.5714429 -0.0041434  0.0158014  1.5716014 -0.0043018
  0.0423178  0.0169564  1.5858741 -0.0022717  0.0116841  1.5859601 -0.0023576
  0.0425041  0.0162759  1.5928278 -0.0003710  0.0120956  1.5929196 -0.0004629
  0.0416549  0.0168133  1.5840990 -0.0034962  0.0142492  1.5842269 -0.0036240
  0.0417452  0.0160216  1.5906294 -0.0016093  0.0142672  1.5907572 -0.0017371
  0.0427076  0.0172829  1.5811196 -0.0017889  0.0153051  1.5812676 -0.0019369
  0.0431097  0.0180319  1.5766481 -0.0047873  0.0172298  1.5768358 -0.0049750
  0.0431519  0.0166735  1.5784903 -0.0007192  0.0154585  1.5786416 -0.0008705
  0.0441629  0.0175054  1.5761032 -0.0031701  0.0167796  1.5762815 -0.0033483
  0.0425877  0.0199700  1.5579349 -0.0046302  0.0142196  1.5580643 -0.0047596
  0.0425116  0.0188905  1.5667706 -0.0019769  0.0139868  1.5668953 -0.0021016
  0.0416184  0.0198194  1.5566752 -0.0050436  0.0170328  1.5568610 -0.0052293
  0.0416400  0.0188659  1.5665062 -0.0020953  0.0170940  1.5666925 -0.0022816
  0.0433773  0.0200482  1.5537104 -0.0069088  0.0186868  1.5539341 -0.0071325
  0.0445652  0.0201111  1.5549533 -0.0048014  0.0142154  1.5550829 -0.0049310
  0.0432891  0.0187728  1.5704776 -0.0017206  0.0174025  1.5706702 -0.0019132
  0.0445416  0.0184265  1.5677705 -0.0009318  0.0134784  1.5678863 -0.0010476
  0.0433290  0.0209718  1.5431400 -0.0017258  0.0199754  1.5433982 -0.0019840
  0.0431089  0.0222199  1.5311640 -0.0055434  0.0187503  1.5313928 -0.0057722
  0.0445523  0.0213387  1.5459835 -0.0020247  0.0163472  1.5461561 -0.0021973
  0.0444933  0.0230082  1.5359711 -0.0050662  0.0158113  1.5361333 -0.0052284
  0.0425237  0.0207510  1.5525085 -0.0029952  0.0162977  1.5526792 -0.0031659
  0.0415468  0.0205146  1.5511806 -0.0026317  0.0185105  1.5514011 -0.0028522
  0.0422728  0.0218052  1.5458854 -0.0051644  0.0154563  1.5460394 -0.0053185
  0.0413727  0.0214603  1.5435769 -0.0050750  0.0176851  1.5437788 -0.0052769
  0.0401304  0.0195363  1.5607739 -0.0044325  0.0161379  1.5609403 -0.0045988
  0.0409599  0.0197032  1.5620667 -0.0042578  0.0137828  1.5621879 -0.0043790
  0.0402152  0.0186709  1.5682690 -0.0021609  0.0164854  1.5684420 -0.0023340
  0.0410247  0.0188070  1.5693706 -0.0020501  0.0140555  1.5694963 -0.0021758
  0.0400497  0.0201693  1.5554102 -0.0027294  0.0176051  1.5556091 -0.0029283
  0.0399141  0.0210334  1.5483589 -0.0049110  0.0170567  1.5485461 -0.0050982
  0.0408839  0.0203587  1.5567630 -0.0027156  0.0153546  1.5569141 -0.0028668
  0.0407407  0.0212535  1.5499633 -0.0048206  0.0148185  1.5501045 -0.0049618
  0.0394574  0.0200338  1.5603840 -0.0029121  0.0145358  1.5605191 -0.0030473
  0.0386734  0.0198530  1.5591247 -0.0026577  0.0167067  1.5593033 -0.0028364
  0.0393254  0.0208790  1.5536677 -0.0050306  0.0139153  1.5537919 -0.0051548
  0.0385437  0.0206771  1.5522410 -0.0048298  0.0160678  1.5524068 -0.0049956
  0.0395399  0.0194141  1.5657678 -0.0041827  0.0130255  1.5658759 -0.0042907
  0.0396333  0.0185662  1.5727970 -0.0020434  0.0134028  1.5729111 -0.0021575
  0.0387563  0.0192472  1.5644540 -0.0043176  0.0153029  1.5646033 -0.0044669
  0.0388531  0.0184163  1.5716096 -0.0021382  0.0157027  1.5717663 -0.0022948
  0.0395966  0.0225220  1.5348743 -0.0056233  0.0174562  1.5350721 -0.0058211
  0.0404228  0.0227790  1.5367447 -0.0059447  0.0151295  1.5368931 -0.0060930
  0.0397927  0.0216638  1.5423576 -0.0031633  0.0184110  1.5425769 -0.0033825
  0.0406172  0.0219020  1.5440943 -0.0035349  0.0160500  1.5442607 -0.0037013
  0.0394174  0.0231331  1.5284515 -0.0034507  0.0191385  1.5286906 -0.0036897
  0.0391238  0.0239442  1.5225903 -0.0059791  0.0176099  1.5227932 -0.0061819
  0.0402358  0.0234665  1.5298307 -0.0048907  0.0177191  1.5300352 -0.0050953
  0.0399191  0.0244677  1.5249111 -0.0069345  0.0165046  1.5250889 -0.0071123
  0.0388511  0.0229119  1.5357407 -0.0047295  0.0167787  1.5359234 -0.0049122
  0.0381222  0.0226410  1.5346558 -0.0037646  0.0180164  1.5348667 -0.0039756
  0.0385887  0.0236517  1.5312784 -0.0065527  0.0157191  1.5314391 -0.0067133
  0.0379220  0.0233760  1.5299382 -0.0055766  0.0170190  1.5301268 -0.0057652
  0.0390168  0.0223341  1.5418511 -0.0059209  0.0145950  1.5419887 -0.0060585
  0.0392074  0.0214953  1.5480767 -0.0037987  0.0155143  1.5482318 -0.0039538
  0.0382590  0.0220775  1.5402163 -0.0053401  0.0165107  1.5403927 -0.0055165
  0.0384327  0.0212732  1.5467471 -0.0031271  0.0174502  1.5469435 -0.0033235
  0.0416658  0.0237867  1.5250727 -0.0037479  0.0172104  1.5252664 -0.0039416
  0.0408382  0.0236416  1.5235859 -0.0034109  0.0206416  1.5238649 -0.0036899
  0.0417309  0.0246756  1.5155980 -0.0065356  0.0171667  1.5157916 -0.0067291
  0.0406177  0.0246637  1.5157132 -0.0059056  0.0198135  1.5159711 -0.0061635
  0.0417558  0.0231928  1.5334965 -0.0049076  0.0159757  1.5336624 -0.0050735
  0.0420670  0.0224595  1.5393085 -0.0030013  0.0169783  1.5394954 -0.0031882
  0.0410014  0.0229587  1.5317030 -0.0050316  0.0181031  1.5319162 -0.0052448
  0.0412266  0.0221152  1.5372717 -0.0032626  0.0187621  1.5375002 -0.0034911
  0.0421926  0.0235940  1.5267726 -0.0038648  0.0200864  1.5270361 -0.0041284
  0.0426315  0.0244558  1.5216766 -0.0073337  0.0223461  1.5220031 -0.0076602
  0.0428044  0.0229225  1.5240435 -0.0018228  0.0201229  1.5243089 -0.0020881
  0.0439786  0.0238434  1.5211718 -0.0049871  0.0217603  1.5214820 -0.0052973
  0.0381919  0.0246467  1.5211947 -0.0064445  0.0159971  1.5213622 -0.0066120
  0.0384121  0.0241165  1.5261411 -0.0046912  0.0169526  1.5263288 -0.0048789
  0.0376487  0.0245388  1.5204106 -0.0060026  0.0177201  1.5206163 -0.0062083
  0.0377951  0.0238845  1.5248041 -0.0045546  0.0182843  1.5250227 -0.0047731
  0.0384975  0.0248857  1.5180700 -0.0053333  0.0183273  1.5182905 -0.0055538
  0.0387893  0.0254309  1.5149814 -0.0076429  0.0198143  1.5152392 -0.0079007
  0.0388773  0.0244138  1.5163752 -0.0040314  0.0185468  1.5166014 -0.0042576
  0.0395315  0.0249941  1.5145244 -0.0060871  0.0195938  1.5147768 -0.0063396
  0.0381561  0.0250510  1.5161340 -0.0049487  0.0167780  1.5163191 -0.0051338
  0.0376032  0.0250308  1.5158756 -0.0050748  0.0190976  1.5161153 -0.0053145
  0.0382785  0.0256256  1.5093507 -0.0069943  0.0173027  1.5095481 -0.0071917
  0.0376252  0.0257208  1.5101198 -0.0068028  0.0191783  1.5103622 -0.0070453
  0.0385284  0.0267825  1.4976527 -0.0074216  0.0194701  1.4979046 -0.0076734
  0.0383783  0.0260896  1.5057280 -0.0045752  0.0181159  1.5059453 -0.0047924
  0.0378875  0.0270620  1.4999449 -0.0083269  0.0214642  1.5002503 -0.0086323
  0.0377014  0.0262651  1.5069007 -0.0058473  0.0202590  1.5071720 -0.0061185
  0.0390472  0.0266925  1.4988716 -0.0083352  0.0210004  1.4991642 -0.0086278
  0.0398237  0.0267261  1.4995626 -0.0072551  0.0177204  1.4997710 -0.0074635
  0.0389366  0.0259150  1.5105489 -0.0046774  0.0200032  1.5108129 -0.0049415
  0.0397851  0.0256137  1.5079648 -0.0047073  0.0173164  1.5081630 -0.0049055
  0.0388562  0.0271942  1.4944007 -0.0032899  0.0209549  1.4946939 -0.0035830
  0.0382239  0.0277874  1.4925435 -0.0079316  0.0192906  1.4927915 -0.0081795
  0.0396018  0.0276261  1.4932781 -0.0080733  0.0217381  1.4935928 -0.0083880
  0.0389567  0.0289725  1.4923228 -0.0099315  0.0204031  1.4925998 -0.0102085
  0.0417782  0.0278620  1.4906761 -0.0052577  0.0198898  1.4909405 -0.0055221
  0.0403847  0.0278050  1.4904759 -0.0040237  0.0252322  1.4909018 -0.0044495
  0.0415717  0.0294271  1.4761143 -0.0097878  0.0187485  1.4763508 -0.0100243
  0.0398538  0.0294119  1.4763533 -0.0086509  0.0231593  1.4767144 -0.0090119
  0.0418329  0.0268056  1.5000751 -0.0080333  0.0178017  1.5002852 -0.0082434
  0.0417757  0.0254846  1.5104434 -0.0049541  0.0179222  1.5106553 -0.0051660
  0.0405702  0.0267564  1.4999120 -0.0073756  0.0213465  1.5002143 -0.0076778
  0.0405459  0.0254983  1.5107980 -0.0041245  0.0215642  1.5111049 -0.0044314
  0.0428667  0.0267809  1.4985439 -0.0093783  0.0236821  1.4989157 -0.0097501
  0.0444284  0.0266643  1.4978474 -0.0082650  0.0184136  1.4980725 -0.0084900
  0.0428121  0.0253098  1.5156013 -0.0042060  0.0228893  1.5159459 -0.0045507
  0.0444138  0.0248460  1.5117828 -0.0040747  0.0179070  1.5119943 -0.0042862
  0.0428613  0.0278859  1.4889755 -0.0048549  0.0262043  1.4894350 -0.0053144
  0.0427921  0.0294335  1.4747613 -0.0091317  0.0258731  1.4752123 -0.0095827
  0.0444269  0.0278941  1.4889559 -0.0051574  0.0209907  1.4892508 -0.0054522
  0.0444084  0.0294357  1.4746863 -0.0094416  0.0208213  1.4749783 -0.0097336
  0.0363210  0.0273892  1.4994459 -0.0083956  0.0210250  1.4997390 -0.0086887
  0.0372960  0.0272246  1.4988748 -0.0071108  0.0189416  1.4991130 -0.0073490
  0.0363113  0.0263831  1.5061886 -0.0063576  0.0203959  1.5064636 -0.0066326
  0.0371476  0.0263437  1.5064119 -0.0045563  0.0178331  1.5066223 -0.0047668
  0.0363777  0.0282314  1.4910207 -0.0057168  0.0216410  1.4913336 -0.0060296
  0.0365229  0.0295261  1.4772500 -0.0100690  0.0229369  1.4776037 -0.0104226
  0.0375597  0.0280653  1.4896464 -0.0040028  0.0165862  1.4898306 -0.0041870
  0.0381317  0.0294816  1.4774774 -0.0083476  0.0189351  1.4777186 -0.0085889
  0.0354954  0.0282244  1.4921798 -0.0057611  0.0169939  1.4923726 -0.0059539
  0.0342669  0.0280390  1.4907228 -0.0045126  0.0215642  1.4910337 -0.0048235
  0.0353514  0.0295242  1.4794933 -0.0097437  0.0158907  1.4796628 -0.0099132
  0.0337599  0.0294745  1.4796069 -0.0083362  0.0196778  1.4798670 -0.0085964
  0.0355820  0.0273697  1.5008972 -0.0085551  0.0156062  1.5010585 -0.0087164
  0.0356749  0.0263346  1.5084806 -0.0061196  0.0165309  1.5086610 -0.0063000
  0.0345382  0.0271516  1.5000273 -0.0072338  0.0178098  1.5002377 -0.0074443
  0.0347726  0.0261628  1.5076122 -0.0045390  0.0191081  1.5078536 -0.0047804
  0.0364107  0.0249042  1.5175709 -0.0046116  0.0188725  1.5178048 -0.0048455
  0.0363353  0.0257172  1.5109850 -0.0065994  0.0186086  1.5112131 -0.0068276
  0.0371355  0.0249915  1.5183342 -0.0045155  0.0165318  1.5185136 -0.0046949
  0.0371046  0.0257454  1.5111773 -0.0066683  0.0163745  1.5113539 -0.0068450
  0.0358638  0.0248133  1.5211020 -0.0045875  0.0160351  1.5212705 -0.0047560
  0.0350941  0.0246523  1.5199434 -0.0042887  0.0182771  1.5201625 -0.0045078
  0.0357504  0.0256496  1.5143102 -0.0067154  0.0154577  1.5144673 -0.0068725
  0.0349216  0.0254931  1.5133524 -0.0063984  0.0175585  1.5135552 -0.0066013
  0.0359561  0.0242252  1.5263803 -0.0062193  0.0146100  1.5265196 -0.0063586
  0.0360952  0.0234548  1.5327469 -0.0041650  0.0153168  1.5328995 -0.0043177
  0.0352145  0.0240603  1.5253176 -0.0057932  0.0166056  1.5254976 -0.0059733
  0.0353707  0.0232839  1.5315832 -0.0037553  0.0173458  1.5317791 -0.0039512
  0.0364859  0.0243307  1.5223817 -0.0059677  0.0172631  1.5225766 -0.0061627
  0.0371916  0.0244541  1.5231816 -0.0064733  0.0152195  1.5233330 -0.0066248
  0.0366158  0.0235770  1.5284847 -0.0040067  0.0179192  1.5286942 -0.0042162
  0.0373138  0.0237400  1.5296259 -0.0044036  0.0159096  1.5297909 -0.0045686
  0.0337905  0.0242865  1.5233118 -0.0040640  0.0173373  1.5235085 -0.0042608
  0.0335501  0.0250670  1.5174890 -0.0062275  0.0162040  1.5176613 -0.0063998
  0.0345386  0.0245111  1.5245402 -0.0050136  0.0155507  1.5246983 -0.0051716
  0.0343320  0.0253370  1.5188710 -0.0070452  0.0145551  1.5190098 -0.0071840
  0.0332678  0.0241158  1.5284856 -0.0052235  0.0150112  1.5286325 -0.0053704
  0.0325880  0.0238740  1.5273373 -0.0040571  0.0164244  1.5275135 -0.0042332
  0.0330189  0.0248599  1.5236492 -0.0071842  0.0138785  1.5237750 -0.0073100
  0.0323496  0.0245641  1.5221561 -0.0061747  0.0151933  1.5223071 -0.0063257
  0.0334254  0.0235726  1.5338817 -0.0062913  0.0133787  1.5339979 -0.0064075
  0.0336071  0.0228327  1.5394838 -0.0043636  0.0142403  1.5396152 -0.0044950
  0.0327405  0.0233598  1.5325625 -0.0057269  0.0151071  1.5327109 -0.0058753
  0.0329187  0.0226453  1.5383526 -0.0037305  0.0160051  1.5385187 -0.0038966
  0.0339438  0.0237243  1.5287513 -0.0057241  0.0158473  1.5289150 -0.0058878
  0.0346753  0.0239261  1.5300114 -0.0062347  0.0139712  1.5301384 -0.0063618
  0.0341224  0.0229689  1.5348611 -0.0036660  0.0167132  1.5350427 -0.0038476
  0.0348421  0.0231537  1.5360422 -0.0042221  0.0147842  1.5361841 -0.0043640
  0.0329303  0.0265178  1.5042898 -0.0070032  0.0163420  1.5044665 -0.0071799
  0.0338277  0.0269233  1.5061298 -0.0082327  0.0147715  1.5062739 -0.0083768
  0.0333196  0.0256649  1.5105973 -0.0042017  0.0180679  1.5108128 -0.0044172
  0.0341415  0.0259834  1.5123011 -0.0057221  0.0162267  1.5124745 -0.0058956
  0.0325583  0.0271527  1.4964367 -0.0039175  0.0182440  1.4966585 -0.0041393
  0.0319313  0.0280340  1.4929581 -0.0078980  0.0160311  1.4931293 -0.0080692
  0.0334799  0.0277518  1.4966946 -0.0077683  0.0183904  1.4969193 -0.0079931
  0.0328435  0.0290752  1.4939473 -0.0103158  0.0166452  1.4941314 -0.0105000
  0.0319842  0.0267140  1.5048656 -0.0071584  0.0169574  1.5050558 -0.0073486
  0.0313371  0.0261145  1.5071426 -0.0038135  0.0154803  1.5073012 -0.0039721
  0.0313418  0.0273943  1.5054728 -0.0092137  0.0164905  1.5056523 -0.0093932
  0.0306433  0.0266876  1.5075105 -0.0063480  0.0151654  1.5076624 -0.0064999
  0.0323690  0.0261833  1.5148043 -0.0082501  0.0150019  1.5149520 -0.0083978
  0.0327781  0.0254139  1.5170000 -0.0064303  0.0161793  1.5171718 -0.0066021
  0.0317329  0.0256748  1.5141413 -0.0064635  0.0149683  1.5142887 -0.0066108
  0.0321205  0.0250466  1.5166860 -0.0041811  0.0163567  1.5168619 -0.0043570
  0.0316127  0.0230240  1.5363181 -0.0056750  0.0144307  1.5364531 -0.0058100
  0.0322547  0.0232128  1.5374996 -0.0062773  0.0127575  1.5376050 -0.0063827
  0.0317696  0.0223459  1.5418716 -0.0037707  0.0152702  1.5420224 -0.0039216
  0.0324263  0.0225149  1.5428595 -0.0044253  0.0135935  1.5429789 -0.0045448
  0.0314867  0.0235038  1.5315127 -0.0042486  0.0157321  1.5316739 -0.0044098
  0.0312995  0.0241365  1.5266010 -0.0061037  0.0147404  1.5267427 -0.0062454
  0.0321107  0.0237100  1.5325508 -0.0050951  0.0143753  1.5326852 -0.0052295
  0.0318889  0.0243702  1.5279494 -0.0068800  0.0133868  1.5280661 -0.0069968
  0.0310389  0.0233701  1.5361073 -0.0048625  0.0135785  1.5362269 -0.0049821
  0.0304394  0.0232110  1.5352488 -0.0041902  0.0150201  1.5353953 -0.0043368
  0.0308741  0.0239929  1.5313067 -0.0065667  0.0127581  1.5314126 -0.0066725
  0.0303013  0.0238344  1.5303607 -0.0058825  0.0142547  1.5304929 -0.0060147
  0.0311526  0.0228983  1.5405717 -0.0060780  0.0121377  1.5406669 -0.0061732
  0.0312986  0.0222321  1.5458971 -0.0042864  0.0128817  1.5460041 -0.0043934
  0.0305378  0.0227436  1.5395777 -0.0055234  0.0138289  1.5397015 -0.0056471
  0.0306685  0.0220899  1.5450471 -0.0037007  0.0145574  1.5451839 -0.0038375
  0.0306339  0.0248950  1.5220480 -0.0067162  0.0133789  1.5221651 -0.0068332
  0.0307656  0.0244015  1.5271805 -0.0050401  0.0140507  1.5273093 -0.0051689
  0.0301506  0.0248773  1.5220309 -0.0062318  0.0150774  1.5221797 -0.0063806
  0.0302239  0.0242808  1.5264122 -0.0048636  0.0154336  1.5265677 -0.0050192
  0.0309564  0.0250256  1.5195235 -0.0063072  0.0145747  1.5196627 -0.0064464
  0.0313544  0.0253646  1.5206292 -0.0075391  0.0144210  1.5207653 -0.0076752
  0.0311574  0.0245443  1.5222774 -0.0046323  0.0157181  1.5224391 -0.0047941
  0.0316863  0.0248136  1.5227194 -0.0060229  0.0153676  1.5228738 -0.0061774
  0.0306944  0.0252488  1.5178343 -0.0040339  0.0140051  1.5179632 -0.0041628
  0.0301796  0.0253774  1.5184024 -0.0059477  0.0155641  1.5185613 -0.0061066
  0.0309915  0.0257220  1.5130764 -0.0066022  0.0156670  1.5132379 -0.0067637
  0.0303319  0.0261472  1.5146036 -0.0073909  0.0164102  1.5147805 -0.0075678
  0.0289891  0.0253232  1.5183142 -0.0050088  0.0158871  1.5184798 -0.0051745
  0.0289031  0.0261279  1.5105652 -0.0073583  0.0155080  1.5107236 -0.0075167
  0.0297226  0.0253973  1.5190440 -0.0050302  0.0130941  1.5191565 -0.0051427
  0.0297723  0.0262559  1.5114918 -0.0072827  0.0131598  1.5116058 -0.0073967
  0.0284487  0.0252162  1.5215851 -0.0055558  0.0130508  1.5216967 -0.0056674
  0.0277059  0.0249980  1.5202189 -0.0043754  0.0151236  1.5203690 -0.0045254
  0.0282614  0.0260190  1.5148498 -0.0079574  0.0118829  1.5149425 -0.0080501
  0.0273778  0.0258498  1.5142182 -0.0067294  0.0137862  1.5143431 -0.0068544
  0.0285769  0.0246686  1.5273647 -0.0069474  0.0118800  1.5274567 -0.0070394
  0.0287398  0.0239755  1.5319883 -0.0052526  0.0127557  1.5320941 -0.0053584
  0.0279075  0.0244452  1.5264029 -0.0060673  0.0131423  1.5265156 -0.0061799
  0.0281301  0.0237866  1.5310267 -0.0042415  0.0141714  1.5311575 -0.0043723
  0.0290653  0.0247759  1.5231517 -0.0063810  0.0148063  1.5232951 -0.0065243
  0.0297304  0.0248454  1.5236753 -0.0062900  0.0129834  1.5237854 -0.0064002
  0.0291875  0.0240852  1.5285654 -0.0047448  0.0151676  1.5287154 -0.0048949
  0.0298011  0.0241961  1.5295426 -0.0045218  0.0132356  1.5296568 -0.0046360
  0.0281446  0.0273212  1.5008757 -0.0086668  0.0129943  1.5009875 -0.0087787
  0.0281800  0.0265831  1.5105709 -0.0057711  0.0130542  1.5106833 -0.0058835
  0.0274402  0.0274499  1.5024020 -0.0084509  0.0160545  1.5025725 -0.0086215
  0.0273066  0.0265067  1.5098694 -0.0061816  0.0156057  1.5100301 -0.0063423
  0.0286296  0.0273883  1.4996079 -0.0081727  0.0147947  1.4997531 -0.0083179
  0.0292504  0.0277004  1.5020358 -0.0093069  0.0130372  1.5021483 -0.0094194
  0.0288067  0.0266812  1.5067848 -0.0054801  0.0162369  1.5069591 -0.0056544
  0.0296458  0.0268731  1.5074626 -0.0069176  0.0145156  1.5076017 -0.0070567
  0.0283240  0.0277893  1.4952297 -0.0044628  0.0142589  1.4953653 -0.0045984
  0.0276659  0.0281777  1.4958831 -0.0076901  0.0145386  1.4960237 -0.0078306
  0.0288493  0.0283301  1.4917376 -0.0083322  0.0162472  1.4919136 -0.0085081
  0.0281489  0.0292230  1.4931764 -0.0097112  0.0159184  1.4933450 -0.0098798
  0.0300767  0.0289294  1.4887601 -0.0068414  0.0152660  1.4889159 -0.0069972
  0.0293190  0.0286356  1.4864116 -0.0055169  0.0176865  1.4866213 -0.0057265
  0.0299166  0.0297131  1.4805881 -0.0097208  0.0138861  1.4807175 -0.0098502
  0.0287519  0.0296344  1.4807044 -0.0080346  0.0160594  1.4808776 -0.0082079
  0.0303406  0.0284314  1.4976966 -0.0103405  0.0153834  1.4978535 -0.0104974
  0.0309014  0.0278544  1.4991971 -0.0074179  0.0165949  1.4993799 -0.0076007
  0.0297089  0.0279799  1.4981043 -0.0072445  0.0148463  1.4982507 -0.0073909
  0.0302070  0.0271874  1.4993489 -0.0052299  0.0160053  1.4995191 -0.0054001
  0.0306389  0.0288932  1.4894960 -0.0061193  0.0178126  1.4897082 -0.0063314
  0.0308221  0.0297034  1.4799622 -0.0094743  0.0193961  1.4802148 -0.0097269
  0.0314170  0.0285004  1.4858317 -0.0052178  0.0152032  1.4859867 -0.0053728
  0.0321314  0.0295982  1.4799384 -0.0078388  0.0169855  1.4801323 -0.0080327
  0.0259179  0.0277790  1.5015384 -0.0091836  0.0156026  1.5016995 -0.0093448
  0.0268436  0.0275725  1.5005979 -0.0074297  0.0132480  1.5007143 -0.0075460
  0.0258124  0.0268798  1.5099079 -0.0063993  0.0143655  1.5100439 -0.0065353
  0.0266722  0.0265863  1.5080369 -0.0048397  0.0120095  1.5081322 -0.0049350
  0.0260175  0.0285079  1.4942127 -0.0069945  0.0158474  1.4943800 -0.0071618
  0.0261841  0.0296002  1.4826857 -0.0107472  0.0172004  1.4828838 -0.0109452
  0.0270479  0.0283702  1.4933139 -0.0053155  0.0119103  1.4934085 -0.0054102
  0.0274347  0.0295633  1.4829470 -0.0089833  0.0137276  1.4830733 -0.0091096
  0.0252609  0.0285283  1.4938676 -0.0058898  0.0116071  1.4939574 -0.0059796
  0.0242243  0.0284464  1.4931665 -0.0051449  0.0160787  1.4933391 -0.0053174
  0.0252039  0.0296057  1.4832992 -0.0091018  0.0111099  1.4833819 -0.0091845
  0.0237763  0.0295837  1.4833867 -0.0083622  0.0144664  1.4835270 -0.0085025
  0.0252694  0.0278277  1.5006626 -0.0084879  0.0110140  1.5007430 -0.0085683
  0.0252357  0.0269910  1.5067364 -0.0067041  0.0112931  1.5068207 -0.0067883
  0.0244236  0.0277544  1.5004606 -0.0076563  0.0129873  1.5005725 -0.0077682
  0.0245199  0.0270010  1.5071828 -0.0055067  0.0136865  1.5073067 -0.0056305
  0.0254830  0.0258354  1.5176116 -0.0056140  0.0128662  1.5177203 -0.0057227
  0.0256959  0.0263590  1.5141377 -0.0075258  0.0141425  1.5142691 -0.0076572
  0.0258857  0.0254458  1.5157260 -0.0044832  0.0126126  1.5158307 -0.0045878
  0.0264155  0.0260164  1.5135838 -0.0062334  0.0136489  1.5137064 -0.0063559
  0.0251481  0.0259527  1.5162708 -0.0056740  0.0115054  1.5163577 -0.0057610
  0.0246361  0.0258836  1.5156032 -0.0055454  0.0135020  1.5157231 -0.0056652
  0.0252032  0.0264885  1.5105595 -0.0073537  0.0115853  1.5106479 -0.0074421
  0.0245768  0.0264997  1.5107320 -0.0070334  0.0132313  1.5108474 -0.0071488
  0.0252258  0.0255904  1.5205746 -0.0071796  0.0111408  1.5206559 -0.0072609
  0.0254932  0.0251367  1.5242636 -0.0055107  0.0122303  1.5243614 -0.0056085
  0.0247363  0.0254450  1.5197828 -0.0063770  0.0123585  1.5198828 -0.0064771
  0.0249506  0.0248627  1.5230517 -0.0050792  0.0130976  1.5231639 -0.0051914
  0.0235366  0.0257036  1.5175271 -0.0055939  0.0133804  1.5176446 -0.0057114
  0.0234356  0.0264092  1.5113938 -0.0075203  0.0128422  1.5115024 -0.0076289
  0.0242043  0.0258168  1.5183619 -0.0059470  0.0112874  1.5184455 -0.0060306
  0.0241032  0.0264785  1.5118354 -0.0080032  0.0106926  1.5119106 -0.0080785
  0.0230371  0.0256229  1.5200132 -0.0059937  0.0103958  1.5200840 -0.0060645
  0.0223404  0.0255159  1.5192954 -0.0052277  0.0127111  1.5194014 -0.0053337
  0.0229002  0.0263568  1.5132247 -0.0082119  0.0095817  1.5132851 -0.0082723
  0.0221047  0.0262827  1.5129473 -0.0074104  0.0116899  1.5130372 -0.0075003
  0.0231521  0.0250813  1.5256753 -0.0078757  0.0093474  1.5257322 -0.0079326
  0.0233293  0.0243355  1.5320932 -0.0055780  0.0104737  1.5321646 -0.0056493
  0.0224559  0.0249427  1.5249167 -0.0064897  0.0114921  1.5250029 -0.0065759
  0.0225357  0.0241434  1.5311957 -0.0044512  0.0123062  1.5312943 -0.0045498
  0.0236500  0.0251869  1.5220343 -0.0065857  0.0119069  1.5221271 -0.0066784
  0.0243140  0.0253368  1.5227780 -0.0076162  0.0102222  1.5228463 -0.0076845
  0.0238590  0.0244812  1.5271343 -0.0046949  0.0128919  1.5272428 -0.0048034
  0.0245127  0.0246871  1.5282950 -0.0055585  0.0113049  1.5283783 -0.0056418
  0.0228530  0.0275098  1.5008453 -0.0089011  0.0109163  1.5009242 -0.0089801
  0.0228508  0.0268624  1.5094614 -0.0063150  0.0107457  1.5095375 -0.0063911
  0.0222323  0.0276771  1.5028200 -0.0086855  0.0136030  1.5029424 -0.0088079
  0.0220758  0.0268618  1.5093520 -0.0066654  0.0130441  1.5094642 -0.0067777
  0.0232987  0.0275075  1.5004647 -0.0081907  0.0127189  1.5005719 -0.0082979
  0.0238955  0.0276686  1.5018665 -0.0086707  0.0106097  1.5019410 -0.0087452
  0.0233719  0.0268926  1.5074601 -0.0059735  0.0133917  1.5075786 -0.0060920
  0.0240205  0.0269747  1.5079393 -0.0066938  0.0113206  1.5080239 -0.0067784
  0.0230633  0.0278883  1.4973930 -0.0047184  0.0125992  1.4974987 -0.0048241
  0.0224934  0.0283136  1.4962176 -0.0091213  0.0115114  1.4963056 -0.0092093
  0.0236355  0.0282749  1.4959337 -0.0091503  0.0137112  1.4960586 -0.0092752
  0.0230500  0.0292375  1.4955064 -0.0110385  0.0126306  1.4956123 -0.0111444
  0.0215166  0.0249193  1.5256587 -0.0075405  0.0111803  1.5257402 -0.0076221
  0.0220176  0.0248993  1.5257702 -0.0064243  0.0090509  1.5258237 -0.0064778
  0.0213810  0.0244435  1.5320435 -0.0053093  0.0101276  1.5321102 -0.0053760
  0.0220137  0.0241723  1.5304255 -0.0050233  0.0087259  1.5304751 -0.0050729
  0.0214512  0.0252425  1.5217755 -0.0042945  0.0112509  1.5218585 -0.0043775
  0.0211372  0.0256495  1.5191038 -0.0067696  0.0098441  1.5191673 -0.0068331
  0.0219155  0.0254140  1.5218482 -0.0065904  0.0107875  1.5219244 -0.0066666
  0.0216324  0.0260932  1.5198613 -0.0079294  0.0098478  1.5199248 -0.0079929
  0.0212053  0.0250376  1.5241607 -0.0062508  0.0105652  1.5242336 -0.0063237
  0.0209977  0.0246494  1.5262904 -0.0046419  0.0095288  1.5263497 -0.0047012
  0.0208561  0.0253407  1.5250323 -0.0076141  0.0105903  1.5251055 -0.0076873
  0.0205831  0.0249409  1.5268732 -0.0060342  0.0096524  1.5269339 -0.0060950
  0.0202848  0.0262714  1.5158942 -0.0060483  0.0104868  1.5159664 -0.0061205
  0.0205793  0.0268369  1.5123296 -0.0081113  0.0118106  1.5124213 -0.0082030
  0.0208247  0.0259252  1.5143677 -0.0044930  0.0097880  1.5144308 -0.0045561
  0.0212743  0.0264745  1.5113568 -0.0066497  0.0111212  1.5114383 -0.0067312
  0.0199028  0.0264922  1.5105336 -0.0056697  0.0091337  1.5105886 -0.0057247
  0.0193991  0.0267490  1.5117515 -0.0066327  0.0100098  1.5118175 -0.0066987
  0.0201257  0.0270408  1.5073474 -0.0071274  0.0100384  1.5074139 -0.0071939
  0.0195816  0.0272357  1.5080903 -0.0082655  0.0110154  1.5081703 -0.0083455
  0.0197238  0.0261124  1.5156962 -0.0069642  0.0098227  1.5157596 -0.0070276
  0.0194576  0.0256236  1.5190097 -0.0050783  0.0086173  1.5190584 -0.0051270
  0.0192113  0.0263873  1.5168412 -0.0083573  0.0105852  1.5169147 -0.0084308
  0.0188806  0.0258859  1.5198560 -0.0064883  0.0094002  1.5199139 -0.0065462
  0.0200840  0.0258934  1.5214832 -0.0075125  0.0107150  1.5215583 -0.0075876
  0.0205556  0.0255700  1.5207012 -0.0064468  0.0104400  1.5207726 -0.0065182
  0.0198299  0.0254261  1.5235694 -0.0061486  0.0098423  1.5236327 -0.0062120
  0.0202702  0.0251490  1.5228014 -0.0049164  0.0095013  1.5228605 -0.0049755
  0.0209106  0.0280952  1.5016880 -0.0092482  0.0127685  1.5017959 -0.0093561
  0.0217119  0.0278339  1.5006110 -0.0075703  0.0111556  1.5006935 -0.0076528
  0.0207470  0.0273256  1.5076489 -0.0069959  0.0114969  1.5077361 -0.0070832
  0.0215120  0.0269859  1.5059486 -0.0055098  0.0099783  1.5060145 -0.0055757
  0.0209928  0.0287199  1.4947467 -0.0060671  0.0135399  1.4948689 -0.0061892
  0.0210535  0.0296570  1.4840647 -0.0093142  0.0140347  1.4841966 -0.0094461
  0.0219386  0.0285365  1.4926448 -0.0059524  0.0093594  1.4927032 -0.0060109
  0.0223582  0.0296078  1.4839014 -0.0087845  0.0107539  1.4839789 -0.0088620
  0.0203528  0.0287839  1.4935599 -0.0075986  0.0101049  1.4936280 -0.0076667
  0.0195501  0.0287752  1.4939396 -0.0060478  0.0131453  1.4940548 -0.0061630
  0.0202180  0.0296742  1.4854877 -0.0102203  0.0091724  1.4855440 -0.0102765
  0.0192400  0.0296718  1.4858611 -0.0089240  0.0116820  1.4859524 -0.0090153
  0.0203609  0.0282010  1.4982797 -0.0083485  0.0091903  1.4983357 -0.0084046
  0.0202485  0.0274987  1.5031648 -0.0069171  0.0089978  1.5032184 -0.0069707
  0.0196604  0.0282287  1.4985530 -0.0080459  0.0109688  1.4986329 -0.0081257
  0.0196516  0.0276322  1.5045375 -0.0062544  0.0110381  1.5046181 -0.0063351
  0.0185953  0.0268591  1.5118728 -0.0087027  0.0091858  1.5119283 -0.0087582
  0.0189089  0.0265874  1.5128183 -0.0067002  0.0099116  1.5128829 -0.0067649
  0.0182496  0.0266626  1.5122169 -0.0067400  0.0089448  1.5122696 -0.0067927
  0.0185569  0.0261643  1.5128418 -0.0057107  0.0095449  1.5129018 -0.0057707
  0.0187407  0.0270681  1.5098842 -0.0067673  0.0099685  1.5099497 -0.0068328
  0.0187923  0.0274428  1.5055995 -0.0082146  0.0106243  1.5056740 -0.0082891
  0.0190877  0.0269033  1.5084523 -0.0061602  0.0088507  1.5085040 -0.0062119
  0.0192243  0.0273434  1.5051398 -0.0074314  0.0095445  1.5052000 -0.0074916
  0.0184791  0.0270974  1.5094459 -0.0067698  0.0090587  1.5095000 -0.0068239
  0.0181115  0.0270123  1.5086668 -0.0063603  0.0105010  1.5087396 -0.0064331
  0.0184753  0.0274766  1.5047718 -0.0081789  0.0087727  1.5048227 -0.0082298
  0.0180413  0.0274694  1.5048958 -0.0075778  0.0100838  1.5049630 -0.0076450
  0.0185242  0.0281867  1.4972004 -0.0081930  0.0096209  1.4972619 -0.0082544
  0.0184874  0.0277684  1.5024697 -0.0065297  0.0090987  1.5025245 -0.0065845
  0.0181214  0.0283080  1.4983048 -0.0086773  0.0111221  1.4983869 -0.0087594
  0.0180440  0.0278166  1.5026848 -0.0072410  0.0105842  1.5027590 -0.0073152
  0.0188264  0.0281627  1.4975155 -0.0082666  0.0107066  1.4975917 -0.0083427
  0.0192492  0.0282185  1.4980543 -0.0084430  0.0089993  1.4981081 -0.0084968
  0.0188153  0.0277361  1.5032186 -0.0065659  0.0108050  1.5032959 -0.0066432
  0.0192676  0.0276958  1.5027035 -0.0070371  0.0091791  1.5027593 -0.0070929
  0.0186896  0.0284311  1.4954443 -0.0057438  0.0104293  1.4955167 -0.0058163
  0.0183045  0.0287379  1.4944209 -0.0085426  0.0095770  1.4944819 -0.0086036
  0.0191044  0.0286807  1.4947389 -0.0085831  0.0109438  1.4948186 -0.0086627
  0.0187273  0.0294210  1.4942438 -0.0096668  0.0102044  1.4943130 -0.0097361
  0.0171772  0.0289790  1.4932487 -0.0074968  0.0106358  1.4933240 -0.0075722
  0.0173098  0.0297264  1.4856349 -0.0100391  0.0116631  1.4857258 -0.0101300
  0.0178993  0.0288847  1.4926992 -0.0060715  0.0078382  1.4927402 -0.0061125
  0.0182464  0.0297012  1.4858826 -0.0086622  0.0093195  1.4859407 -0.0087203
  0.0166162  0.0290064  1.4932930 -0.0071675  0.0076511  1.4933321 -0.0072065
  0.0158054  0.0289870  1.4930811 -0.0072877  0.0104821  1.4931543 -0.0073610
  0.0166440  0.0297338  1.4864831 -0.0092122  0.0077608  1.4865234 -0.0092525
  0.0157619  0.0297286  1.4864222 -0.0092826  0.0103634  1.4864940 -0.0093544
  0.0166133  0.0284959  1.4971581 -0.0089992  0.0076357  1.4971968 -0.0090379
  0.0166334  0.0278285  1.5034613 -0.0070919  0.0079115  1.5035028 -0.0071334
  0.0158533  0.0284620  1.4970574 -0.0084867  0.0098233  1.4971215 -0.0085508
  0.0159408  0.0277693  1.5030708 -0.0066173  0.0102875  1.5031409 -0.0066874
  0.0171202  0.0284754  1.4982578 -0.0087187  0.0109195  1.4983369 -0.0087978
  0.0177452  0.0283854  1.4978770 -0.0080450  0.0094062  1.4979357 -0.0081038
  0.0170971  0.0278468  1.5025895 -0.0073911  0.0105694  1.5026635 -0.0074650
  0.0176715  0.0278376  1.5027987 -0.0064521  0.0088434  1.5028505 -0.0065039
  0.0173459  0.0264003  1.5140921 -0.0072797  0.0092087  1.5141478 -0.0073354
  0.0179149  0.0265397  1.5148272 -0.0085762  0.0075866  1.5148649 -0.0086140
  0.0175333  0.0258049  1.5189215 -0.0053877  0.0102663  1.5189907 -0.0054569
  0.0181883  0.0259546  1.5194951 -0.0065487  0.0088324  1.5195462 -0.0065998
  0.0172375  0.0268293  1.5097806 -0.0061649  0.0104095  1.5098521 -0.0062364
  0.0171285  0.0274058  1.5056229 -0.0075475  0.0098622  1.5056871 -0.0076118
  0.0177788  0.0269405  1.5104243 -0.0067283  0.0089477  1.5104770 -0.0067811
  0.0176805  0.0274504  1.5057280 -0.0082930  0.0083233  1.5057738 -0.0083387
  0.0168063  0.0267497  1.5128005 -0.0065487  0.0080946  1.5128436 -0.0065918
  0.0161696  0.0266435  1.5121587 -0.0059477  0.0099389  1.5122238 -0.0060127
  0.0166851  0.0273607  1.5074356 -0.0083125  0.0074262  1.5074720 -0.0083489
  0.0160256  0.0272820  1.5070575 -0.0076447  0.0092562  1.5071141 -0.0077013
  0.0169090  0.0263058  1.5167292 -0.0080488  0.0069752  1.5167612 -0.0080807
  0.0170686  0.0257037  1.5217987 -0.0062070  0.0079015  1.5218395 -0.0062478
  0.0162844  0.0261867  1.5161773 -0.0069910  0.0086396  1.5162263 -0.0070400
  0.0164540  0.0255772  1.5211644 -0.0051635  0.0095727  1.5212245 -0.0052235
  0.0151883  0.0259425  1.5185628 -0.0068107  0.0078798  1.5186035 -0.0068514
  0.0158233  0.0260894  1.5192068 -0.0080073  0.0063356  1.5192331 -0.0080336
  0.0153855  0.0253325  1.5233934 -0.0049196  0.0089357  1.5234456 -0.0049719
  0.0160030  0.0254777  1.5240729 -0.0061419  0.0073532  1.5241082 -0.0061772
  0.0150417  0.0264052  1.5143320 -0.0054640  0.0091361  1.5143869 -0.0055189
  0.0148387  0.0270594  1.5092869 -0.0074154  0.0080611  1.5093298 -0.0074582
  0.0156968  0.0265512  1.5150041 -0.0067740  0.0074279  1.5150403 -0.0068102
  0.0155308  0.0272013  1.5098393 -0.0086939  0.0064191  1.5098664 -0.0087210
  0.0145667  0.0262807  1.5176516 -0.0066494  0.0068804  1.5176826 -0.0066805
  0.0139241  0.0260867  1.5168330 -0.0049958  0.0083347  1.5168787 -0.0050415
  0.0143387  0.0269307  1.5128812 -0.0087155  0.0056241  1.5129020 -0.0087363
  0.0136649  0.0267209  1.5120624 -0.0071614  0.0069957  1.5120946 -0.0071936
  0.0147271  0.0258212  1.5221198 -0.0079640  0.0057314  1.5221413 -0.0079854
  0.0149373  0.0252157  1.5266191 -0.0060659  0.0068636  1.5266499 -0.0060966
  0.0141023  0.0256368  1.5213600 -0.0066000  0.0070739  1.5213928 -0.0066327
  0.0143302  0.0250417  1.5258713 -0.0046426  0.0082585  1.5259159 -0.0046871
  0.0144760  0.0283118  1.4983652 -0.0083886  0.0087149  1.4984156 -0.0084390
  0.0152806  0.0284127  1.4987803 -0.0094172  0.0065510  1.4988087 -0.0094457
  0.0146871  0.0275703  1.5044866 -0.0062406  0.0097356  1.5045493 -0.0063034
  0.0154193  0.0277001  1.5052849 -0.0072383  0.0074386  1.5053215 -0.0072749
  0.0143423  0.0288826  1.4939701 -0.0064728  0.0101603  1.4940389 -0.0065415
  0.0141882  0.0297006  1.4869017 -0.0088055  0.0092655  1.4869591 -0.0088629
  0.0151961  0.0289539  1.4942226 -0.0077361  0.0072925  1.4942580 -0.0077715
  0.0151039  0.0297197  1.4866469 -0.0101548  0.0065090  1.4866752 -0.0101831
  0.0137114  0.0287783  1.4963305 -0.0074964  0.0068115  1.4963613 -0.0075272
  0.0128415  0.0285646  1.4949957 -0.0056683  0.0095492  1.4950565 -0.0057291
  0.0134506  0.0296727  1.4872675 -0.0108971  0.0050101  1.4872842 -0.0109139
  0.0123509  0.0296154  1.4875365 -0.0087913  0.0076487  1.4875756 -0.0088304
  0.0139016  0.0281800  1.5035407 -0.0097490  0.0056070  1.5035614 -0.0097698
  0.0141605  0.0274396  1.5079664 -0.0076057  0.0070129  1.5079989 -0.0076381
  0.0131371  0.0279207  1.5029235 -0.0076872  0.0067153  1.5029534 -0.0077170
  0.0134541  0.0272123  1.5073665 -0.0053240  0.0082436  1.5074115 -0.0053690
  0.0130642  0.0252686  1.5245715 -0.0064442  0.0064012  1.5245983 -0.0064710
  0.0136567  0.0254887  1.5254756 -0.0078175  0.0052737  1.5254938 -0.0078357
  0.0133089  0.0247001  1.5287021 -0.0044965  0.0076215  1.5287400 -0.0045343
  0.0138939  0.0249036  1.5295387 -0.0059402  0.0064441  1.5295658 -0.0059672
  0.0128702  0.0256897  1.5199673 -0.0048774  0.0075404  1.5200046 -0.0049147
  0.0125848  0.0262717  1.5161059 -0.0069136  0.0062389  1.5161314 -0.0069391
  0.0134695  0.0259283  1.5208211 -0.0064571  0.0065392  1.5208491 -0.0064851
  0.0131950  0.0265443  1.5170814 -0.0083569  0.0053246  1.5171000 -0.0083754
  0.0124471  0.0255128  1.5244793 -0.0064520  0.0061204  1.5245037 -0.0064765
  0.0118905  0.0252684  1.5237170 -0.0048268  0.0069016  1.5237482 -0.0048580
  0.0121643  0.0260706  1.5212311 -0.0083149  0.0049220  1.5212469 -0.0083307
  0.0116258  0.0257937  1.5202625 -0.0068027  0.0056298  1.5202832 -0.0068235
  0.0126408  0.0251043  1.5290652 -0.0076743  0.0048764  1.5290806 -0.0076898
  0.0128871  0.0245460  1.5328285 -0.0058489  0.0060291  1.5328521 -0.0058725
  0.0120765  0.0248758  1.5281294 -0.0063342  0.0058942  1.5281520 -0.0063568
  0.0123198  0.0243287  1.5319623 -0.0044697  0.0070721  1.5319949 -0.0045023
  0.0119694  0.0273177  1.5064166 -0.0076213  0.0057935  1.5064388 -0.0076435
  0.0126193  0.0276897  1.5077196 -0.0092003  0.0050332  1.5077363 -0.0092170
  0.0123434  0.0267079  1.5105058 -0.0050979  0.0073928  1.5105418 -0.0051339
  0.0129672  0.0270162  1.5116618 -0.0069473  0.0064791  1.5116894 -0.0069749
  0.0116243  0.0277568  1.5004746 -0.0048069  0.0065186  1.5005028 -0.0048351
  0.0110554  0.0283465  1.4990119 -0.0081568  0.0051880  1.4990297 -0.0081746
  0.0122823  0.0282909  1.4998469 -0.0082246  0.0073385  1.4998826 -0.0082603
  0.0117091  0.0292601  1.4988183 -0.0102152  0.0061464  1.4988434 -0.0102402
  0.0112177  0.0273853  1.5065715 -0.0076664  0.0067268  1.5066014 -0.0076963
  0.0107648  0.0269046  1.5089623 -0.0051061  0.0053864  1.5089814 -0.0051253
  0.0106747  0.0278075  1.5072617 -0.0092806  0.0067631  1.5072919 -0.0093107
  0.0102884  0.0272483  1.5096823 -0.0070866  0.0054776  1.5097021 -0.0071064
  0.0115526  0.0270287  1.5142367 -0.0088771  0.0054496  1.5142562 -0.0088966
  0.0119246  0.0264767  1.5158249 -0.0071637  0.0064340  1.5158521 -0.0071909
  0.0110638  0.0266113  1.5138392 -0.0071862  0.0052624  1.5138574 -0.0072044
  0.0114042  0.0261536  1.5156776 -0.0050954  0.0064049  1.5157046 -0.0051223
  0.0097461  0.0288587  1.4960900 -0.0076229  0.0059476  1.4961135 -0.0076465
  0.0100450  0.0296942  1.4872893 -0.0112619  0.0080821  1.4873329 -0.0113055
  0.0105521  0.0286418  1.4948004 -0.0053621  0.0034092  1.4948081 -0.0053698
  0.0111097  0.0296361  1.4876840 -0.0087363  0.0055758  1.4877048 -0.0087571
  0.0091453  0.0289540  1.4947648 -0.0060944  0.0029393  1.4947705 -0.0061002
  0.0083100  0.0289972  1.4946659 -0.0077617  0.0058868  1.4946890 -0.0077848
  0.0093161  0.0297197  1.4879067 -0.0084418  0.0039673  1.4879173 -0.0084524
  0.0083892  0.0297313  1.4875111 -0.0100556  0.0066808  1.4875409 -0.0100854
  0.0090151  0.0284309  1.4985685 -0.0084300  0.0038793  1.4985785 -0.0084400
  0.0088303  0.0277678  1.5044859 -0.0064009  0.0029596  1.5044917 -0.0064067
  0.0082517  0.0284936  1.4987559 -0.0093322  0.0059963  1.4987798 -0.0093560
  0.0081717  0.0278517  1.5050161 -0.0073331  0.0053512  1.5050350 -0.0073520
  0.0095442  0.0283138  1.5030771 -0.0098639  0.0066391  1.5031062 -0.0098930
  0.0102263  0.0280562  1.5025724 -0.0078768  0.0058282  1.5025949 -0.0078993
  0.0092917  0.0276604  1.5067982 -0.0078629  0.0052949  1.5068167 -0.0078814
  0.0098937  0.0274508  1.5063219 -0.0055255  0.0043263  1.5063343 -0.0055379
  0.0104353  0.0260786  1.5186918 -0.0068508  0.0051449  1.5187092 -0.0068682
  0.0107645  0.0263567  1.5192877 -0.0081794  0.0051821  1.5193052 -0.0081970
  0.0106050  0.0257110  1.5204747 -0.0055010  0.0060684  1.5204989 -0.0055251
  0.0110507  0.0259484  1.5206582 -0.0068861  0.0059310  1.5206812 -0.0069091
  0.0102303  0.0262659  1.5164257 -0.0053512  0.0045981  1.5164396 -0.0053651
  0.0098398  0.0264102  1.5167787 -0.0068701  0.0052086  1.5167965 -0.0068879
  0.0105003  0.0266046  1.5140448 -0.0071547  0.0056877  1.5140661 -0.0071759
  0.0100647  0.0268739  1.5147152 -0.0080997  0.0060088  1.5147389 -0.0081234
  0.0101594  0.0259923  1.5197493 -0.0076427  0.0042987  1.5197614 -0.0076548
  0.0102357  0.0255835  1.5247939 -0.0060917  0.0047051  1.5248084 -0.0061062
  0.0097346  0.0260347  1.5203339 -0.0072605  0.0061162  1.5203584 -0.0072850
  0.0096724  0.0254724  1.5240924 -0.0061497  0.0060282  1.5241162 -0.0061734
  0.0088301  0.0262602  1.5193417 -0.0081699  0.0057226  1.5193632 -0.0081913
  0.0093785  0.0261065  1.5185327 -0.0068595  0.0042403  1.5185445 -0.0068713
  0.0086580  0.0257212  1.5240266 -0.0062880  0.0046427  1.5240407 -0.0063021
  0.0092496  0.0255093  1.5229772 -0.0052175  0.0033620  1.5229846 -0.0052249
  0.0089578  0.0266611  1.5154612 -0.0069396  0.0052541  1.5154793 -0.0069577
  0.0091346  0.0272175  1.5111450 -0.0086548  0.0062275  1.5111705 -0.0086803
  0.0094988  0.0265161  1.5147238 -0.0057323  0.0038232  1.5147334 -0.0057419
  0.0096988  0.0270381  1.5102503 -0.0075963  0.0049240  1.5102663 -0.0076123
  0.0085574  0.0267592  1.5130789 -0.0059182  0.0032320  1.5130858 -0.0059250
  0.0080044  0.0268823  1.5137661 -0.0069702  0.0048574  1.5137816 -0.0069857
  0.0087076  0.0273199  1.5085701 -0.0075710  0.0040765  1.5085811 -0.0075820
  0.0081054  0.0274199  1.5089543 -0.0086398  0.0056319  1.5089752 -0.0086607
  0.0084367  0.0263681  1.5166070 -0.0069609  0.0040038  1.5166176 -0.0069714
  0.0082572  0.0258601  1.5203499 -0.0054142  0.0030968  1.5203562 -0.0054205
  0.0079102  0.0265091  1.5172194 -0.0080660  0.0052258  1.5172373 -0.0080839
  0.0077538  0.0260274  1.5212166 -0.0064497  0.0042930  1.5212286 -0.0064618
  0.0071652  0.0266970  1.5156992 -0.0079611  0.0045404  1.5157127 -0.0079746
  0.0075695  0.0265973  1.5151960 -0.0070909  0.0034456  1.5152038 -0.0070987
  0.0069679  0.0263419  1.5188749 -0.0065067  0.0036076  1.5188835 -0.0065152
  0.0074083  0.0261565  1.5179990 -0.0059534  0.0027873  1.5180041 -0.0059585
  0.0072096  0.0269810  1.5124191 -0.0065867  0.0046045  1.5124330 -0.0066006
  0.0071334  0.0274017  1.5078493 -0.0079495  0.0043318  1.5078616 -0.0079619
  0.0076433  0.0269417  1.5119769 -0.0066700  0.0028354  1.5119822 -0.0066753
  0.0076836  0.0274419  1.5081482 -0.0078216  0.0029578  1.5081540 -0.0078273
  0.0069392  0.0268777  1.5133908 -0.0070213  0.0032396  1.5133977 -0.0070282
  0.0066342  0.0265561  1.5129259 -0.0055470  0.0029164  1.5129315 -0.0055526
  0.0067259  0.0272716  1.5118829 -0.0085415  0.0022620  1.5118863 -0.0085449
  0.0061630  0.0269562  1.5118849 -0.0071179  0.0022473  1.5118882 -0.0071212
  0.0069263  0.0284375  1.4987194 -0.0084671  0.0046990  1.4987341 -0.0084817
  0.0076920  0.0284953  1.4990544 -0.0086676  0.0026950  1.4990592 -0.0086724
  0.0070575  0.0277920  1.5043565 -0.0067162  0.0052117  1.5043745 -0.0067342
  0.0076967  0.0278582  1.5049475 -0.0068974  0.0028288  1.5049528 -0.0069027
  0.0068485  0.0289541  1.4948817 -0.0068119  0.0057866  1.4949040 -0.0068342
  0.0067671  0.0297197  1.4880996 -0.0088839  0.0053993  1.4881191 -0.0089034
  0.0076945  0.0289972  1.4951758 -0.0071754  0.0027580  1.4951809 -0.0071805
  0.0077062  0.0297313  1.4880617 -0.0093037  0.0026550  1.4880664 -0.0093084
  0.0062363  0.0288812  1.4966194 -0.0074996  0.0024351  1.4966233 -0.0075035
  0.0054099  0.0287253  1.4956054 -0.0058267  0.0053825  1.4956247 -0.0058460
  0.0060291  0.0297002  1.4881873 -0.0104978  0.0009896  1.4881880 -0.0104985
  0.0049520  0.0296584  1.4884513 -0.0087312  0.0036025  1.4884600 -0.0087399
  0.0063831  0.0283351  1.5030508 -0.0096311  0.0016006  1.5030525 -0.0096328
  0.0065769  0.0276621  1.5079478 -0.0074903  0.0029690  1.5079536 -0.0074961
  0.0056647  0.0281130  1.5024213 -0.0076496  0.0028652  1.5024268 -0.0076550
  0.0059032  0.0273733  1.5068003 -0.0056671  0.0041323  1.5068116 -0.0056784
  0.0061935  0.0257070  1.5210920 -0.0050831  0.0019068  1.5210944 -0.0050855
  0.0056420  0.0259321  1.5220718 -0.0065871  0.0029732  1.5220775 -0.0065929
  0.0064344  0.0262425  1.5167564 -0.0072349  0.0032730  1.5167634 -0.0072419
  0.0058725  0.0265973  1.5183159 -0.0082905  0.0040457  1.5183266 -0.0083013
  0.0060404  0.0253126  1.5252161 -0.0067346  0.0025376  1.5252203 -0.0067388
  0.0058631  0.0247705  1.5298861 -0.0049664  0.0015851  1.5298878 -0.0049681
  0.0055005  0.0254831  1.5262077 -0.0074808  0.0038916  1.5262175 -0.0074906
  0.0053444  0.0249215  1.5308229 -0.0057868  0.0030244  1.5308289 -0.0057928
  0.0064211  0.0251784  1.5292015 -0.0075482  0.0041662  1.5292128 -0.0075595
  0.0069211  0.0249821  1.5282521 -0.0065093  0.0031301  1.5282585 -0.0065156
  0.0062337  0.0246523  1.5330361 -0.0059075  0.0031787  1.5330427 -0.0059140
  0.0067278  0.0244805  1.5322110 -0.0047756  0.0020755  1.5322138 -0.0047784
  0.0065755  0.0255486  1.5251874 -0.0064335  0.0031006  1.5251937 -0.0064398
  0.0068098  0.0260342  1.5222798 -0.0079928  0.0041010  1.5222908 -0.0080038
  0.0070674  0.0253410  1.5245236 -0.0052059  0.0023915  1.5245274 -0.0052096
  0.0072738  0.0258199  1.5214869 -0.0067629  0.0033940  1.5214944 -0.0067704
  0.0046035  0.0261695  1.5198923 -0.0061355  0.0032129  1.5198990 -0.0061422
  0.0046922  0.0268139  1.5134548 -0.0081931  0.0038743  1.5134647 -0.0082029
  0.0052159  0.0260560  1.5190189 -0.0054876  0.0010616  1.5190196 -0.0054883
  0.0054057  0.0267504  1.5132197 -0.0074521  0.0019256  1.5132221 -0.0074546
  0.0041644  0.0262328  1.5183491 -0.0061580  0.0007690  1.5183495 -0.0061584
  0.0035769  0.0262923  1.5188617 -0.0061734  0.0027262  1.5188665 -0.0061783
  0.0042117  0.0268570  1.5125555 -0.0079093  0.0009897  1.5125561 -0.0079099
  0.0036125  0.0269111  1.5129988 -0.0079424  0.0029123  1.5130044 -0.0079480
  0.0041160  0.0257882  1.5218385 -0.0071808  0.0010812  1.5218393 -0.0071816
  0.0040314  0.0251978  1.5271978 -0.0055177  0.0006646  1.5271981 -0.0055180
  0.0035448  0.0258513  1.5222667 -0.0074102  0.0027975  1.5222719 -0.0074153
  0.0034929  0.0252653  1.5277285 -0.0057368  0.0024769  1.5277325 -0.0057408
  0.0045317  0.0257187  1.5241541 -0.0075926  0.0034868  1.5241620 -0.0076005
  0.0050962  0.0255919  1.5234864 -0.0068259  0.0020336  1.5234891 -0.0068286
  0.0044242  0.0251316  1.5289957 -0.0059474  0.0027757  1.5290007 -0.0059524
  0.0049589  0.0250183  1.5283463 -0.0051161  0.0012287  1.5283473 -0.0051171
  0.0042807  0.0278331  1.5029002 -0.0083694  0.0016355  1.5029020 -0.0083712
  0.0042429  0.0272858  1.5092381 -0.0064109  0.0011640  1.5092390 -0.0064118
  0.0037560  0.0279868  1.5043277 -0.0086911  0.0035525  1.5043360 -0.0086994
  0.0036605  0.0273652  1.5097343 -0.0069609  0.0029928  1.5097402 -0.0069668
  0.0046691  0.0278307  1.5030575 -0.0087086  0.0031280  1.5030639 -0.0087151
  0.0052055  0.0279779  1.5046098 -0.0090278  0.0009003  1.5046103 -0.0090283
  0.0047097  0.0272590  1.5103749 -0.0064518  0.0036432  1.5103836 -0.0064605
  0.0054029  0.0272653  1.5102069 -0.0071663  0.0016904  1.5102088 -0.0071682
  0.0044663  0.0281676  1.4998722 -0.0053278  0.0023676  1.4998760 -0.0053315
  0.0039530  0.0285162  1.4993182 -0.0087572  0.0017839  1.4993203 -0.0087593
  0.0049356  0.0285341  1.4983372 -0.0087778  0.0035119  1.4983454 -0.0087860
  0.0043957  0.0293412  1.4983707 -0.0102747  0.0027694  1.4983758 -0.0102798
  0.0025673  0.0282039  1.5034194 -0.0087383  0.0030895  1.5034257 -0.0087446
  0.0032969  0.0280861  1.5028973 -0.0080191  0.0013857  1.5028985 -0.0080204
  0.0025740  0.0274733  1.5087967 -0.0071338  0.0027461  1.5088016 -0.0071388
  0.0032134  0.0274154  1.5086052 -0.0061837  0.0007586  1.5086056 -0.0061841
  0.0025885  0.0287943  1.4977071 -0.0068197  0.0031776  1.4977138 -0.0068264
  0.0026532  0.0296769  1.4884588 -0.0096589  0.0037544  1.4884682 -0.0096683
  0.0034498  0.0286842  1.4967062 -0.0061242 -0.0004109  1.4967063 -0.0061243
  0.0037842  0.0296474  1.4885041 -0.0088545  0.0008736  1.4885046 -0.0088550
  0.0019804  0.0288064  1.4967495 -0.0073402 -0.0002723  1.4967495 -0.0073402
  0.0011804  0.0287291  1.4964641 -0.0053630  0.0031499  1.4964707 -0.0053696
  0.0018163  0.0296802  1.4881867 -0.0102367 -0.0014991  1.4881882 -0.0102382
  0.0006608  0.0296595  1.4885540 -0.0086143  0.0010553  1.4885547 -0.0086150
  0.0020559  0.0282165  1.5033544 -0.0093185 -0.0007987  1.5033548 -0.0093189
  0.0020979  0.0274788  1.5088509 -0.0075935 -0.0001762  1.5088509 -0.0075936
  0.0013883  0.0281333  1.5031261 -0.0081266  0.0009486  1.5031267 -0.0081272
  0.0014363  0.0274359  1.5089327 -0.0062876  0.0016298  1.5089345 -0.0062893
  0.0025819  0.0263486  1.5181716 -0.0059593  0.0023522  1.5181752 -0.0059629
  0.0025780  0.0269762  1.5125315 -0.0076513  0.0023421  1.5125351 -0.0076549
  0.0031529  0.0263233  1.5179339 -0.0060243  0.0004549  1.5179340 -0.0060245
  0.0031748  0.0269431  1.5122456 -0.0077310  0.0005278  1.5122458 -0.0077312
  0.0021726  0.0263443  1.5181335 -0.0060278  0.0001754  1.5181335 -0.0060278
  0.0016250  0.0263074  1.5178772 -0.0057180  0.0021566  1.5178803 -0.0057210
  0.0021291  0.0269772  1.5122887 -0.0078084 -0.0001173  1.5122887 -0.0078084
  0.0014998  0.0269467  1.5121590 -0.0075092  0.0016173  1.5121607 -0.0075110
  0.0021938  0.0259039  1.5217967 -0.0072174  0.0000004  1.5217967 -0.0072174
  0.0022086  0.0253337  1.5267620 -0.0057211  0.0001449  1.5267620 -0.0057211
  0.0016825  0.0258725  1.5215995 -0.0070437  0.0015555  1.5216011 -0.0070453
  0.0017140  0.0253237  1.5267487 -0.0054835  0.0017624  1.5267507 -0.0054856
  0.0025828  0.0259068  1.5214774 -0.0072377  0.0022115  1.5214806 -0.0072409
  0.0031340  0.0258831  1.5212895 -0.0072233  0.0004934  1.5212896 -0.0072235
  0.0025811  0.0253273  1.5269625 -0.0055920  0.0021755  1.5269656 -0.0055951
  0.0031043  0.0253000  1.5267169 -0.0055912  0.0003667  1.5267170 -0.0055912
  0.0008181  0.0261455  1.5188733 -0.0060168  0.0014208  1.5188747 -0.0060181
  0.0007107  0.0266080  1.5142332 -0.0076980  0.0005723  1.5142334 -0.0076983
  0.0012621  0.0262541  1.5193917 -0.0067824  0.0003316  1.5193918 -0.0067825
  0.0011197  0.0268477  1.5157948 -0.0080930 -0.0003352  1.5157949 -0.0080930
  0.0005171  0.0260887  1.5207179 -0.0064773 -0.0001588  1.5207180 -0.0064773
  0.0001385  0.0260423  1.5204776 -0.0062622  0.0007844  1.5204780 -0.0062626
  0.0004425  0.0264977  1.5174659 -0.0075148 -0.0004956  1.5174661 -0.0075149
  0.0001186  0.0264361  1.5169770 -0.0073310  0.0005811  1.5169772 -0.0073312
  0.0005551  0.0257596  1.5231006 -0.0072610 -0.0006080  1.5231009 -0.0072612
  0.0005846  0.0252695  1.5274494 -0.0059429 -0.0004301  1.5274495 -0.0059430
  0.0001487  0.0257256  1.5228373 -0.0071356  0.0007662  1.5228377 -0.0071360
  0.0001566  0.0252540  1.5273770 -0.0057698  0.0008832  1.5273775 -0.0057703
  0.0008711  0.0257909  1.5219215 -0.0071802  0.0012036  1.5219224 -0.0071812
  0.0013280  0.0258422  1.5223494 -0.0072149 -0.0002899  1.5223494 -0.0072150
  0.0009085  0.0252847  1.5269303 -0.0056636  0.0014062  1.5269316 -0.0056649
  0.0013657  0.0253106  1.5271209 -0.0057706 -0.0001019  1.5271209 -0.0057706
  0.0003159  0.0270117  1.5123701 -0.0074891 -0.0004731  1.5123702 -0.0074892
  0.0003886  0.0267450  1.5153237 -0.0066089 -0.0001995  1.5153237 -0.0066089
  0.0000846  0.0269943  1.5121444 -0.0075779  0.0005434  1.5121446 -0.0075781
  0.0001041  0.0266912  1.5148881 -0.0067561  0.0005974  1.5148883 -0.0067564
  0.0004471  0.0271132  1.5111679 -0.0071801  0.0003381  1.5111680 -0.0071802
  0.0005742  0.0273732  1.5107509 -0.0077654  0.0007455  1.5107513 -0.0077657
  0.0006113  0.0268673  1.5111143 -0.0066166  0.0006147  1.5111145 -0.0066168
  0.0009354  0.0271476  1.5108361 -0.0071851  0.0008240  1.5108365 -0.0071856
  0.0003052  0.0272051  1.5097898 -0.0072001 -0.0005447  1.5097900 -0.0072002
  0.0000818  0.0272102  1.5100142 -0.0066455  0.0004488  1.5100143 -0.0066457
  0.0003486  0.0274668  1.5067022 -0.0080372 -0.0005704  1.5067024 -0.0080374
  0.0000934  0.0274968  1.5071256 -0.0074919  0.0002980  1.5071256 -0.0074919
  0.0025465  0.0243790  1.5352279 -0.0052541  0.0019808  1.5352305 -0.0052567
  0.0025714  0.0249179  1.5301763 -0.0067782  0.0021342  1.5301793 -0.0067811
  0.0030330  0.0243427  1.5349367 -0.0051683  0.0003492  1.5349368 -0.0051684
  0.0030773  0.0248872  1.5299581 -0.0066768  0.0005616  1.5299583 -0.0066770
  0.0021958  0.0243961  1.5347193 -0.0052196  0.0000791  1.5347193 -0.0052196
  0.0017243  0.0244067  1.5348082 -0.0052320  0.0016710  1.5348100 -0.0052338
  0.0022091  0.0249296  1.5297892 -0.0066997  0.0001382  1.5297892 -0.0066997
  0.0017253  0.0249310  1.5297887 -0.0067378  0.0016908  1.5297905 -0.0067397
  0.0021809  0.0240141  1.5376604 -0.0062439  0.0002060  1.5376604 -0.0062439
  0.0021534  0.0235039  1.5424016 -0.0048127  0.0000532  1.5424016 -0.0048127
  0.0017177  0.0240294  1.5377515 -0.0063643  0.0016882  1.5377534 -0.0063661
  0.0017007  0.0235229  1.5425332 -0.0049242  0.0015680  1.5425348 -0.0049258
  0.0025239  0.0239944  1.5382433 -0.0063874  0.0021096  1.5382462 -0.0063903
  0.0029976  0.0239558  1.5379928 -0.0061756  0.0006366  1.5379931 -0.0061759
  0.0024869  0.0234825  1.5429982 -0.0049377  0.0018660  1.5430005 -0.0049400
  0.0029453  0.0234430  1.5427187 -0.0047253  0.0003451  1.5427188 -0.0047253
  0.0009316  0.0244094  1.5347233 -0.0053009  0.0013090  1.5347244 -0.0053020
  0.0009247  0.0249145  1.5298973 -0.0067490  0.0012783  1.5298983 -0.0067500
  0.0013856  0.0244102  1.5347251 -0.0053180 -0.0001834  1.5347251 -0.0053180
  0.0013811  0.0249269  1.5300064 -0.0067337 -0.0002051  1.5300064 -0.0067338
  0.0006037  0.0244082  1.5347807 -0.0053891 -0.0005255  1.5347809 -0.0053893
  0.0001618  0.0244056  1.5347620 -0.0053789  0.0009135  1.5347626 -0.0053794
  0.0005976  0.0249074  1.5301322 -0.0067839 -0.0005524  1.5301324 -0.0067841
  0.0001601  0.0249003  1.5300700 -0.0067865  0.0009010  1.5300705 -0.0067870
  0.0006049  0.0240431  1.5375657 -0.0063459 -0.0005362  1.5375659 -0.0063461
  0.0006019  0.0235451  1.5422341 -0.0049452 -0.0005559  1.5422343 -0.0049454
  0.0001621  0.0240428  1.5375549 -0.0063722  0.0009140  1.5375555 -0.0063728
  0.0001613  0.0235463  1.5422383 -0.0049672  0.0009014  1.5422388 -0.0049677
  0.0009321  0.0240415  1.5375778 -0.0063649  0.0012972  1.5375789 -0.0063660
  0.0013831  0.0240367  1.5375558 -0.0063029 -0.0001704  1.5375558 -0.0063029
  0.0009263  0.0235415  1.5423201 -0.0049414  0.0012483  1.5423211 -0.0049424
  0.0013719  0.0235330  1.5422615 -0.0048895 -0.0002366  1.5422616 -0.0048895
  0.0024173  0.0226318  1.5503674 -0.0046133  0.0017594  1.5503694 -0.0046153
  0.0024584  0.0231174  1.5458688 -0.0059931  0.0020300  1.5458715 -0.0059957
  0.0028526  0.0225942  1.5501184 -0.0043570  0.0003194  1.5501185 -0.0043571
  0.0029064  0.0230782  1.5456220 -0.0057457  0.0006313  1.5456222 -0.0057459
  0.0020985  0.0226527  1.5498108 -0.0044295  0.0000276  1.5498108 -0.0044295
  0.0016626  0.0226723  1.5499307 -0.0046010  0.0014862  1.5499321 -0.0046024
  0.0021314  0.0231392  1.5452426 -0.0058152  0.0002228  1.5452427 -0.0058152
  0.0016859  0.0231593  1.5453603 -0.0059830  0.0016501  1.5453621 -0.0059847
  0.0020746  0.0223028  1.5525589 -0.0054317  0.0001981  1.5525589 -0.0054317
  0.0020422  0.0218331  1.5570108 -0.0040797 -0.0000010  1.5570108 -0.0040797
  0.0016452  0.0223214  1.5526606 -0.0056145  0.0015843  1.5526622 -0.0056161
  0.0016209  0.0218494  1.5570953 -0.0042719  0.0014131  1.5570966 -0.0042731
  0.0023880  0.0222831  1.5531068 -0.0056144  0.0019298  1.5531092 -0.0056168
  0.0028149  0.0222481  1.5528915 -0.0053641  0.0005802  1.5528918 -0.0053644
  0.0023489  0.0218163  1.5574321 -0.0042875  0.0016687  1.5574339 -0.0042893
  0.0027655  0.0217865  1.5572535 -0.0040178  0.0002816  1.5572536 -0.0040179
  0.0009093  0.0226956  1.5497064 -0.0045924  0.0011910  1.5497073 -0.0045933
  0.0009202  0.0231809  1.5451191 -0.0059713  0.0012728  1.5451201 -0.0059723
  0.0013440  0.0226838  1.5496297 -0.0045077 -0.0002626  1.5496297 -0.0045078
  0.0013614  0.0231704  1.5450575 -0.0058836 -0.0001597  1.5450575 -0.0058836
  0.0005917  0.0227008  1.5495722 -0.0045567 -0.0005677  1.5495724 -0.0045569
  0.0001585  0.0227033  1.5495841 -0.0045895  0.0008790  1.5495846 -0.0045900
  0.0005984  0.0231854  1.5450036 -0.0059277 -0.0005301  1.5450038 -0.0059279
  0.0001603  0.0231874  1.5450105 -0.0059617  0.0009005  1.5450111 -0.0059622
  0.0005864  0.0223494  1.5522963 -0.0055434 -0.0005245  1.5522965 -0.0055436
  0.0005786  0.0218742  1.5568020 -0.0041910 -0.0005682  1.5568022 -0.0041912
  0.0001571  0.0223519  1.5523061 -0.0055820  0.0008796  1.5523065 -0.0055825
  0.0001550  0.0218763  1.5568075 -0.0042314  0.0008548  1.5568080 -0.0042318
  0.0009008  0.0223442  1.5524345 -0.0055945  0.0012332  1.5524355 -0.0055955
  0.0013307  0.0223325  1.5523635 -0.0054995 -0.0001665  1.5523635 -0.0054995
  0.0008886  0.0218697  1.5569139 -0.0042474  0.0011426  1.5569147 -0.0042482
  0.0013118  0.0218592  1.5568522 -0.0041477 -0.0002792  1.5568522 -0.0041478
  0.0022880  0.0210358  1.5642220 -0.0039857  0.0015936  1.5642236 -0.0039873
  0.0023221  0.0214821  1.5600486 -0.0052618  0.0018265  1.5600507 -0.0052639
  0.0026910  0.0210161  1.5641291 -0.0037192  0.0002406  1.5641292 -0.0037193
  0.0027323  0.0214564  1.5599056 -0.0050162  0.0005016  1.5599057 -0.0050164
  0.0019906  0.0210468  1.5639748 -0.0037637 -0.0000272  1.5639748 -0.0037637
  0.0015813  0.0210570  1.5640035 -0.0039660  0.0013528  1.5640047 -0.0039672
  0.0020197  0.0214966  1.5596671 -0.0050709  0.0001586  1.5596672 -0.0050709
  0.0016038  0.0215106  1.5597294 -0.0052596  0.0015147  1.5597309 -0.0052610
  0.0019712  0.0207211  1.5665455 -0.0047497  0.0001172  1.5665455 -0.0047497
  0.0019471  0.0202811  1.5707772 -0.0034691 -0.0000423  1.5707772 -0.0034691
  0.0015660  0.0207286  1.5665557 -0.0049307  0.0014513  1.5665571 -0.0049320
  0.0015467  0.0202851  1.5707551 -0.0036621  0.0013096  1.5707562 -0.0036632
  0.0022655  0.0207128  1.5667412 -0.0049342  0.0017415  1.5667431 -0.0049361
  0.0026644  0.0206977  1.5666785 -0.0047113  0.0004306  1.5666787 -0.0047114
  0.0022381  0.0202764  1.5708406 -0.0036879  0.0015502  1.5708421 -0.0036894
  0.0026329  0.0202679  1.5708392 -0.0034435  0.0002211  1.5708392 -0.0034436
  0.0008678  0.0210724  1.5638916 -0.0039317  0.0010992  1.5638924 -0.0039324
  0.0008797  0.0215289  1.5595629 -0.0052336  0.0011882  1.5595638 -0.0052345
  0.0012804  0.0210638  1.5638480 -0.0038267 -0.0002920  1.5638480 -0.0038268
  0.0012984  0.0215192  1.5595111 -0.0051328 -0.0001828  1.5595112 -0.0051328
  0.0005653  0.0210757  1.5638196 -0.0038629 -0.0005642  1.5638199 -0.0038632
  0.0001515  0.0210761  1.5638093 -0.0039090  0.0008315  1.5638097 -0.0039094
  0.0005730  0.0215329  1.5594621 -0.0051710 -0.0005205  1.5594622 -0.0051712
  0.0001535  0.0215344  1.5594618 -0.0052134  0.0008564  1.5594622 -0.0052139
  0.0005599  0.0207444  1.5664072 -0.0048361 -0.0005174  1.5664073 -0.0048363
  0.0005530  0.0202964  1.5706852 -0.0035521 -0.0005568  1.5706854 -0.0035523
  0.0001500  0.0207442  1.5663930 -0.0048787  0.0008342  1.5663935 -0.0048792
  0.0001482  0.0202958  1.5706664 -0.0035966  0.0008117  1.5706668 -0.0035970
  0.0008595  0.0207417  1.5664682 -0.0048999  0.0011457  1.5664691 -0.0049007
  0.0012681  0.0207341  1.5664324 -0.0048042 -0.0001999  1.5664324 -0.0048042
  0.0008489  0.0202945  1.5707156 -0.0036229  0.0010652  1.5707163 -0.0036237
  0.0012525  0.0202887  1.5706954 -0.0035212 -0.0002977  1.5706954 -0.0035213
  0.0021975  0.0195386  1.5772865 -0.0034102  0.0015160  1.5772879 -0.0034116
  0.0022199  0.0199618  1.5732783 -0.0046249  0.0016796  1.5732801 -0.0046267
  0.0025878  0.0195377  1.5773492 -0.0031736  0.0002041  1.5773492 -0.0031736
  0.0026124  0.0199571  1.5733048 -0.0044006  0.0003771  1.5733049 -0.0044007
  0.0019105  0.0195385  1.5773742 -0.0031911 -0.0000551  1.5773742 -0.0031911
  0.0015169  0.0195373  1.5773053 -0.0033854  0.0012748  1.5773063 -0.0033864
  0.0019308  0.0199642  1.5732733 -0.0044303  0.0000853  1.5732733 -0.0044303
  0.0015336  0.0199659  1.5732330 -0.0046143  0.0014018  1.5732343 -0.0046155
  0.0018966  0.0192285  1.5798055 -0.0041401  0.0000542  1.5798055 -0.0041401
  0.0018788  0.0188071  1.5838638 -0.0029152 -0.0000731  1.5838638 -0.0029152
  0.0015054  0.0192256  1.5797253 -0.0043247  0.0013569  1.5797265 -0.0043259
  0.0014907  0.0188027  1.5837676 -0.0031060  0.0012406  1.5837686 -0.0031069
  0.0021821  0.0192300  1.5796758 -0.0043408  0.0016256  1.5796775 -0.0043425
  0.0025711  0.0192313  1.5797548 -0.0041142  0.0003274  1.5797549 -0.0041142
  0.0021626  0.0188100  1.5836801 -0.0031294  0.0014763  1.5836815 -0.0031308
  0.0025499  0.0188135  1.5837813 -0.0028951  0.0001714  1.5837813 -0.0028951
  0.0008256  0.0192280  1.5797793 -0.0042816  0.0010767  1.5797800 -0.0042824
  0.0012184  0.0192255  1.5797864 -0.0041866 -0.0002283  1.5797864 -0.0041867
  0.0008171  0.0188025  1.5838448 -0.0030600  0.0010095  1.5838454 -0.0030607
  0.0012062  0.0188014  1.5838654 -0.0029600 -0.0003086  1.5838654 -0.0029601
  0.0008321  0.0195416  1.5773337 -0.0033397  0.0010358  1.5773344 -0.0033404
  0.0008415  0.0199730  1.5732214 -0.0045757  0.0011087  1.5732222 -0.0045765
  0.0012279  0.0195381  1.5773334 -0.0032396 -0.0003026  1.5773334 -0.0032397
  0.0012417  0.0199683  1.5732098 -0.0044801 -0.0002148  1.5732098 -0.0044801
  0.0005420  0.0195426  1.5773287 -0.0032708 -0.0005504  1.5773289 -0.0032710
  0.0001452  0.0195421  1.5773105 -0.0033156  0.0007930  1.5773109 -0.0033160
  0.0005482  0.0199744  1.5732007 -0.0045098 -0.0005134  1.5732009 -0.0045100
  0.0001469  0.0199737  1.5731810 -0.0045546  0.0008148  1.5731814 -0.0045550
  0.0005377  0.0192286  1.5797857 -0.0042174 -0.0005105  1.5797858 -0.0042176
  0.0005321  0.0188023  1.5838809 -0.0029883 -0.0005451  1.5838811 -0.0029885
  0.0001441  0.0192278  1.5797660 -0.0042608  0.0007967  1.5797664 -0.0042612
  0.0001426  0.0188008  1.5838533 -0.0030345  0.0007759  1.5838537 -0.0030349
  0.0005228  0.0180858  1.5902350 -0.0027364 -0.0005418  1.5902352 -0.0027366
  0.0001401  0.0180831  1.5901974 -0.0027839  0.0007598  1.5901978 -0.0027843
  0.0005281  0.0184961  1.5862822 -0.0039227 -0.0005092  1.5862823 -0.0039229
  0.0001415  0.0184941  1.5862507 -0.0039680  0.0007794  1.5862511 -0.0039684
  0.0005189  0.0177872  1.5925755 -0.0036634 -0.0005072  1.5925757 -0.0036636
  0.0005136  0.0173816  1.5964872 -0.0024894 -0.0005396  1.5964874 -0.0024896
  0.0001390  0.0177845  1.5925382 -0.0037098  0.0007635  1.5925385 -0.0037101
  0.0001376  0.0173793  1.5964534 -0.0025351  0.0007441  1.5964538 -0.0025354
  0.0007971  0.0177882  1.5925104 -0.0037416  0.0010158  1.5925111 -0.0037423
  0.0011771  0.0177883  1.5925420 -0.0036389 -0.0002556  1.5925421 -0.0036389
  0.0007890  0.0173824  1.5964299 -0.0025638  0.0009498  1.5964305 -0.0025644
  0.0011653  0.0173823  1.5964603 -0.0024605 -0.0003342  1.5964603 -0.0024606
  0.0008030  0.0180868  1.5901716 -0.0028128  0.0009803  1.5901722 -0.0028134
  0.0008110  0.0184967  1.5862313 -0.0039969  0.0010460  1.5862320 -0.0039976
  0.0011857  0.0180868  1.5902029 -0.0027088 -0.0003204  1.5902029 -0.0027088
  0.0011974  0.0184963  1.5862584 -0.0038949 -0.0002423  1.5862585 -0.0038950
  0.0018488  0.0180937  1.5901844 -0.0026620 -0.0001007  1.5901844 -0.0026620
  0.0014659  0.0180886  1.5900813 -0.0028560  0.0012002  1.5900822 -0.0028570
  0.0018660  0.0185030  1.5862411 -0.0038522  0.0000238  1.5862411 -0.0038522
  0.0014801  0.0184980  1.5861398 -0.0040444  0.0013145  1.5861409 -0.0040455
  0.0018360  0.0177951  1.5925160 -0.0035981 -0.0000043  1.5925160 -0.0035981
  0.0018182  0.0173886  1.5964447 -0.0024119 -0.0001317  1.5964447 -0.0024119
  0.0014554  0.0177901  1.5924148 -0.0037906  0.0012724  1.5924158 -0.0037916
  0.0014410  0.0173840  1.5963457 -0.0026051  0.0011565  1.5963466 -0.0026060
  0.0021150  0.0177985  1.5923089 -0.0038239  0.0015205  1.5923103 -0.0038254
  0.0024967  0.0178028  1.5924188 -0.0035819  0.0002374  1.5924189 -0.0035819
  0.0020948  0.0173917  1.5962535 -0.0026294  0.0013657  1.5962547 -0.0026306
  0.0024735  0.0173954  1.5963592 -0.0023870  0.0000726  1.5963592 -0.0023870
  0.0021293  0.0180972  1.5899779 -0.0028762  0.0014234  1.5899792 -0.0028774
  0.0021485  0.0185065  1.5860350 -0.0040692  0.0015717  1.5860366 -0.0040707
  0.0025130  0.0181017  1.5900889 -0.0026370  0.0001222  1.5900890 -0.0026370
  0.0025343  0.0185109  1.5861444 -0.0038317  0.0002781  1.5861445 -0.0038318
  0.0020584  0.0167048  1.6023959 -0.0024120  0.0013078  1.6023969 -0.0024130
  0.0020797  0.0170986  1.5985527 -0.0035774  0.0014698  1.5985540 -0.0035788
  0.0024309  0.0167059  1.6024798 -0.0021654  0.0000300  1.6024798 -0.0021654
  0.0024558  0.0171015  1.5986526 -0.0033281  0.0002036  1.5986526 -0.0033282
  0.0017864  0.0167032  1.6025398 -0.0021959 -0.0001589  1.6025398 -0.0021960
  0.0014155  0.0166998  1.6024520 -0.0023884  0.0011135  1.6024527 -0.0023892
  0.0018049  0.0170960  1.5987328 -0.0033462 -0.0000293  1.5987328 -0.0033462
  0.0014304  0.0170918  1.5986384 -0.0035390  0.0012309  1.5986393 -0.0035400
  0.0017723  0.0164169  1.6047825 -0.0031219 -0.0000474  1.6047825 -0.0031219
  0.0017525  0.0160277  1.6085662 -0.0019776 -0.0001842  1.6085662 -0.0019776
  0.0014043  0.0164142  1.6047002 -0.0033154  0.0011933  1.6047011 -0.0033163
  0.0013885  0.0160258  1.6084912 -0.0021708  0.0010699  1.6084919 -0.0021715
  0.0020423  0.0164180  1.6046552 -0.0033536  0.0014227  1.6046565 -0.0033548
  0.0024119  0.0164183  1.6047330 -0.0031025  0.0001771  1.6047330 -0.0031026
  0.0020195  0.0160283  1.6084580 -0.0021986  0.0012515  1.6084589 -0.0021995
  0.0023852  0.0160281  1.6085314 -0.0019464 -0.0000073  1.6085314 -0.0019464
  0.0007686  0.0164142  1.6047631 -0.0032622  0.0009597  1.6047636 -0.0032628
  0.0011354  0.0164134  1.6047875 -0.0031585 -0.0002745  1.6047875 -0.0031585
  0.0007599  0.0160268  1.6085364 -0.0021279  0.0008905  1.6085369 -0.0021284
  0.0011225  0.0160256  1.6085568 -0.0020243 -0.0003578  1.6085569 -0.0020244
  0.0007748  0.0166993  1.6025183 -0.0023451  0.0009205  1.6025188 -0.0023456
  0.0007830  0.0170906  1.5987226 -0.0034859  0.0009866  1.5987232 -0.0034865
  0.0011445  0.0166988  1.6025446 -0.0022425 -0.0003462  1.6025447 -0.0022425
  0.0011565  0.0170904  1.5987513 -0.0033835 -0.0002671  1.5987513 -0.0033835
  0.0005044  0.0166990  1.6025579 -0.0022739 -0.0005376  1.6025581 -0.0022741
  0.0001351  0.0166977  1.6025329 -0.0023189  0.0007280  1.6025332 -0.0023192
  0.0005097  0.0170900  1.5987740 -0.0034096 -0.0005044  1.5987741 -0.0034098
  0.0001366  0.0170881  1.5987436 -0.0034558  0.0007479  1.5987440 -0.0034561
  0.0005003  0.0164141  1.6047984 -0.0031865 -0.0005005  1.6047985 -0.0031866
  0.0004947  0.0160267  1.6085676 -0.0020552 -0.0005350  1.6085677 -0.0020553
  0.0001341  0.0164129  1.6047752 -0.0032303  0.0007320  1.6047756 -0.0032306
  0.0001325  0.0160254  1.6085421 -0.0021001  0.0007117  1.6085424 -0.0021004
  0.0004847  0.0153730  1.6144240 -0.0018645 -0.0005307  1.6144242 -0.0018647
  0.0001299  0.0153718  1.6143999 -0.0019078  0.0006956  1.6144002 -0.0019081
  0.0004905  0.0157478  1.6107682 -0.0029618 -0.0004964  1.6107683 -0.0029620
  0.0001314  0.0157464  1.6107433 -0.0030050  0.0007154  1.6107436 -0.0030053
  0.0004803  0.0151003  1.6165771 -0.0027608 -0.0004895  1.6165773 -0.0027609
  0.0004740  0.0147300  1.6201985 -0.0016737 -0.0005259  1.6201987 -0.0016739
  0.0001287  0.0150993  1.6165552 -0.0028042  0.0006998  1.6165555 -0.0028045
  0.0001270  0.0147295  1.6201809 -0.0017164  0.0006790  1.6201811 -0.0017166
  0.0007379  0.0151000  1.6165604 -0.0028410  0.0009066  1.6165609 -0.0028415
  0.0010901  0.0150980  1.6165746 -0.0027357 -0.0002846  1.6165746 -0.0027357
  0.0007284  0.0147293  1.6201957 -0.0017476  0.0008324  1.6201962 -0.0017480
  0.0010761  0.0147267  1.6202039 -0.0016429 -0.0003737  1.6202040 -0.0016429
  0.0007446  0.0153729  1.6144008 -0.0019388  0.0008624  1.6144013 -0.0019393
  0.0007535  0.0157477  1.6107398 -0.0030395  0.0009325  1.6107404 -0.0030401
  0.0011000  0.0153712  1.6144170 -0.0018349 -0.0003653  1.6144171 -0.0018350
  0.0011131  0.0157463  1.6107582 -0.0029361 -0.0002809  1.6107583 -0.0029362
  0.0019794  0.0153702  1.6143773 -0.0020035  0.0011983  1.6143781 -0.0020044
  0.0020027  0.0157476  1.6106755 -0.0031290  0.0013719  1.6106767 -0.0031302
  0.0023378  0.0153677  1.6144298 -0.0017542 -0.0000390  1.6144298 -0.0017542
  0.0023653  0.0157466  1.6107421 -0.0028781  0.0001481  1.6107421 -0.0028781
  0.0017176  0.0153710  1.6144379 -0.0017888 -0.0002039  1.6144380 -0.0017888
  0.0013607  0.0153707  1.6143780 -0.0019798  0.0010297  1.6143787 -0.0019804
  0.0017378  0.0157475  1.6107682 -0.0028993 -0.0000658  1.6107682 -0.0028993
  0.0013768  0.0157462  1.6106998 -0.0030910  0.0011543  1.6107006 -0.0030918
  0.0017024  0.0150969  1.6165971 -0.0027012 -0.0000794  1.6165971 -0.0027012
  0.0016809  0.0147245  1.6202410 -0.0015974 -0.0002242  1.6202410 -0.0015974
  0.0013485  0.0150972  1.6165424 -0.0028923  0.0011186  1.6165432 -0.0028931
  0.0013314  0.0147254  1.6201920 -0.0017889  0.0009882  1.6201926 -0.0017895
  0.0019619  0.0150955  1.6165550 -0.0029298  0.0013252  1.6165561 -0.0029309
  0.0023172  0.0150922  1.6166009 -0.0026786  0.0001240  1.6166009 -0.0026786
  0.0019374  0.0147226  1.6202173 -0.0018145  0.0011437  1.6202181 -0.0018153
  0.0022885  0.0147183  1.6202547 -0.0015631 -0.0000710  1.6202547 -0.0015631
  0.0016432  0.0140918  1.6259237 -0.0014299 -0.0002409  1.6259237 -0.0014300
  0.0013010  0.0140949  1.6258960 -0.0016154  0.0009485  1.6258965 -0.0016159
  0.0016651  0.0144551  1.6223669 -0.0025081 -0.0000949  1.6223669 -0.0025081
  0.0013187  0.0144568  1.6223256 -0.0026955  0.0010808  1.6223263 -0.0026962
  0.0016265  0.0138271  1.6280168 -0.0023308 -0.0001051  1.6280168 -0.0023308
  0.0016027  0.0134673  1.6315435 -0.0012598 -0.0002623  1.6315435 -0.0012598
  0.0012875  0.0138313  1.6279972 -0.0025210  0.0010469  1.6279978 -0.0025217
  0.0012681  0.0134733  1.6315415 -0.0014470  0.0009036  1.6315420 -0.0014475
  0.0018755  0.0138232  1.6280641 -0.0025592  0.0012303  1.6280651 -0.0025602
  0.0022167  0.0138166  1.6280812 -0.0023091  0.0000718  1.6280812 -0.0023091
  0.0018488  0.0134623  1.6316272 -0.0014709  0.0010370  1.6316279 -0.0014715
  0.0021862  0.0134545  1.6316316 -0.0012220 -0.0001331  1.6316316 -0.0012220
  0.0018944  0.0140885  1.6259479 -0.0016395  0.0010929  1.6259487 -0.0016402
  0.0019193  0.0144527  1.6223625 -0.0027323  0.0012752  1.6223635 -0.0027333
  0.0022384  0.0140828  1.6259696 -0.0013935 -0.0000996  1.6259696 -0.0013935
  0.0022674  0.0144479  1.6223934 -0.0024862  0.0000958  1.6223934 -0.0024862
  0.0007038  0.0138391  1.6279550 -0.0024667  0.0008554  1.6279555 -0.0024672
  0.0010402  0.0138346  1.6279463 -0.0023616 -0.0002865  1.6279464 -0.0023617
  0.0006927  0.0134833  1.6314716 -0.0014082  0.0007725  1.6314720 -0.0014085
  0.0010242  0.0134776  1.6314508 -0.0013051 -0.0003859  1.6314509 -0.0013052
  0.0007115  0.0141013  1.6258681 -0.0015753  0.0008043  1.6258685 -0.0015757
  0.0007213  0.0144617  1.6223211 -0.0026423  0.0008797  1.6223216 -0.0026428
  0.0010514  0.0140974  1.6258636 -0.0014736 -0.0003788  1.6258637 -0.0014737
  0.0010658  0.0144586  1.6223247 -0.0025395 -0.0002879  1.6223247 -0.0025396
  0.0004630  0.0141029  1.6258403 -0.0015062 -0.0005195  1.6258404 -0.0015064
  0.0001241  0.0141034  1.6258333 -0.0015457  0.0006618  1.6258336 -0.0015460
  0.0004694  0.0144628  1.6223120 -0.0025654 -0.0004824  1.6223121 -0.0025655
  0.0001258  0.0144626  1.6222987 -0.0026063  0.0006828  1.6222989 -0.0026066
  0.0004580  0.0138411  1.6279140 -0.0023858 -0.0004720  1.6279141 -0.0023859
  0.0004506  0.0134858  1.6314116 -0.0013356 -0.0005131  1.6314118 -0.0013358
  0.0001227  0.0138420  1.6279101 -0.0024254  0.0006656  1.6279103 -0.0024257
  0.0001207  0.0134870  1.6314112 -0.0013749  0.0006429  1.6314115 -0.0013751
  0.0004360  0.0128836  1.6368520 -0.0011833 -0.0005048  1.6368521 -0.0011835
  0.0001168  0.0128864  1.6368667 -0.0012204  0.0006212  1.6368669 -0.0012206
  0.0004447  0.0132292  1.6334464 -0.0022061 -0.0004578  1.6334465 -0.0022062
  0.0001192  0.0132310  1.6334501 -0.0022456  0.0006463  1.6334503 -0.0022459
  0.0004282  0.0126338  1.6388299 -0.0020310 -0.0004350  1.6388300 -0.0020311
  0.0004157  0.0122970  1.6421543 -0.0010315 -0.0005016  1.6421544 -0.0010316
  0.0001147  0.0126378  1.6388506 -0.0020803  0.0006236  1.6388508 -0.0020805
  0.0001114  0.0123033  1.6422002 -0.0010748  0.0005882  1.6422004 -0.0010751
  0.0006595  0.0126280  1.6390000 -0.0021521  0.0008076  1.6390004 -0.0021525
  0.0009778  0.0126162  1.6389355 -0.0020223 -0.0002667  1.6389355 -0.0020223
  0.0006414  0.0122883  1.6424024 -0.0011226  0.0006808  1.6424026 -0.0011229
  0.0009535  0.0122711  1.6422799 -0.0010076 -0.0004114  1.6422800 -0.0010077
  0.0006709  0.0128793  1.6369772 -0.0012591  0.0007367  1.6369775 -0.0012594
  0.0006839  0.0132261  1.6335289 -0.0022983  0.0008312  1.6335294 -0.0022988
  0.0009934  0.0128703  1.6369263 -0.0011544 -0.0003945  1.6369264 -0.0011545
  0.0010117  0.0132192  1.6335010 -0.0021886 -0.0002828  1.6335010 -0.0021887
  0.0018006  0.0128453  1.6372446 -0.0013120  0.0009831  1.6372452 -0.0013126
  0.0018287  0.0132003  1.6337283 -0.0023882  0.0011838  1.6337292 -0.0023890
  0.0021325  0.0128346  1.6372212 -0.0010665 -0.0001660  1.6372212 -0.0010665
  0.0021637  0.0131914  1.6337241 -0.0021390  0.0000437  1.6337241 -0.0021390
  0.0015592  0.0128530  1.6370686 -0.0011118 -0.0002854  1.6370687 -0.0011119
  0.0012314  0.0128632  1.6371052 -0.0012982  0.0008544  1.6371057 -0.0012987
  0.0015847  0.0132063  1.6336125 -0.0021637 -0.0001179  1.6336125 -0.0021637
  0.0012530  0.0132139  1.6336219 -0.0023562  0.0010105  1.6336225 -0.0023568
  0.0015388  0.0125946  1.6391281 -0.0020066 -0.0001280  1.6391281 -0.0020066
  0.0015084  0.0122419  1.6425715 -0.0009524 -0.0003264  1.6425716 -0.0009524
  0.0012134  0.0126073  1.6391768 -0.0022208  0.0009831  1.6391774 -0.0022214
  0.0011858  0.0122587  1.6426625 -0.0011554  0.0007907  1.6426629 -0.0011558
  0.0017787  0.0125855  1.6393366 -0.0022426  0.0011420  1.6393374 -0.0022434
  0.0021089  0.0125734  1.6393087 -0.0019761  0.0000191  1.6393087 -0.0019761
  0.0017468  0.0122306  1.6428398 -0.0011649  0.0009174  1.6428403 -0.0011654
  0.0020755  0.0122164  1.6427919 -0.0009034 -0.0002086  1.6427919 -0.0009035
  0.0016855  0.0116088  1.6485477 -0.0009733  0.0009119  1.6485482 -0.0009738
  0.0017218  0.0119688  1.6449863 -0.0020681  0.0011378  1.6449871 -0.0020689
  0.0020181  0.0115959  1.6485008 -0.0007475 -0.0002276  1.6485008 -0.0007475
  0.0020512  0.0119545  1.6449229 -0.0018450 -0.0000113  1.6449229 -0.0018450
  0.0014456  0.0116248  1.6479690 -0.0007776 -0.0003965  1.6479691 -0.0007777
  0.0011228  0.0116558  1.6481510 -0.0010606  0.0006608  1.6481513 -0.0010609
  0.0014835  0.0119820  1.6446408 -0.0018149 -0.0001327  1.6446408 -0.0018149
  0.0011616  0.0120037  1.6447364 -0.0021268  0.0009377  1.6447369 -0.0021273
  0.0014179  0.0113568  1.6503823 -0.0018288 -0.0001840  1.6503823 -0.0018289
  0.0013800  0.0109817  1.6543175 -0.0006189 -0.0004349  1.6543176 -0.0006190
  0.0010814  0.0113843  1.6505925 -0.0020389  0.0010928  1.6505933 -0.0020396
  0.0010068  0.0109905  1.6543145 -0.0008702  0.0007413  1.6543148 -0.0008705
  0.0016630  0.0113429  1.6506488 -0.0019406  0.0010938  1.6506495 -0.0019414
  0.0019961  0.0113324  1.6506191 -0.0017252 -0.0000576  1.6506191 -0.0017252
  0.0016379  0.0109764  1.6542574 -0.0008413  0.0009131  1.6542579 -0.0008418
  0.0019691  0.0109709  1.6542769 -0.0006093 -0.0002486  1.6542769 -0.0006094
  0.0005565  0.0114859  1.6499462 -0.0019302  0.0007860  1.6499466 -0.0019305
  0.0008506  0.0114189  1.6495573 -0.0014990 -0.0000405  1.6495573 -0.0014990
  0.0004892  0.0111865  1.6531532 -0.0008126  0.0002716  1.6531533 -0.0008126
  0.0007681  0.0110454  1.6521344 -0.0006031 -0.0004504  1.6521345 -0.0006033
  0.0005925  0.0117156  1.6478404 -0.0009757  0.0006096  1.6478407 -0.0009759
  0.0006234  0.0120439  1.6444457 -0.0020142  0.0008033  1.6444460 -0.0020146
  0.0008943  0.0116801  1.6475448 -0.0008728 -0.0004484  1.6475449 -0.0008729
  0.0009311  0.0120203  1.6442773 -0.0018752 -0.0002459  1.6442773 -0.0018752
  0.0003802  0.0117364  1.6470738 -0.0008892 -0.0005189  1.6470740 -0.0008893
  0.0001019  0.0117577  1.6472449 -0.0009910  0.0004922  1.6472450 -0.0009912
  0.0004028  0.0120565  1.6440256 -0.0018150 -0.0003815  1.6440256 -0.0018151
  0.0001079  0.0120674  1.6440797 -0.0019439  0.0005782  1.6440799 -0.0019441
  0.0003540  0.0115209  1.6487112 -0.0015943 -0.0001951  1.6487112 -0.0015943
  0.0003053  0.0112520  1.6510222 -0.0008598 -0.0004284  1.6510223 -0.0008599
  0.0000949  0.0115493  1.6488679 -0.0017486  0.0005066  1.6488680 -0.0017488
  0.0000818  0.0112899  1.6513402 -0.0009946  0.0003689  1.6513403 -0.0009947
  0.0003194  0.0108481  1.6552769 -0.0012281  0.0002129  1.6552769 -0.0012281
  0.0004257  0.0110156  1.6551900 -0.0016534  0.0004449  1.6551901 -0.0016535
  0.0004215  0.0106808  1.6554485 -0.0007920  0.0004649  1.6554486 -0.0007922
  0.0006531  0.0108476  1.6553382 -0.0012212  0.0005647  1.6553384 -0.0012214
  0.0002224  0.0109125  1.6544608 -0.0010002 -0.0003549  1.6544609 -0.0010003
  0.0000596  0.0109211  1.6545705 -0.0009606  0.0003575  1.6545706 -0.0009607
  0.0002701  0.0110890  1.6524789 -0.0015930 -0.0001702  1.6524790 -0.0015930
  0.0000724  0.0111216  1.6527472 -0.0015072  0.0003958  1.6527473 -0.0015073
  0.0002212  0.0107836  1.6561429 -0.0013919 -0.0003451  1.6561430 -0.0013920
  0.0002655  0.0106078  1.6581218 -0.0008061 -0.0001821  1.6581218 -0.0008061
  0.0000593  0.0107747  1.6560223 -0.0014593  0.0003572  1.6560224 -0.0014593
  0.0000711  0.0105750  1.6578415 -0.0009152  0.0003842  1.6578416 -0.0009153
  0.0013715  0.0103358  1.6602402 -0.0004443 -0.0003123  1.6602402 -0.0004444
  0.0010439  0.0103126  1.6599771 -0.0005204  0.0009918  1.6599777 -0.0005210
  0.0013676  0.0107081  1.6562806 -0.0016322 -0.0003278  1.6562807 -0.0016323
  0.0009968  0.0107033  1.6562388 -0.0016422  0.0008328  1.6562392 -0.0016426
  0.0013743  0.0100711  1.6625926 -0.0014779 -0.0003351  1.6625926 -0.0014780
  0.0013782  0.0097204  1.6659157 -0.0004801 -0.0002902  1.6659157 -0.0004802
  0.0010655  0.0100447  1.6623664 -0.0014726  0.0006852  1.6623666 -0.0014729
  0.0010775  0.0097035  1.6657717 -0.0004480  0.0007596  1.6657720 -0.0004484
  0.0016039  0.0100827  1.6620355 -0.0016154  0.0009484  1.6620360 -0.0016160
  0.0019225  0.0100878  1.6621235 -0.0014749 -0.0001426  1.6621235 -0.0014749
  0.0016012  0.0097289  1.6655941 -0.0005469  0.0008887  1.6655946 -0.0005473
  0.0019099  0.0097351  1.6656979 -0.0003979 -0.0002379  1.6656979 -0.0003979
  0.0016099  0.0103454  1.6599687 -0.0006614  0.0009107  1.6599692 -0.0006619
  0.0016237  0.0107092  1.6563756 -0.0017449  0.0010150  1.6563762 -0.0017456
  0.0019339  0.0103483  1.6600437 -0.0005034 -0.0002418  1.6600437 -0.0005034
  0.0019524  0.0107073  1.6564010 -0.0016039 -0.0001186  1.6564010 -0.0016039
  0.0005342  0.0102165  1.6605942 -0.0005530  0.0007190  1.6605945 -0.0005533
  0.0004790  0.0105116  1.6573551 -0.0016278  0.0002971  1.6573551 -0.0016279
  0.0008196  0.0102806  1.6610229 -0.0008637 -0.0001365  1.6610229 -0.0008637
  0.0007587  0.0106507  1.6584040 -0.0017228 -0.0004577  1.6584042 -0.0017229
  0.0003389  0.0101828  1.6618308 -0.0007969 -0.0002185  1.6618309 -0.0007970
  0.0000908  0.0101548  1.6616595 -0.0006865  0.0004711  1.6616596 -0.0006866
  0.0002971  0.0104468  1.6595464 -0.0015115 -0.0004158  1.6595465 -0.0015116
  0.0000796  0.0104089  1.6592157 -0.0014284  0.0003571  1.6592158 -0.0014285
  0.0003591  0.0099718  1.6634172 -0.0014940 -0.0004869  1.6634174 -0.0014942
  0.0003724  0.0096594  1.6664332 -0.0005846 -0.0004005  1.6664333 -0.0005847
  0.0000962  0.0099512  1.6632360 -0.0014506  0.0004631  1.6632362 -0.0014507
  0.0000998  0.0096492  1.6663653 -0.0005105  0.0005192  1.6663655 -0.0005107
  0.0005604  0.0099911  1.6626545 -0.0015178  0.0006068  1.6626547 -0.0015180
  0.0008475  0.0100232  1.6629657 -0.0014624 -0.0004040  1.6629658 -0.0014625
  0.0005768  0.0096704  1.6660306 -0.0005027  0.0006843  1.6660309 -0.0005030
  0.0008627  0.0096901  1.6662192 -0.0004844 -0.0003354  1.6662192 -0.0004845
  0.0015889  0.0091308  1.6711426 -0.0004136  0.0008085  1.6711430 -0.0004140
  0.0015972  0.0094738  1.6676838 -0.0014537  0.0008777  1.6676843 -0.0014542
  0.0018868  0.0091339  1.6712035 -0.0003039 -0.0002531  1.6712036 -0.0003040
  0.0019003  0.0094795  1.6677691 -0.0013383 -0.0001664  1.6677691 -0.0013383
  0.0013731  0.0091273  1.6712971 -0.0003254 -0.0003121  1.6712972 -0.0003255
  0.0010812  0.0091207  1.6712156 -0.0003919  0.0007342  1.6712159 -0.0003922
  0.0013778  0.0094675  1.6679128 -0.0013413 -0.0002772  1.6679128 -0.0013414
  0.0010816  0.0094559  1.6677839 -0.0014214  0.0007544  1.6677843 -0.0014218
  0.0013673  0.0088794  1.6732764 -0.0012315 -0.0002548  1.6732765 -0.0012315
  0.0013563  0.0085423  1.6766436 -0.0002182 -0.0003300  1.6766437 -0.0002183
  0.0010781  0.0088759  1.6732150 -0.0013319  0.0007566  1.6732153 -0.0013323
  0.0010702  0.0085425  1.6766187 -0.0003086  0.0006913  1.6766190 -0.0003089
  0.0015810  0.0088810  1.6731661 -0.0013632  0.0008681  1.6731666 -0.0013637
  0.0018756  0.0088821  1.6732179 -0.0012234 -0.0001601  1.6732179 -0.0012234
  0.0015676  0.0085416  1.6766186 -0.0003217  0.0007642  1.6766190 -0.0003220
  0.0018587  0.0085400  1.6766440 -0.0001884 -0.0002753  1.6766440 -0.0001884
  0.0005863  0.0091088  1.6713385 -0.0004013  0.0006408  1.6713387 -0.0004015
  0.0005838  0.0094340  1.6680125 -0.0013990  0.0006365  1.6680127 -0.0013992
  0.0008704  0.0091157  1.6714121 -0.0003683 -0.0003616  1.6714121 -0.0003683
  0.0008689  0.0094470  1.6681458 -0.0013481 -0.0003619  1.6681459 -0.0013481
  0.0003804  0.0091051  1.6714784 -0.0004063 -0.0004411  1.6714785 -0.0004065
  0.0001019  0.0091019  1.6714468 -0.0004151  0.0005388  1.6714470 -0.0004153
  0.0003781  0.0094272  1.6682454 -0.0013762 -0.0004496  1.6682455 -0.0013764
  0.0001013  0.0094216  1.6681888 -0.0013925  0.0005362  1.6681889 -0.0013927
  0.0003805  0.0088680  1.6733723 -0.0012650 -0.0004375  1.6733724 -0.0012651
  0.0003783  0.0085423  1.6766506 -0.0002814 -0.0004524  1.6766507 -0.0002815
  0.0001020  0.0088662  1.6733493 -0.0012881  0.0005424  1.6733494 -0.0012882
  0.0001014  0.0085419  1.6766417 -0.0003003  0.0005330  1.6766419 -0.0003005
  0.0005859  0.0088699  1.6732823 -0.0013085  0.0006495  1.6732826 -0.0013088
  0.0008687  0.0088734  1.6733326 -0.0012472 -0.0003439  1.6733326 -0.0012473
  0.0005824  0.0085424  1.6766291 -0.0003039  0.0006158  1.6766293 -0.0003042
  0.0008629  0.0085425  1.6766456 -0.0002524 -0.0003853  1.6766456 -0.0002525
  0.0013303  0.0079602  1.6819686 -0.0001223 -0.0003540  1.6819687 -0.0001223
  0.0010491  0.0079670  1.6820006 -0.0002244  0.0006487  1.6820009 -0.0002247
  0.0013464  0.0082960  1.6786120 -0.0011355 -0.0002475  1.6786120 -0.0011355
  0.0010625  0.0082989  1.6786051 -0.0012484  0.0007475  1.6786054 -0.0012487
  0.0013163  0.0077141  1.6839494 -0.0010471 -0.0002471  1.6839494 -0.0010471
  0.0012941  0.0073775  1.6873117 -0.0000272 -0.0003903  1.6873118 -0.0000273
  0.0010367  0.0077241  1.6840028 -0.0011744  0.0007372  1.6840031 -0.0011748
  0.0010163  0.0073925  1.6874175 -0.0001394  0.0005969  1.6874177 -0.0001396
  0.0015231  0.0077074  1.6841143 -0.0011963  0.0008254  1.6841147 -0.0011967
  0.0018086  0.0076989  1.6840888 -0.0010251 -0.0001736  1.6840888 -0.0010252
  0.0015000  0.0073678  1.6875586 -0.0001484  0.0006606  1.6875589 -0.0001487
  0.0017846  0.0073564  1.6875033  0.0000141 -0.0003391  1.6875034  0.0000140
  0.0015382  0.0079554  1.6820870 -0.0002305  0.0007175  1.6820874 -0.0002308
  0.0015561  0.0082936  1.6786402 -0.0012738  0.0008486  1.6786406 -0.0012743
  0.0018248  0.0079491  1.6820713 -0.0000873 -0.0003021  1.6820713 -0.0000874
  0.0018450  0.0082900  1.6786528 -0.0011231 -0.0001644  1.6786528 -0.0011232
  0.0005624  0.0077403  1.6838583 -0.0011256  0.0006318  1.6838585 -0.0011258
  0.0008347  0.0077311  1.6837986 -0.0010483 -0.0003134  1.6837986 -0.0010483
  0.0005488  0.0074187  1.6871664 -0.0001282  0.0005381  1.6871665 -0.0001284
  0.0008166  0.0074036  1.6870430 -0.0000686 -0.0004201  1.6870431 -0.0000687
  0.0005703  0.0079773  1.6819174 -0.0002101  0.0005849  1.6819176 -0.0002103
  0.0005782  0.0083033  1.6785783 -0.0012138  0.0006443  1.6785785 -0.0012140
  0.0008454  0.0079716  1.6818810 -0.0001527 -0.0004019  1.6818811 -0.0001528
  0.0008566  0.0083009  1.6785769 -0.0011466 -0.0003319  1.6785769 -0.0011467
  0.0003703  0.0079802  1.6818267 -0.0001766 -0.0004553  1.6818268 -0.0001767
  0.0000992  0.0079824  1.6818420 -0.0001943  0.0005198  1.6818421 -0.0001945
  0.0003756  0.0083044  1.6785567 -0.0011580 -0.0004266  1.6785568 -0.0011581
  0.0001006  0.0083051  1.6785566 -0.0011800  0.0005350  1.6785567 -0.0011802
  0.0003650  0.0077450  1.6837135 -0.0010491 -0.0004088  1.6837136 -0.0010492
  0.0003555  0.0074265  1.6869358 -0.0000811 -0.0004589  1.6869359 -0.0000812
  0.0000978  0.0077486  1.6837375 -0.0010777  0.0005200  1.6837377 -0.0010779
  0.0000953  0.0074325  1.6869864 -0.0001027  0.0004940  1.6869865 -0.0001029
  0.0003261  0.0068927  1.6917117 -0.0000108 -0.0004739  1.6917118 -0.0000109
  0.0000874  0.0069132  1.6918954 -0.0000631  0.0004148  1.6918955 -0.0000632
  0.0003451  0.0071981  1.6887318 -0.0009126 -0.0003606  1.6887319 -0.0009127
  0.0000925  0.0072086  1.6887989 -0.0009943  0.0004837  1.6887991 -0.0009944
  0.0003038  0.0066871  1.6932969 -0.0007516 -0.0001988  1.6932969 -0.0007516
  0.0002620  0.0064308  1.6955546 -0.0000448 -0.0003966  1.6955547 -0.0000449
  0.0000814  0.0067146  1.6934708 -0.0008433  0.0004203  1.6934709 -0.0008434
  0.0000702  0.0064674  1.6958915 -0.0001083  0.0003072  1.6958916 -0.0001083
  0.0004777  0.0066533  1.6945536 -0.0009517  0.0006305  1.6945538 -0.0009519
  0.0007307  0.0065884  1.6941195 -0.0007095 -0.0000926  1.6941195 -0.0007095
  0.0004198  0.0063673  1.6976457  0.0000822  0.0002120  1.6976457  0.0000822
  0.0006592  0.0062306  1.6965961  0.0001174 -0.0004254  1.6965962  0.0001173
  0.0005084  0.0068727  1.6924943 -0.0000244  0.0004753  1.6924944 -0.0000245
  0.0005344  0.0071863  1.6891479 -0.0010415  0.0006335  1.6891482 -0.0010417
  0.0007680  0.0068386  1.6921826  0.0000112 -0.0004620  1.6921827  0.0000110
  0.0007987  0.0071644  1.6889695 -0.0009672 -0.0002973  1.6889696 -0.0009672
  0.0014517  0.0067691  1.6931865 -0.0000149  0.0006614  1.6931868 -0.0000151
  0.0014808  0.0071164  1.6896556 -0.0010899  0.0008372  1.6896560 -0.0010903
  0.0017406  0.0067570  1.6931158  0.0001182 -0.0003521  1.6931158  0.0001182
  0.0017664  0.0071040  1.6895801 -0.0009564 -0.0001879  1.6895801 -0.0009564
  0.0012439  0.0067847  1.6925612  0.0000756 -0.0004511  1.6925613  0.0000754
  0.0009651  0.0068150  1.6927755 -0.0000972  0.0004790  1.6927756 -0.0000973
  0.0012747  0.0071284  1.6893100 -0.0009254 -0.0002393  1.6893101 -0.0009254
  0.0009971  0.0071489  1.6894316 -0.0011285  0.0007039  1.6894319 -0.0011288
  0.0012206  0.0065263  1.6949279 -0.0009856 -0.0002726  1.6949279 -0.0009856
  0.0011879  0.0061643  1.6988098  0.0001976 -0.0004747  1.6988099  0.0001975
  0.0009297  0.0065544  1.6951854 -0.0010823  0.0008641  1.6951859 -0.0010827
  0.0008650  0.0061763  1.6988677  0.0000558  0.0005691  1.6988679  0.0000556
  0.0014332  0.0065122  1.6952510 -0.0010526  0.0008116  1.6952514 -0.0010530
  0.0017230  0.0065014  1.6951980 -0.0008981 -0.0002168  1.6951980 -0.0008981
  0.0014118  0.0061573  1.6988400  0.0000366  0.0006562  1.6988403  0.0000363
  0.0017007  0.0061501  1.6988221  0.0002024 -0.0003777  1.6988222  0.0002023
  0.0011763  0.0055377  1.7046706  0.0003216 -0.0003942  1.7046707  0.0003215
  0.0008917  0.0055223  1.7044754  0.0002181  0.0007698  1.7044758  0.0002178
  0.0011760  0.0058994  1.7007447 -0.0008561 -0.0003748  1.7007448 -0.0008562
  0.0008548  0.0058997  1.7007341 -0.0008993  0.0006611  1.7007343 -0.0008996
  0.0011750  0.0052796  1.7069804 -0.0007453 -0.0004012  1.7069805 -0.0007454
  0.0011714  0.0049360  1.7102848  0.0002457 -0.0004028  1.7102849  0.0002456
  0.0009060  0.0052631  1.7068269 -0.0007695  0.0005198  1.7068270 -0.0007697
  0.0009079  0.0049326  1.7102575  0.0002598  0.0005378  1.7102577  0.0002597
  0.0013765  0.0052852  1.7066134 -0.0008918  0.0007016  1.7066136 -0.0008921
  0.0016578  0.0052842  1.7066448 -0.0007562 -0.0002857  1.7066448 -0.0007562
  0.0013686  0.0049365  1.7101985  0.0001873  0.0006114  1.7101987  0.0001871
  0.0016437  0.0049348  1.7102222  0.0003235 -0.0003977  1.7102223  0.0003234
  0.0013846  0.0055427  1.7045520  0.0001607  0.0006526  1.7045523  0.0001605
  0.0013988  0.0058976  1.7009458 -0.0009261  0.0007509  1.7009462 -0.0009264
  0.0016692  0.0055409  1.7045665  0.0002667 -0.0003785  1.7045665  0.0002666
  0.0016863  0.0058927  1.7009296 -0.0008304 -0.0002685  1.7009296 -0.0008304
  0.0004533  0.0054407  1.7049385  0.0001539  0.0005722  1.7049387  0.0001537
  0.0004088  0.0057225  1.7017412 -0.0008696  0.0002400  1.7017413 -0.0008696
  0.0006980  0.0054963  1.7053565 -0.0000099 -0.0001929  1.7053565 -0.0000099
  0.0006493  0.0058523  1.7027886 -0.0008250 -0.0004411  1.7027887 -0.0008251
  0.0002869  0.0054114  1.7060609  0.0000223 -0.0002228  1.7060610  0.0000222
  0.0000769  0.0053869  1.7058933  0.0000820  0.0003860  1.7058934  0.0000819
  0.0002530  0.0056623  1.7038230 -0.0006680 -0.0003823  1.7038231 -0.0006681
  0.0000678  0.0056276  1.7034949 -0.0006432  0.0002965  1.7034950 -0.0006433
  0.0003016  0.0052126  1.7075453 -0.0007102 -0.0004294  1.7075454 -0.0007103
  0.0003080  0.0049205  1.7104399  0.0001597 -0.0003804  1.7104400  0.0001596
  0.0000808  0.0051964  1.7073926 -0.0006994  0.0003843  1.7073927 -0.0006995
  0.0000825  0.0049163  1.7104152  0.0002078  0.0004190  1.7104153  0.0002077
  0.0004723  0.0052267  1.7069356 -0.0007974  0.0004894  1.7069358 -0.0007975
  0.0007177  0.0052490  1.7071705 -0.0007128 -0.0003987  1.7071706 -0.0007129
  0.0004794  0.0049240  1.7102735  0.0002035  0.0005100  1.7102737  0.0002034
  0.0007225  0.0049294  1.7103346  0.0002361 -0.0003888  1.7103347  0.0002361
  0.0001894  0.0059834  1.7005435 -0.0005220 -0.0002959  1.7005435 -0.0005220
  0.0002268  0.0058156  1.7024460  0.0000321 -0.0001757  1.7024460  0.0000321
  0.0000507  0.0059755  1.7004225 -0.0006260  0.0003103  1.7004226 -0.0006261
  0.0000608  0.0057853  1.7021733 -0.0001044  0.0003162  1.7021733 -0.0001045
  0.0002736  0.0060447  1.6996932 -0.0004022  0.0001685  1.6996932 -0.0004022
  0.0003651  0.0062043  1.6996784 -0.0006756  0.0003340  1.6996785 -0.0006756
  0.0003606  0.0058844  1.6998527 -0.0000971  0.0003650  1.6998528 -0.0000972
  0.0005601  0.0060420  1.6997980 -0.0003804  0.0004314  1.6997981 -0.0003805
  0.0001907  0.0061066  1.6988987 -0.0002136 -0.0003137  1.6988988 -0.0002136
  0.0000511  0.0061153  1.6990270 -0.0001207  0.0003085  1.6990271 -0.0001208
  0.0002317  0.0062752  1.6969797 -0.0007749 -0.0001727  1.6969797 -0.0007750
  0.0000621  0.0063068  1.6972565 -0.0006488  0.0003232  1.6972566 -0.0006488
  0.0013427  0.0043339  1.7159345  0.0003193  0.0005807  1.7159347  0.0003191
  0.0013595  0.0046816  1.7123502 -0.0007602  0.0006750  1.7123505 -0.0007605
  0.0016176  0.0043303  1.7159206  0.0003838 -0.0004015  1.7159207  0.0003838
  0.0016329  0.0046792  1.7123474 -0.0006919 -0.0003130  1.7123475 -0.0006920
  0.0011461  0.0043423  1.7155347  0.0003466 -0.0004709  1.7155349  0.0003465
  0.0008839  0.0043616  1.7156760  0.0002360  0.0004347  1.7156761  0.0002359
  0.0011637  0.0046848  1.7122499 -0.0006487 -0.0003377  1.7122499 -0.0006488
  0.0009020  0.0046910  1.7122610 -0.0007995  0.0005775  1.7122612 -0.0007997
  0.0011314  0.0040856  1.7178627 -0.0007340 -0.0003419  1.7178628 -0.0007340
  0.0011088  0.0037267  1.7217622  0.0004435 -0.0004744  1.7217624  0.0004434
  0.0008579  0.0041045  1.7180481 -0.0007759  0.0007561  1.7180485 -0.0007762
  0.0008051  0.0037314  1.7217768  0.0003590  0.0005270  1.7217769  0.0003589
  0.0013322  0.0040775  1.7180005 -0.0007686  0.0006733  1.7180007 -0.0007689
  0.0016072  0.0040744  1.7180042 -0.0006581 -0.0003185  1.7180043 -0.0006581
  0.0013202  0.0037247  1.7216313  0.0003254  0.0005762  1.7216315  0.0003252
  0.0015940  0.0037239  1.7216588  0.0004436 -0.0004206  1.7216590  0.0004435
  0.0004375  0.0041891  1.7175670 -0.0006497  0.0005595  1.7175672 -0.0006499
  0.0006720  0.0041322  1.7171574 -0.0004777 -0.0001442  1.7171575 -0.0004777
  0.0003879  0.0039102  1.7206897  0.0003648  0.0001987  1.7206897  0.0003648
  0.0006119  0.0037806  1.7196463  0.0003285 -0.0004259  1.7196464  0.0003284
  0.0004612  0.0044015  1.7155622  0.0002840  0.0004385  1.7155623  0.0002839
  0.0004765  0.0047029  1.7122276 -0.0007205  0.0005293  1.7122278 -0.0007207
  0.0007004  0.0043775  1.7153298  0.0002766 -0.0004400  1.7153299  0.0002764
  0.0007179  0.0046959  1.7121745 -0.0006743 -0.0003494  1.7121746 -0.0006743
  0.0002947  0.0044163  1.7149386  0.0002393 -0.0004341  1.7149387  0.0002392
  0.0000790  0.0044327  1.7150900  0.0002105  0.0003738  1.7150901  0.0002104
  0.0003061  0.0047072  1.7120561 -0.0006290 -0.0003590  1.7120562 -0.0006291
  0.0000820  0.0047117  1.7120774 -0.0006944  0.0004225  1.7120775 -0.0006945
  0.0002773  0.0042189  1.7164354 -0.0005065 -0.0002058  1.7164354 -0.0005065
  0.0002412  0.0039703  1.7186622  0.0001836 -0.0003773  1.7186623  0.0001836
  0.0000743  0.0042433  1.7165992 -0.0005728  0.0003770  1.7165993 -0.0005729
  0.0000646  0.0040046  1.7189899  0.0001510  0.0002800  1.7189899  0.0001510
  0.0002548  0.0035939  1.7227302 -0.0001463  0.0001517  1.7227302 -0.0001463
  0.0003389  0.0037507  1.7226787 -0.0003767  0.0003023  1.7226787 -0.0003768
  0.0003370  0.0034374  1.7228187  0.0000903  0.0003092  1.7228188  0.0000902
  0.0005221  0.0035944  1.7227571 -0.0001419  0.0003752  1.7227571 -0.0001419
  0.0001773  0.0036541  1.7219305  0.0000091 -0.0002886  1.7219305  0.0000090
  0.0000475  0.0036620  1.7220541  0.0001171  0.0002901  1.7220541  0.0001171
  0.0002144  0.0038189  1.7200480 -0.0005373 -0.0001710  1.7200480 -0.0005373
  0.0000575  0.0038489  1.7203176 -0.0003998  0.0002938  1.7203177 -0.0003999
  0.0001767  0.0035335  1.7235580 -0.0002736 -0.0002851  1.7235581 -0.0002736
  0.0002123  0.0033688  1.7254458  0.0002726 -0.0001775  1.7254458  0.0002726
  0.0000474  0.0035252  1.7234268 -0.0003933  0.0002901  1.7234269 -0.0003934
  0.0000569  0.0033385  1.7251672  0.0001244  0.0002884  1.7251672  0.0001243
  0.0011096  0.0031063  1.7276053  0.0005339 -0.0004082  1.7276054  0.0005338
  0.0008406  0.0030865  1.7273663  0.0004415  0.0006992  1.7273666  0.0004412
  0.0011029  0.0034643  1.7236863 -0.0006413 -0.0004237  1.7236864 -0.0006414
  0.0008004  0.0034586  1.7236267 -0.0006777  0.0005673  1.7236269 -0.0006779
  0.0011127  0.0028505  1.7299209 -0.0005572 -0.0004486  1.7299210 -0.0005573
  0.0011146  0.0025097  1.7332247  0.0004342 -0.0004215  1.7332248  0.0004341
  0.0008575  0.0028303  1.7297350 -0.0005720  0.0004346  1.7297351 -0.0005721
  0.0008635  0.0025026  1.7331655  0.0004581  0.0004782  1.7331656  0.0004580
  0.0013040  0.0028591  1.7294416 -0.0006793  0.0005839  1.7294418 -0.0006795
  0.0015716  0.0028626  1.7295047 -0.0005770 -0.0003700  1.7295048 -0.0005770
  0.0013025  0.0025131  1.7330454  0.0004023  0.0005360  1.7330456  0.0004021
  0.0015649  0.0025155  1.7330985  0.0005033 -0.0004367  1.7330986  0.0005032
  0.0013070  0.0031146  1.7273785  0.0004172  0.0005774  1.7273786  0.0004170
  0.0013134  0.0034667  1.7237440 -0.0006742  0.0006238  1.7237442 -0.0006744
  0.0015773  0.0031177  1.7274261  0.0004781 -0.0004141  1.7274262  0.0004780
  0.0015860  0.0034676  1.7237677 -0.0006209 -0.0003589  1.7237678 -0.0006210
  0.0004273  0.0030007  1.7278832  0.0003461  0.0005221  1.7278833  0.0003459
  0.0003832  0.0032785  1.7247430 -0.0006533  0.0002096  1.7247431 -0.0006533
  0.0006578  0.0030582  1.7283285  0.0002359 -0.0001918  1.7283285  0.0002359
  0.0006076  0.0034088  1.7258121 -0.0005605 -0.0004286  1.7258122 -0.0005606
  0.0002705  0.0029706  1.7290568  0.0002479 -0.0002188  1.7290569  0.0002479
  0.0000725  0.0029458  1.7288795  0.0002903  0.0003596  1.7288795  0.0002903
  0.0002374  0.0032180  1.7268250 -0.0004387 -0.0003721  1.7268251 -0.0004388
  0.0000636  0.0031832  1.7264854 -0.0004330  0.0002755  1.7264854 -0.0004330
  0.0002853  0.0027740  1.7305457 -0.0005125 -0.0004223  1.7305458 -0.0005126
  0.0002928  0.0024843  1.7334522  0.0003612 -0.0003700  1.7334523  0.0003611
  0.0000765  0.0027571  1.7303817 -0.0005096  0.0003605  1.7303817 -0.0005096
  0.0000785  0.0024791  1.7334165  0.0004014  0.0003953  1.7334166  0.0004013
  0.0004468  0.0027892  1.7298815 -0.0006054  0.0004306  1.7298816 -0.0006055
  0.0006791  0.0028139  1.7301418 -0.0005259 -0.0004246  1.7301420 -0.0005260
  0.0004559  0.0024891  1.7332372  0.0004012  0.0004655  1.7332373  0.0004010
  0.0006870  0.0024970  1.7333225  0.0004282 -0.0003973  1.7333226  0.0004281
  0.0020810  0.0040709  1.7180484 -0.0006403 -0.0002790  1.7180485 -0.0006403
  0.0020654  0.0037224  1.7216579  0.0004485 -0.0003863  1.7216580  0.0004484
  0.0018078  0.0040726  1.7180323 -0.0007475  0.0007027  1.7180326 -0.0007478
  0.0017937  0.0037233  1.7216329  0.0003379  0.0006013  1.7216331  0.0003377
  0.0022805  0.0040695  1.7180356 -0.0007696  0.0007512  1.7180359 -0.0007699
  0.0025522  0.0040674  1.7180579 -0.0006309 -0.0002243  1.7180580 -0.0006310
  0.0022637  0.0037215  1.7216262  0.0003158  0.0006252  1.7216265  0.0003156
  0.0025337  0.0037200  1.7216541  0.0004570 -0.0003569  1.7216542  0.0004569
  0.0022935  0.0043243  1.7159507  0.0002602  0.0006588  1.7159509  0.0002599
  0.0023121  0.0046727  1.7123639 -0.0008256  0.0007958  1.7123643 -0.0008259
  0.0025665  0.0043219  1.7159726  0.0004107 -0.0003323  1.7159727  0.0004106
  0.0025870  0.0046697  1.7123800 -0.0006778 -0.0001882  1.7123801 -0.0006778
  0.0020931  0.0043260  1.7159549  0.0003977 -0.0003698  1.7159549  0.0003976
  0.0018186  0.0043282  1.7159362  0.0002668  0.0006263  1.7159364  0.0002665
  0.0021103  0.0046747  1.7123547 -0.0006902 -0.0002466  1.7123547 -0.0006902
  0.0018341  0.0046773  1.7123401 -0.0008190  0.0007427  1.7123404 -0.0008194
  0.0022390  0.0031192  1.7273153  0.0003760  0.0006022  1.7273155  0.0003758
  0.0022525  0.0034669  1.7237155 -0.0007093  0.0007043  1.7237158 -0.0007096
  0.0025062  0.0031186  1.7273435  0.0004909 -0.0003727  1.7273436  0.0004909
  0.0025214  0.0034658  1.7237385 -0.0005965 -0.0002648  1.7237385 -0.0005966
  0.0020429  0.0031193  1.7273606  0.0004827 -0.0004001  1.7273607  0.0004826
  0.0017745  0.0031190  1.7273255  0.0003771  0.0005806  1.7273257  0.0003769
  0.0020552  0.0034675  1.7237452 -0.0006063 -0.0003083  1.7237452 -0.0006063
  0.0017848  0.0034678  1.7237172 -0.0007090  0.0006650  1.7237174 -0.0007093
  0.0020345  0.0028649  1.7294546 -0.0005703 -0.0003351  1.7294546 -0.0005704
  0.0020236  0.0025178  1.7330717  0.0005178 -0.0004118  1.7330718  0.0005177
  0.0017673  0.0028642  1.7294228 -0.0006540  0.0006322  1.7294230 -0.0006542
  0.0017581  0.0025167  1.7330365  0.0004327  0.0005614  1.7330367  0.0004325
  0.0022296  0.0028650  1.7294010 -0.0006693  0.0006679  1.7294012 -0.0006695
  0.0024957  0.0028647  1.7294298 -0.0005626 -0.0002950  1.7294299 -0.0005626
  0.0022176  0.0025181  1.7330074  0.0004171  0.0005749  1.7330075  0.0004169
  0.0024821  0.0025182  1.7330405  0.0005257 -0.0003942  1.7330406  0.0005256
  0.0029572  0.0028622  1.7294207 -0.0005568 -0.0002614  1.7294208 -0.0005569
  0.0029411  0.0025166  1.7330216  0.0005303 -0.0003769  1.7330217  0.0005302
  0.0026907  0.0028639  1.7294008 -0.0006762  0.0007033  1.7294011 -0.0006765
  0.0026759  0.0025178  1.7329963  0.0004087  0.0005928  1.7329965  0.0004085
  0.0031519  0.0028606  1.7294103 -0.0006834  0.0007352  1.7294106 -0.0006837
  0.0034171  0.0028580  1.7294257 -0.0005494 -0.0002240  1.7294258 -0.0005494
  0.0031348  0.0025154  1.7329964  0.0004008  0.0006081  1.7329966  0.0004006
  0.0033986  0.0025133  1.7330171  0.0005371 -0.0003567  1.7330171  0.0005370
  0.0031651  0.0031137  1.7273316  0.0003570  0.0006464  1.7273318  0.0003567
  0.0031841  0.0034597  1.7237493 -0.0007278  0.0007862  1.7237496 -0.0007282
  0.0034314  0.0031107  1.7273474  0.0005045 -0.0003236  1.7273475  0.0005045
  0.0034518  0.0034562  1.7237598 -0.0005826 -0.0001784  1.7237598 -0.0005827
  0.0029696  0.0031155  1.7273365  0.0004981 -0.0003500  1.7273366  0.0004980
  0.0027020  0.0031176  1.7273165  0.0003665  0.0006260  1.7273167  0.0003662
  0.0029876  0.0034619  1.7237403 -0.0005891 -0.0002227  1.7237403 -0.0005891
  0.0027183  0.0034644  1.7237251 -0.0007185  0.0007472  1.7237255 -0.0007188
  0.0030237  0.0040617  1.7180736 -0.0006216 -0.0001759  1.7180737 -0.0006216
  0.0030020  0.0037154  1.7216602  0.0004665 -0.0003287  1.7216603  0.0004664
  0.0027514  0.0040653  1.7180608 -0.0007765  0.0008009  1.7180612 -0.0007769
  0.0027315  0.0037184  1.7216406  0.0003084  0.0006549  1.7216409  0.0003082
  0.0032224  0.0040588  1.7180980 -0.0007868  0.0008469  1.7180985 -0.0007872
  0.0034932  0.0040543  1.7181089 -0.0006114 -0.0001233  1.7181089 -0.0006114
  0.0031995  0.0037129  1.7216671  0.0002986  0.0006791  1.7216674  0.0002983
  0.0034684  0.0037090  1.7216836  0.0004769 -0.0002981  1.7216836  0.0004768
  0.0032399  0.0043122  1.7160210  0.0002412  0.0007219  1.7160213  0.0002409
  0.0032648  0.0046588  1.7124563 -0.0008452  0.0009026  1.7124568 -0.0008457
  0.0035121  0.0043073  1.7160321  0.0004323 -0.0002638  1.7160321  0.0004323
  0.0035389  0.0046533  1.7124614 -0.0006573 -0.0000756  1.7124614 -0.0006573
  0.0030402  0.0043155  1.7159928  0.0004195 -0.0002992  1.7159929  0.0004195
  0.0027666  0.0043195  1.7159795  0.0002490  0.0006919  1.7159798  0.0002487
  0.0030637  0.0046624  1.7124119 -0.0006689 -0.0001335  1.7124120 -0.0006689
  0.0027884  0.0046669  1.7124032 -0.0008370  0.0008511  1.7124036 -0.0008375
  0.0039645  0.0040419  1.7181637 -0.0006039 -0.0000776  1.7181637 -0.0006039
  0.0039364  0.0036983  1.7217220  0.0004835 -0.0002729  1.7217221  0.0004834
  0.0036920  0.0040498  1.7181812 -0.0007894  0.0008958  1.7181817 -0.0007899
  0.0036658  0.0037051  1.7217295  0.0002934  0.0007084  1.7217298  0.0002931
  0.0041635  0.0040355  1.7182943 -0.0007976  0.0009396  1.7182948 -0.0007982
  0.0044345  0.0040259  1.7182651 -0.0005965 -0.0000272  1.7182651 -0.0005965
  0.0041340  0.0036925  1.7218240  0.0002842  0.0007309  1.7218243  0.0002839
  0.0044033  0.0036837  1.7218023  0.0004891 -0.0002429  1.7218023  0.0004890
  0.0041858  0.0042872  1.7162219  0.0002307  0.0007848  1.7162223  0.0002303
  0.0042173  0.0046316  1.7126917 -0.0008544  0.0010068  1.7126923 -0.0008549
  0.0044583  0.0042769  1.7161906  0.0004482 -0.0001975  1.7161906  0.0004481
  0.0044921  0.0046204  1.7126518 -0.0006414  0.0000331  1.7126518 -0.0006414
  0.0039858  0.0042940  1.7160875  0.0004365 -0.0002320  1.7160875  0.0004365
  0.0037119  0.0043024  1.7161067  0.0002361  0.0007563  1.7161071  0.0002357
  0.0040159  0.0046390  1.7125334 -0.0006522 -0.0000245  1.7125334 -0.0006522
  0.0037402  0.0046480  1.7125572 -0.0008499  0.0009569  1.7125577 -0.0008504
  0.0040905  0.0030972  1.7274499  0.0003472  0.0006931  1.7274502  0.0003469
  0.0041144  0.0034411  1.7238990 -0.0007332  0.0008633  1.7238994 -0.0007336
  0.0043571  0.0030900  1.7274308  0.0005118 -0.0002755  1.7274308  0.0005118
  0.0043825  0.0034329  1.7238706 -0.0005724 -0.0000994  1.7238706 -0.0005724
  0.0038948  0.0031019  1.7273710  0.0005066 -0.0003016  1.7273710  0.0005066
  0.0036269  0.0031075  1.7273779  0.0003531  0.0006725  1.7273781  0.0003528
  0.0039177  0.0034464  1.7237963 -0.0005790 -0.0001418  1.7237964 -0.0005790
  0.0036484  0.0034526  1.7238093 -0.0007298  0.0008267  1.7238097 -0.0007302
  0.0038788  0.0028502  1.7294480 -0.0005450 -0.0001934  1.7294480 -0.0005450
  0.0038580  0.0025069  1.7330255  0.0005395 -0.0003404  1.7330255  0.0005394
  0.0036119  0.0028552  1.7294529 -0.0006863  0.0007705  1.7294532 -0.0006866
  0.0035924  0.0025110  1.7330213  0.0003947  0.0006287  1.7330215  0.0003945
  0.0040737  0.0028460  1.7295163 -0.0006891  0.0008012  1.7295167 -0.0006895
  0.0043393  0.0028395  1.7295013 -0.0005356 -0.0001559  1.7295014 -0.0005356
  0.0040518  0.0025034  1.7330647  0.0003884  0.0006433  1.7330649  0.0003882
  0.0043158  0.0024979  1.7330605  0.0005462 -0.0003202  1.7330605  0.0005461
  0.0048013  0.0028232  1.7295855 -0.0005333 -0.0001270  1.7295855 -0.0005333
  0.0047758  0.0024843  1.7331164  0.0005422 -0.0003027  1.7331164  0.0005421
  0.0045342  0.0028334  1.7296344 -0.0006871  0.0008340  1.7296348 -0.0006875
  0.0045098  0.0024928  1.7331491  0.0003827  0.0006634  1.7331493  0.0003824
  0.0049959  0.0028151  1.7297830 -0.0006838  0.0008608  1.7297835 -0.0006842
  0.0052608  0.0028029  1.7297175 -0.0005231 -0.0000893  1.7297175 -0.0005231
  0.0049696  0.0024775  1.7332595  0.0003771  0.0006777  1.7332597  0.0003768
  0.0052332  0.0024673  1.7332135  0.0005446 -0.0002785  1.7332135  0.0005446
  0.0050165  0.0030628  1.7277375  0.0003369  0.0007316  1.7277378  0.0003366
  0.0050463  0.0034019  1.7242606 -0.0007282  0.0009346  1.7242611 -0.0007287
  0.0052824  0.0030492  1.7276622  0.0005129 -0.0002282  1.7276622  0.0005129
  0.0053138  0.0033863  1.7241664 -0.0005592 -0.0000177  1.7241664 -0.0005592
  0.0048210  0.0030719  1.7275152  0.0005125 -0.0002551  1.7275152  0.0005125
  0.0045529  0.0030832  1.7275726  0.0003472  0.0007170  1.7275729  0.0003470
  0.0048496  0.0034123  1.7239832 -0.0005664 -0.0000629  1.7239832 -0.0005664
  0.0045795  0.0034252  1.7240556 -0.0007257  0.0009011  1.7240561 -0.0007262
  0.0049074  0.0040008  1.7184070 -0.0005922  0.0000148  1.7184070 -0.0005922
  0.0048727  0.0036612  1.7219150  0.0004889 -0.0002183  1.7219150  0.0004888
  0.0046339  0.0040166  1.7184936 -0.0007899  0.0009838  1.7184942 -0.0007904
  0.0046012  0.0036753  1.7219864  0.0002847  0.0007595  1.7219867  0.0002844
  0.0051068  0.0039882  1.7187439 -0.0007909  0.0010221  1.7187445 -0.0007915
  0.0053781  0.0039694  1.7186339 -0.0005810  0.0000669  1.7186339 -0.0005810
  0.0050705  0.0036498  1.7221979  0.0002779  0.0007758  1.7221982  0.0002776
  0.0053394  0.0036329  1.7221037  0.0004951 -0.0001897  1.7221038  0.0004950
  0.0051345  0.0042369  1.7166741  0.0002283  0.0008400  1.7166746  0.0002279
  0.0051737  0.0045778  1.7132118 -0.0008479  0.0011043  1.7132125 -0.0008486
  0.0054076  0.0042168  1.7165557  0.0004582 -0.0001346  1.7165557  0.0004582
  0.0054496  0.0045561  1.7130796 -0.0006252  0.0001414  1.7130796 -0.0006252
  0.0049338  0.0042503  1.7163272  0.0004459 -0.0001666  1.7163272  0.0004459
  0.0046587  0.0042670  1.7164189  0.0002306  0.0008174  1.7164193  0.0002302
  0.0049712  0.0045923  1.7128207 -0.0006389  0.0000827  1.7128207 -0.0006389
  0.0046941  0.0046099  1.7129196 -0.0008500  0.0010584  1.7129202 -0.0008506
  0.0058508  0.0039233  1.7189377 -0.0005772  0.0001098  1.7189377 -0.0005772
  0.0058072  0.0035919  1.7223441  0.0004864 -0.0001686  1.7223441  0.0004864
  0.0055774  0.0039520  1.7191415 -0.0007726  0.0010585  1.7191422 -0.0007733
  0.0055368  0.0036174  1.7225200  0.0002791  0.0007943  1.7225204  0.0002788
  0.0060496  0.0038999  1.7196542 -0.0007691  0.0010862  1.7196549 -0.0007697
  0.0063194  0.0038647  1.7193974 -0.0005682  0.0001653  1.7193974 -0.0005682
  0.0060035  0.0035711  1.7229446  0.0002658  0.0007945  1.7229450  0.0002654
  0.0062695  0.0035397  1.7227173  0.0004805 -0.0001444  1.7227173  0.0004805
  0.0060848  0.0041428  1.7175648  0.0002385  0.0008651  1.7175652  0.0002381
  0.0061349  0.0044776  1.7142155 -0.0008222  0.0011834  1.7142163 -0.0008230
  0.0063578  0.0041053  1.7172858  0.0004670 -0.0000913  1.7172858  0.0004670
  0.0064127  0.0044377  1.7139244 -0.0006034  0.0002462  1.7139244 -0.0006034
  0.0058841  0.0041677  1.7168435  0.0004531 -0.0001077  1.7168435  0.0004531
  0.0056085  0.0041983  1.7170614  0.0002344  0.0008621  1.7170618  0.0002340
  0.0059313  0.0045041  1.7134298 -0.0006193  0.0001915  1.7134298 -0.0006193
  0.0056526  0.0045363  1.7136582 -0.0008313  0.0011490  1.7136590 -0.0008321
  0.0059375  0.0030009  1.7282890  0.0003236  0.0007649  1.7282893  0.0003233
  0.0059735  0.0033302  1.7249889 -0.0006962  0.0009957  1.7249895 -0.0006968
  0.0061992  0.0029777  1.7281244  0.0004962 -0.0001651  1.7281245  0.0004962
  0.0062373  0.0033021  1.7247787 -0.0005399  0.0000781  1.7247787 -0.0005399
  0.0057440  0.0030168  1.7278455  0.0005009 -0.0002037  1.7278456  0.0005008
  0.0054773  0.0030368  1.7279849  0.0003373  0.0007528  1.7279852  0.0003370
  0.0057786  0.0033490  1.7244101 -0.0005563  0.0000195  1.7244101 -0.0005563
  0.0055100  0.0033721  1.7245778 -0.0007095  0.0009663  1.7245783 -0.0007100
  0.0057207  0.0027743  1.7298951 -0.0005170 -0.0000597  1.7298951 -0.0005170
  0.0056914  0.0024440  1.7333366  0.0005362 -0.0002563  1.7333366  0.0005362
  0.0054550  0.0027920  1.7300156 -0.0006667  0.0008888  1.7300161 -0.0006672
  0.0054266  0.0024583  1.7334236  0.0003754  0.0006984  1.7334239  0.0003751
  0.0059134  0.0027605  1.7302825 -0.0006512  0.0009102  1.7302830 -0.0006517
  0.0061742  0.0027407  1.7301457 -0.0004927 -0.0000181  1.7301457 -0.0004927
  0.0058837  0.0024331  1.7336072  0.0003687  0.0007093  1.7336075  0.0003684
  0.0061440  0.0024177  1.7335152  0.0005417 -0.0002250  1.7335152  0.0005416
  0.0066202  0.0027018  1.7304048 -0.0004935 -0.0000100  1.7304048 -0.0004935
  0.0065925  0.0023885  1.7337042  0.0005164 -0.0001990  1.7337042  0.0005163
  0.0063636  0.0027250  1.7305845 -0.0006229  0.0009150  1.7305850 -0.0006234
  0.0063339  0.0024058  1.7338213  0.0003688  0.0007242  1.7338216  0.0003685
  0.0068048  0.0026870  1.7308245 -0.0006073  0.0008914  1.7308250 -0.0006078
  0.0070527  0.0026697  1.7306874 -0.0005081 -0.0000222  1.7306874 -0.0005081
  0.0067797  0.0023777  1.7339883  0.0003556  0.0007363  1.7339886  0.0003553
  0.0070323  0.0023654  1.7339084  0.0004698 -0.0001641  1.7339084  0.0004697
  0.0068279  0.0029106  1.7290003  0.0003042  0.0007795  1.7290006  0.0003039
  0.0068658  0.0032122  1.7260214 -0.0006218  0.0010092  1.7260219 -0.0006224
  0.0070716  0.0028869  1.7288323  0.0004669 -0.0000704  1.7288323  0.0004669
  0.0071027  0.0031763  1.7257154 -0.0004972  0.0001505  1.7257154 -0.0004972
  0.0066450  0.0029298  1.7284489  0.0005039 -0.0001080  1.7284489  0.0005039
  0.0063888  0.0029586  1.7286543  0.0003144  0.0007780  1.7286546  0.0003141
  0.0066850  0.0032394  1.7252719 -0.0004892  0.0001544  1.7252719 -0.0004893
  0.0064279  0.0032777  1.7255677 -0.0006485  0.0010259  1.7255683 -0.0006491
  0.0067864  0.0037778  1.7200678 -0.0005540  0.0002529  1.7200679 -0.0005540
  0.0067229  0.0034666  1.7231763  0.0004526 -0.0001069  1.7231764  0.0004526
  0.0065168  0.0038320  1.7204753 -0.0007276  0.0011096  1.7204760 -0.0007283
  0.0064622  0.0035117  1.7235292  0.0002494  0.0007913  1.7235295  0.0002490
  0.0069717  0.0037296  1.7218982 -0.0006440  0.0010948  1.7218989 -0.0006447
  0.0072084  0.0036522  1.7214022 -0.0004156  0.0004786  1.7214024 -0.0004157
  0.0069043  0.0034316  1.7241897  0.0001449  0.0007434  1.7241901  0.0001446
  0.0071394  0.0033813  1.7238914  0.0004552  0.0000730  1.7238914  0.0004552
  0.0070295  0.0039585  1.7192855  0.0002911  0.0007781  1.7192859  0.0002907
  0.0071203  0.0042860  1.7163419 -0.0007566  0.0012869  1.7163429 -0.0007576
  0.0072882  0.0038680  1.7185289  0.0006154 -0.0000866  1.7185289  0.0006154
  0.0074374  0.0041870  1.7157933 -0.0004602  0.0005572  1.7157935 -0.0004604
  0.0068340  0.0040128  1.7178598  0.0004634 -0.0001032  1.7178598  0.0004634
  0.0065585  0.0040704  1.7183264  0.0002549  0.0008411  1.7183269  0.0002545
  0.0069008  0.0043435  1.7145910 -0.0005993  0.0002820  1.7145910 -0.0005993
  0.0066179  0.0044018  1.7150365 -0.0008054  0.0012035  1.7150374 -0.0008063
  0.0075935  0.0036538  1.7204282  0.0004404  0.0005967  1.7204284  0.0004402
  0.0074393  0.0037864  1.7201865 -0.0002277  0.0003812  1.7201866 -0.0002278
  0.0077563  0.0037815  1.7202637 -0.0002408  0.0007678  1.7202640 -0.0002412
  0.0076078  0.0040518  1.7201263 -0.0005621  0.0005631  1.7201265 -0.0005623
  0.0075267  0.0035295  1.7218329 -0.0005656  0.0003890  1.7218330 -0.0005657
  0.0075072  0.0033175  1.7246031  0.0003043  0.0001375  1.7246032  0.0003043
  0.0073571  0.0035986  1.7225936 -0.0006645  0.0010842  1.7225943 -0.0006652
  0.0073009  0.0033507  1.7248122  0.0000773  0.0007808  1.7248125  0.0000769
  0.0076523  0.0035277  1.7218145 -0.0005997  0.0007656  1.7218148 -0.0006000
  0.0078257  0.0035921  1.7225618 -0.0005876  0.0000248  1.7225618 -0.0005876
  0.0076589  0.0033159  1.7245871  0.0002404  0.0008984  1.7245875  0.0002399
  0.0078669  0.0033447  1.7247921  0.0001171  0.0002363  1.7247921  0.0001170
  0.0076610  0.0028596  1.7290966  0.0002558  0.0009208  1.7290971  0.0002553
  0.0076612  0.0031368  1.7261338 -0.0006330  0.0009388  1.7261343 -0.0006335
  0.0079007  0.0028684  1.7291958  0.0003210  0.0000927  1.7291958  0.0003210
  0.0078870  0.0031508  1.7263013 -0.0005452  0.0000602  1.7263013 -0.0005452
  0.0074861  0.0028610  1.7291228  0.0003092 -0.0000165  1.7291228  0.0003092
  0.0072480  0.0028736  1.7292312  0.0002897  0.0008073  1.7292316  0.0002893
  0.0074963  0.0031384  1.7261503 -0.0005850  0.0000471  1.7261503 -0.0005850
  0.0072717  0.0031565  1.7263333 -0.0005850  0.0009168  1.7263338 -0.0005855
  0.0074792  0.0026501  1.7308800 -0.0005424 -0.0000439  1.7308800 -0.0005424
  0.0074705  0.0023515  1.7340292  0.0004051 -0.0001129  1.7340292  0.0004051
  0.0072334  0.0026598  1.7309570 -0.0006003  0.0008790  1.7309575 -0.0006008
  0.0072174  0.0023584  1.7340727  0.0003394  0.0007844  1.7340731  0.0003391
  0.0076597  0.0026489  1.7308403 -0.0005966  0.0008794  1.7308407 -0.0005970
  0.0079071  0.0026552  1.7309182 -0.0005423 -0.0000509  1.7309182 -0.0005423
  0.0076564  0.0023506  1.7339750  0.0003442  0.0008532  1.7339755  0.0003438
  0.0079110  0.0023550  1.7340292  0.0003905 -0.0000507  1.7340292  0.0003905
  0.0083357  0.0029001  1.7288866  0.0003240  0.0001205  1.7288867  0.0003240
  0.0080815  0.0028793  1.7287226  0.0004094  0.0010093  1.7287232  0.0004088
  0.0083081  0.0031997  1.7259300 -0.0005774 -0.0000347  1.7259300 -0.0005774
  0.0080603  0.0031676  1.7256391 -0.0005276  0.0008678  1.7256395 -0.0005280
  0.0083509  0.0026779  1.7307049 -0.0005522 -0.0000735  1.7307049 -0.0005522
  0.0083647  0.0023705  1.7338445  0.0003915 -0.0000083  1.7338445  0.0003915
  0.0080923  0.0026630  1.7305588 -0.0005602  0.0008838  1.7305593 -0.0005607
  0.0081008  0.0023603  1.7337524  0.0003990  0.0009312  1.7337529  0.0003985
  0.0085446  0.0026910  1.7301742 -0.0005348  0.0008853  1.7301747 -0.0005352
  0.0088152  0.0027118  1.7303611 -0.0005687 -0.0000941  1.7303611 -0.0005687
  0.0085612  0.0023799  1.7334332  0.0004485  0.0009864  1.7334337  0.0004479
  0.0088341  0.0023956  1.7335634  0.0003982  0.0000124  1.7335634  0.0003982
  0.0085275  0.0029171  1.7282526  0.0004410  0.0010741  1.7282533  0.0004404
  0.0084973  0.0032240  1.7251221 -0.0005189  0.0008849  1.7251226 -0.0005194
  0.0087970  0.0029431  1.7284498  0.0003187  0.0001452  1.7284498  0.0003186
  0.0087663  0.0032585  1.7254033 -0.0006153 -0.0000377  1.7254033 -0.0006153
  0.0084216  0.0037554  1.7200074 -0.0005953  0.0009798  1.7200080 -0.0005959
  0.0087003  0.0038030  1.7203950 -0.0006728  0.0000677  1.7203950 -0.0006728
  0.0084689  0.0034486  1.7230725  0.0003587  0.0012308  1.7230734  0.0003578
  0.0087404  0.0034889  1.7234112  0.0002602  0.0002868  1.7234113  0.0002601
  0.0083873  0.0039861  1.7179076  0.0003395  0.0013888  1.7179087  0.0003384
  0.0083407  0.0043095  1.7147151 -0.0006536  0.0011340  1.7147158 -0.0006543
  0.0086700  0.0040356  1.7183322  0.0002475  0.0004099  1.7183323  0.0002474
  0.0086274  0.0043568  1.7151069 -0.0007531  0.0001648  1.7151069 -0.0007531
  0.0081849  0.0039384  1.7193325  0.0003129  0.0004163  1.7193326  0.0003128
  0.0079147  0.0038578  1.7186074  0.0005130  0.0013800  1.7186085  0.0005119
  0.0081161  0.0042620  1.7162908 -0.0006921  0.0000249  1.7162908 -0.0006921
  0.0077891  0.0041792  1.7157878 -0.0004891  0.0008476  1.7157882 -0.0004896
  0.0082286  0.0037121  1.7218304 -0.0005855  0.0000249  1.7218304 -0.0005855
  0.0082794  0.0034173  1.7241361  0.0001637  0.0002912  1.7241362  0.0001636
  0.0079801  0.0036415  1.7213486 -0.0004322  0.0007066  1.7213489 -0.0004325
  0.0080332  0.0033719  1.7238454  0.0003878  0.0010158  1.7238460  0.0003873
  0.0091659  0.0040990  1.7175093  0.0002241  0.0004320  1.7175094  0.0002240
  0.0088787  0.0040658  1.7172499  0.0003694  0.0014312  1.7172511  0.0003682
  0.0091254  0.0044221  1.7142832 -0.0007749  0.0001953  1.7142832 -0.0007749
  0.0088376  0.0043870  1.7140058 -0.0006358  0.0011902  1.7140066 -0.0006367
  0.0091937  0.0038630  1.7195255 -0.0007202  0.0001000  1.7195255 -0.0007202
  0.0092291  0.0035416  1.7227406  0.0002682  0.0003073  1.7227406  0.0002681
  0.0089072  0.0038318  1.7192771 -0.0006005  0.0010958  1.7192778 -0.0006012
  0.0089441  0.0035138  1.7225231  0.0003988  0.0013116  1.7225241  0.0003978
  0.0094056  0.0038849  1.7186937 -0.0005970  0.0011558  1.7186945 -0.0005977
  0.0096980  0.0039134  1.7189151 -0.0007294  0.0001324  1.7189151 -0.0007294
  0.0094403  0.0035611  1.7219989  0.0004185  0.0013653  1.7220000  0.0004174
  0.0097323  0.0035867  1.7221923  0.0002769  0.0003376  1.7221924  0.0002768
  0.0093781  0.0041222  1.7166622  0.0003949  0.0014805  1.7166635  0.0003936
  0.0093378  0.0044469  1.7133850 -0.0006215  0.0012355  1.7133859 -0.0006224
  0.0096707  0.0041525  1.7168863  0.0002219  0.0004660  1.7168864  0.0002218
  0.0096303  0.0044793  1.7136300 -0.0007879  0.0002232  1.7136301 -0.0007879
  0.0094927  0.0029964  1.7273947  0.0004541  0.0012369  1.7273956  0.0004532
  0.0094637  0.0033231  1.7240296 -0.0005721  0.0010603  1.7240302 -0.0005727
  0.0097844  0.0030161  1.7275403  0.0003323  0.0002008  1.7275404  0.0003322
  0.0097555  0.0033463  1.7242112 -0.0006827  0.0000277  1.7242112 -0.0006827
  0.0092823  0.0029815  1.7279735  0.0003224  0.0001695  1.7279735  0.0003224
  0.0089993  0.0029603  1.7278139  0.0004435  0.0011710  1.7278147  0.0004428
  0.0092529  0.0033054  1.7247322 -0.0006673 -0.0000067  1.7247322 -0.0006673
  0.0089688  0.0032803  1.7245349 -0.0005585  0.0009878  1.7245354 -0.0005590
  0.0093008  0.0027444  1.7299489 -0.0006099 -0.0000958  1.7299489 -0.0006099
  0.0093220  0.0024207  1.7332258  0.0003822  0.0000325  1.7332258  0.0003822
  0.0090178  0.0027262  1.7298021 -0.0005304  0.0009182  1.7298026 -0.0005309
  0.0090380  0.0024065  1.7331216  0.0004743  0.0010456  1.7331223  0.0004737
  0.0095112  0.0027574  1.7294103 -0.0005462  0.0009720  1.7294108 -0.0005468
  0.0098030  0.0027746  1.7295467 -0.0006277 -0.0000734  1.7295467 -0.0006277
  0.0095327  0.0024310  1.7327950  0.0004783  0.0011032  1.7327957  0.0004776
  0.0098247  0.0024452  1.7329002  0.0003873  0.0000565  1.7329002  0.0003873
  0.0103008  0.0030435  1.7271310  0.0003282  0.0002256  1.7271310  0.0003282
  0.0100010  0.0030287  1.7270393  0.0004829  0.0012971  1.7270403  0.0004820
  0.0102723  0.0033777  1.7237269 -0.0007102  0.0000466  1.7237269 -0.0007102
  0.0099722  0.0033610  1.7236155 -0.0005618  0.0011154  1.7236162 -0.0005625
  0.0103194  0.0027990  1.7291601 -0.0006543 -0.0000586  1.7291601 -0.0006543
  0.0103415  0.0024653  1.7325755  0.0003804  0.0000793  1.7325755  0.0003804
  0.0100195  0.0027858  1.7290693 -0.0005434  0.0010200  1.7290699 -0.0005440
  0.0100414  0.0024544  1.7325090  0.0004986  0.0011585  1.7325098  0.0004978
  0.0105412  0.0028083  1.7287496 -0.0005452  0.0010654  1.7287503 -0.0005459
  0.0108476  0.0028202  1.7288266 -0.0006633 -0.0000373  1.7288266 -0.0006633
  0.0105635  0.0024730  1.7322277  0.0005085  0.0012059  1.7322285  0.0005077
  0.0108699  0.0024831  1.7322857  0.0003846  0.0001020  1.7322857  0.0003845
  0.0105227  0.0030539  1.7267051  0.0004929  0.0013497  1.7267061  0.0004919
  0.0104943  0.0033896  1.7232411 -0.0005635  0.0011689  1.7232419 -0.0005643
  0.0108291  0.0030673  1.7267816  0.0003307  0.0002541  1.7267817  0.0003307
  0.0108008  0.0034051  1.7233389 -0.0007191  0.0000752  1.7233389 -0.0007191
  0.0104374  0.0039667  1.7177869 -0.0005830  0.0012677  1.7177878 -0.0005840
  0.0107441  0.0039862  1.7179094 -0.0007753  0.0001849  1.7179094 -0.0007753
  0.0104715  0.0036342  1.7211960  0.0004653  0.0014858  1.7211972  0.0004640
  0.0107780  0.0036513  1.7212946  0.0002655  0.0004002  1.7212947  0.0002654
  0.0104103  0.0042103  1.7157404  0.0004360  0.0016165  1.7157420  0.0004345
  0.0103700  0.0045431  1.7123630 -0.0006134  0.0013591  1.7123641 -0.0006144
  0.0107170  0.0042314  1.7158628  0.0001983  0.0005429  1.7158630  0.0001982
  0.0106771  0.0045663  1.7125055 -0.0008443  0.0002889  1.7125055 -0.0008444
  0.0101880  0.0041943  1.7163291  0.0002026  0.0005008  1.7163293  0.0002024
  0.0098877  0.0041719  1.7161922  0.0004313  0.0015505  1.7161936  0.0004299
  0.0101477  0.0045255  1.7130164 -0.0008271  0.0002467  1.7130164 -0.0008271
  0.0098473  0.0045004  1.7128535 -0.0006068  0.0012931  1.7128545 -0.0006078
  0.0102153  0.0039520  1.7183558 -0.0007632  0.0001515  1.7183559 -0.0007632
  0.0102494  0.0036212  1.7217014  0.0002654  0.0003652  1.7217014  0.0002654
  0.0099150  0.0039314  1.7182193 -0.0005826  0.0012123  1.7182202 -0.0005835
  0.0099491  0.0036028  1.7215880  0.0004533  0.0014285  1.7215892  0.0004521
  0.0112570  0.0042601  1.7154284  0.0001886  0.0005859  1.7154286  0.0001884
  0.0109439  0.0042448  1.7153668  0.0004553  0.0016908  1.7153685  0.0004537
  0.0112177  0.0045984  1.7120148 -0.0008710  0.0003298  1.7120148 -0.0008711
  0.0109042  0.0045811  1.7119341 -0.0006108  0.0014311  1.7119353 -0.0006120
  0.0112838  0.0040125  1.7174788 -0.0008003  0.0002154  1.7174788 -0.0008003
  0.0113175  0.0036744  1.7209173  0.0002571  0.0004350  1.7209174  0.0002570
  0.0109709  0.0039985  1.7174155 -0.0005784  0.0013269  1.7174165 -0.0005795
  0.0110047  0.0036621  1.7208714  0.0004845  0.0015485  1.7208728  0.0004831
  0.0115149  0.0040226  1.7170643 -0.0005805  0.0013864  1.7170654 -0.0005816
  0.0118334  0.0040360  1.7171212 -0.0008065  0.0002551  1.7171212 -0.0008066
  0.0115485  0.0036833  1.7205460  0.0004898  0.0016071  1.7205475  0.0004883
  0.0118668  0.0036953  1.7205889  0.0002592  0.0004738  1.7205890  0.0002591
  0.0114882  0.0042710  1.7150043  0.0004583  0.0017570  1.7150061  0.0004565
  0.0114491  0.0046105  1.7115423 -0.0006154  0.0015006  1.7115436 -0.0006167
  0.0118069  0.0042855  1.7150566  0.0001887  0.0006316  1.7150568  0.0001885
  0.0117679  0.0046262  1.7116075 -0.0008807  0.0003774  1.7116076 -0.0008807
  0.0115989  0.0030934  1.7261248  0.0005133  0.0014527  1.7261260  0.0005120
  0.0115711  0.0034343  1.7226062 -0.0005594  0.0012714  1.7226071 -0.0005604
  0.0119169  0.0031031  1.7261594  0.0003283  0.0003117  1.7261594  0.0003283
  0.0118892  0.0034454  1.7226552 -0.0007398  0.0001323  1.7226552 -0.0007398
  0.0113681  0.0030862  1.7264527  0.0003257  0.0002815  1.7264527  0.0003256
  0.0110556  0.0030759  1.7264123  0.0005098  0.0014025  1.7264134  0.0005087
  0.0113401  0.0034261  1.7229687 -0.0007370  0.0000995  1.7229687 -0.0007370
  0.0110274  0.0034149  1.7229178 -0.0005563  0.0012188  1.7229186 -0.0005572
  0.0113866  0.0028373  1.7285105 -0.0006800 -0.0000193  1.7285105 -0.0006800
  0.0114091  0.0024974  1.7320062  0.0003796  0.0001250  1.7320062  0.0003796
  0.0110741  0.0028280  1.7284649 -0.0005412  0.0011078  1.7284656 -0.0005419
  0.0110965  0.0024897  1.7319762  0.0005231  0.0012525  1.7319771  0.0005222
  0.0116173  0.0028439  1.7281883 -0.0005426  0.0011511  1.7281891 -0.0005433
  0.0119352  0.0028526  1.7282271 -0.0006845  0.0000045  1.7282271 -0.0006845
  0.0116398  0.0025030  1.7317237  0.0005289  0.0012963  1.7317246  0.0005280
  0.0119577  0.0025104  1.7317497  0.0003831  0.0001488  1.7317497  0.0003831
  0.0124731  0.0031181  1.7258687  0.0003292  0.0003441  1.7258688  0.0003291
  0.0121511  0.0031097  1.7258470  0.0005190  0.0015011  1.7258483  0.0005177
  0.0124459  0.0034618  1.7223388 -0.0007464  0.0001659  1.7223388 -0.0007464
  0.0121236  0.0034527  1.7223103 -0.0005587  0.0013214  1.7223114 -0.0005597
  0.0124914  0.0028663  1.7279477 -0.0006930  0.0000284  1.7279477 -0.0006930
  0.0125143  0.0025222  1.7314929  0.0003818  0.0001757  1.7314929  0.0003818
  0.0121695  0.0028586  1.7279200 -0.0005423  0.0011912  1.7279208 -0.0005431
  0.0121920  0.0025156  1.7314766  0.0005358  0.0013384  1.7314776  0.0005348
  0.0127287  0.0028721  1.7276415 -0.0005436  0.0012321  1.7276424 -0.0005445
  0.0130547  0.0028801  1.7276716 -0.0006944  0.0000552  1.7276716 -0.0006944
  0.0127516  0.0025273  1.7312137  0.0005393  0.0013804  1.7312148  0.0005382
  0.0130778  0.0025345  1.7312348  0.0003858  0.0002035  1.7312348  0.0003858
  0.0127103  0.0031243  1.7255598  0.0005190  0.0015488  1.7255612  0.0005176
  0.0126832  0.0034686  1.7220102 -0.0005620  0.0013725  1.7220113 -0.0005631
  0.0130364  0.0031329  1.7255848  0.0003334  0.0003779  1.7255849  0.0003333
  0.0130094  0.0034780  1.7220435 -0.0007449  0.0002027  1.7220435 -0.0007450
  0.0126276  0.0040639  1.7164117 -0.0005807  0.0015030  1.7164130 -0.0005820
  0.0129543  0.0040749  1.7164422 -0.0008176  0.0003405  1.7164423 -0.0008176
  0.0126610  0.0037203  1.7199366  0.0005020  0.0017226  1.7199383  0.0005003
  0.0129874  0.0037304  1.7199582  0.0002621  0.0005581  1.7199584  0.0002619
  0.0126015  0.0043154  1.7143394  0.0004677  0.0018878  1.7143415  0.0004656
  0.0125635  0.0046588  1.7108342 -0.0006172  0.0016367  1.7108357 -0.0006188
  0.0129284  0.0043270  1.7143630  0.0001887  0.0007295  1.7143633  0.0001884
  0.0128906  0.0046713  1.7108668 -0.0008930  0.0004802  1.7108669 -0.0008932
  0.0123639  0.0043068  1.7146972  0.0001870  0.0006802  1.7146975  0.0001868
  0.0120415  0.0042951  1.7146727  0.0004689  0.0018234  1.7146746  0.0004670
  0.0123256  0.0046495  1.7112179 -0.0008909  0.0004270  1.7112180 -0.0008910
  0.0120028  0.0046367  1.7111829 -0.0006128  0.0015675  1.7111843 -0.0006142
  0.0123901  0.0040559  1.7167684 -0.0008191  0.0002958  1.7167685 -0.0008192
  0.0124236  0.0037131  1.7202659  0.0002557  0.0005160  1.7202661  0.0002556
  0.0120679  0.0040450  1.7167381 -0.0005809  0.0014443  1.7167393 -0.0005821
  0.0121013  0.0037033  1.7202479  0.0004978  0.0016654  1.7202495  0.0004962
  0.0134955  0.0043472  1.7140207  0.0001968  0.0007851  1.7140211  0.0001964
  0.0131679  0.0043355  1.7139933  0.0004658  0.0019470  1.7139955  0.0004636
  0.0134588  0.0046927  1.7105121 -0.0008867  0.0005429  1.7105123 -0.0008869
  0.0131305  0.0046804  1.7104792 -0.0006200  0.0017017  1.7104808 -0.0006217
  0.0135210  0.0040942  1.7161110 -0.0008168  0.0003930  1.7161111 -0.0008168
  0.0135540  0.0037483  1.7196390  0.0002659  0.0006082  1.7196393  0.0002656
  0.0131937  0.0040830  1.7160762 -0.0005864  0.0015582  1.7160776 -0.0005878
  0.0132267  0.0037379  1.7196120  0.0004986  0.0017741  1.7196138  0.0004968
  0.0137618  0.0041025  1.7157222 -0.0005871  0.0016180  1.7157237 -0.0005887
  0.0140923  0.0041142  1.7157630 -0.0008114  0.0004432  1.7157631 -0.0008115
  0.0137947  0.0037563  1.7192634  0.0004988  0.0018311  1.7192653  0.0004968
  0.0141251  0.0037675  1.7192997  0.0002731  0.0006553  1.7193000  0.0002728
  0.0137364  0.0043559  1.7136359  0.0004574  0.0020114  1.7136382  0.0004550
  0.0137000  0.0047018  1.7101156 -0.0006284  0.0017733  1.7101175 -0.0006303
  0.0140670  0.0043680  1.7136696  0.0001980  0.0008431  1.7136700  0.0001976
  0.0140306  0.0047147  1.7101568 -0.0008854  0.0006059  1.7101570 -0.0008856
  0.0136032  0.0031491  1.7252853  0.0003379  0.0004183  1.7252854  0.0003378
  0.0132756  0.0031396  1.7252497  0.0005164  0.0015927  1.7252512  0.0005149
  0.0135760  0.0034951  1.7217333 -0.0007433  0.0002442  1.7217333 -0.0007434
  0.0132486  0.0034851  1.7216931 -0.0005662  0.0014186  1.7216942 -0.0005674
  0.0136218  0.0028955  1.7273831 -0.0006955  0.0000855  1.7273831 -0.0006955
  0.0136455  0.0025485  1.7309594  0.0003889  0.0002362  1.7309594  0.0003889
  0.0132940  0.0028864  1.7273420 -0.0005474  0.0012687  1.7273429 -0.0005483
  0.0133173  0.0025401  1.7309264  0.0005393  0.0014183  1.7309275  0.0005381
  0.0138626  0.0029027  1.7270135 -0.0005494  0.0013053  1.7270145 -0.0005504
  0.0141928  0.0029132  1.7270677 -0.0006983  0.0001136  1.7270677 -0.0006983
  0.0138868  0.0025552  1.7306052  0.0005401  0.0014594  1.7306064  0.0005389
  0.0142176  0.0025652  1.7306540  0.0003899  0.0002698  1.7306541  0.0003899
  0.0138438  0.0031566  1.7249102  0.0005165  0.0016389  1.7249117  0.0005149
  0.0138167  0.0035028  1.7213506 -0.0005666  0.0014665  1.7213519 -0.0005679
  0.0141738  0.0031673  1.7249595  0.0003455  0.0004554  1.7249596  0.0003453
  0.0141469  0.0035138  1.7214020 -0.0007369  0.0002838  1.7214021 -0.0007369
  0.0146362  0.0043919  1.7132909  0.0002135  0.0009099  1.7132913  0.0002130
  0.0143081  0.0043777  1.7132301  0.0004479  0.0020675  1.7132326  0.0004454
  0.0146010  0.0047394  1.7097795 -0.0008668  0.0006834  1.7097798 -0.0008671
  0.0142720  0.0047248  1.7097150 -0.0006343  0.0018374  1.7097169 -0.0006363
  0.0146609  0.0041375  1.7153975 -0.0008000  0.0005079  1.7153976 -0.0008001
  0.0146934  0.0037901  1.7189311  0.0002823  0.0007150  1.7189314  0.0002820
  0.0143332  0.0041236  1.7153301 -0.0005953  0.0016690  1.7153317 -0.0005969
  0.0143659  0.0037766  1.7188672  0.0004883  0.0018769  1.7188693  0.0004863
  0.0149015  0.0041476  1.7149161 -0.0005975  0.0017299  1.7149178 -0.0005992
  0.0152311  0.0041611  1.7149817 -0.0007944  0.0005653  1.7149819 -0.0007946
  0.0149335  0.0038000  1.7184539  0.0004850  0.0019319  1.7184561  0.0004828
  0.0152620  0.0038135  1.7185197  0.0002873  0.0007635  1.7185200  0.0002870
  0.0148771  0.0044023  1.7128192  0.0004370  0.0021343  1.7128218  0.0004343
  0.0148424  0.0047505  1.7092925 -0.0006465  0.0019134  1.7092946 -0.0006486
  0.0152072  0.0044163  1.7128815  0.0002141  0.0009744  1.7128820  0.0002136
  0.0151728  0.0047661  1.7093693 -0.0008645  0.0007559  1.7093696 -0.0008649
  0.0147427  0.0031899  1.7246007  0.0003508  0.0005036  1.7246008  0.0003506
  0.0144147  0.0031763  1.7245199  0.0005038  0.0016759  1.7245215  0.0005021
  0.0147153  0.0035362  1.7210454 -0.0007306  0.0003333  1.7210455 -0.0007307
  0.0143877  0.0035227  1.7209655 -0.0005771  0.0015070  1.7209668 -0.0005784
  0.0147625  0.0029356  1.7267205 -0.0006978  0.0001488  1.7267205 -0.0006979
  0.0147892  0.0025874  1.7303084  0.0003921  0.0003130  1.7303084  0.0003920
  0.0144339  0.0029220  1.7266352 -0.0005555  0.0013340  1.7266363 -0.0005565
  0.0144594  0.0025738  1.7302245  0.0005343  0.0014942  1.7302258  0.0005330
  0.0150026  0.0029466  1.7262082 -0.0005549  0.0013608  1.7262093 -0.0005559
  0.0153301  0.0029630  1.7263181 -0.0007020  0.0001810  1.7263181 -0.0007021
  0.0150302  0.0025988  1.7297746  0.0005301  0.0015327  1.7297760  0.0005287
  0.0153591  0.0026166  1.7298968  0.0003875  0.0003589  1.7298969  0.0003874
  0.0149825  0.0032005  1.7240869  0.0005000  0.0017163  1.7240886  0.0004983
  0.0149552  0.0035463  1.7205495 -0.0005756  0.0015485  1.7205509 -0.0005770
  0.0153097  0.0032159  1.7241877  0.0003564  0.0005428  1.7241879  0.0003562
  0.0152831  0.0035602  1.7206354 -0.0007234  0.0003762  1.7206355 -0.0007235
  0.0157742  0.0044413  1.7124604  0.0002267  0.0010341  1.7124610  0.0002260
  0.0154476  0.0044268  1.7123871  0.0004271  0.0021878  1.7123899  0.0004243
  0.0157432  0.0047962  1.7089228 -0.0008554  0.0008346  1.7089233 -0.0008558
  0.0154141  0.0047783  1.7088172 -0.0006666  0.0019770  1.7088195 -0.0006689
  0.0157952  0.0041840  1.7145634 -0.0007882  0.0006457  1.7145636 -0.0007884
  0.0158216  0.0038362  1.7180971  0.0002878  0.0008198  1.7180975  0.0002874
  0.0154706  0.0041709  1.7144950 -0.0006149  0.0017846  1.7144969 -0.0006167
  0.0155000  0.0038232  1.7180287  0.0004629  0.0019696  1.7180310  0.0004607
  0.0160346  0.0041891  1.7142044 -0.0006317  0.0018757  1.7142064 -0.0006338
  0.0163638  0.0041898  1.7141617 -0.0007952  0.0007496  1.7141620 -0.0007955
  0.0160554  0.0038410  1.7177450  0.0004403  0.0020133  1.7177473  0.0004379
  0.0163725  0.0038413  1.7176961  0.0002692  0.0008439  1.7176965  0.0002688
  0.0160165  0.0044485  1.7121123  0.0004277  0.0022436  1.7121153  0.0004247
  0.0159879  0.0048089  1.7083232 -0.0007267  0.0020527  1.7083257 -0.0007292
  0.0163517  0.0044537  1.7120985  0.0002197  0.0010336  1.7120992  0.0002190
  0.0163273  0.0048259  1.7084265 -0.0008961  0.0008664  1.7084269 -0.0008965
  0.0158643  0.0032463  1.7237347  0.0003574  0.0005925  1.7237350  0.0003572
  0.0155460  0.0032282  1.7235981  0.0004714  0.0017392  1.7235998  0.0004696
  0.0158401  0.0035849  1.7202093 -0.0007121  0.0004403  1.7202095 -0.0007122
  0.0155202  0.0035706  1.7201136 -0.0005863  0.0015842  1.7201151 -0.0005878
  0.0158854  0.0029980  1.7258745 -0.0006991  0.0002264  1.7258746 -0.0006992
  0.0159187  0.0026580  1.7294090  0.0003809  0.0004250  1.7294091  0.0003808
  0.0155666  0.0029768  1.7257171 -0.0005577  0.0013769  1.7257182 -0.0005588
  0.0155971  0.0026324  1.7292108  0.0005081  0.0015618  1.7292122  0.0005067
  0.0161133  0.0030151  1.7251740 -0.0005350  0.0013738  1.7251751 -0.0005361
  0.0164172  0.0030408  1.7253646 -0.0007132  0.0002702  1.7253647 -0.0007133
  0.0161495  0.0026816  1.7284653  0.0004787  0.0015921  1.7284668  0.0004773
  0.0164585  0.0027205  1.7287794  0.0003436  0.0005206  1.7287795  0.0003435
  0.0160922  0.0032590  1.7231053  0.0004374  0.0017492  1.7231071  0.0004356
  0.0160708  0.0035918  1.7197677 -0.0005711  0.0016307  1.7197692 -0.0005726
  0.0163965  0.0032755  1.7232436  0.0003702  0.0006238  1.7232438  0.0003700
  0.0163812  0.0035963  1.7197781 -0.0006750  0.0005210  1.7197783 -0.0006751
  0.0169627  0.0044364  1.7119714  0.0003713  0.0009584  1.7119719  0.0003707
  0.0166052  0.0044504  1.7121391  0.0004826  0.0022774  1.7121422  0.0004796
  0.0169451  0.0048524  1.7079506 -0.0008377  0.0008738  1.7079510 -0.0008382
  0.0165838  0.0048375  1.7078175 -0.0008177  0.0021668  1.7078202 -0.0008205
  0.0169554  0.0041481  1.7140589 -0.0007107  0.0008914  1.7140594 -0.0007111
  0.0169181  0.0037763  1.7175931  0.0003580  0.0007350  1.7175934  0.0003577
  0.0166105  0.0041788  1.7143170 -0.0007083  0.0019987  1.7143194 -0.0007106
  0.0166036  0.0038240  1.7180889  0.0004250  0.0019385  1.7180911  0.0004228
  0.0172304  0.0041151  1.7150785 -0.0009618  0.0022038  1.7150813 -0.0009646
  0.0176368  0.0040556  1.7146316 -0.0006097  0.0007786  1.7146319 -0.0006100
  0.0171819  0.0036981  1.7202770  0.0006683  0.0017598  1.7202788  0.0006665
  0.0175882  0.0035319  1.7188197  0.0006921  0.0004550  1.7188198  0.0006920
  0.0172417  0.0044276  1.7121795  0.0005943  0.0024991  1.7121831  0.0005906
  0.0172241  0.0048644  1.7073632 -0.0008590  0.0023513  1.7073665 -0.0008622
  0.0176467  0.0044174  1.7120158  0.0003657  0.0010395  1.7120164  0.0003651
  0.0176251  0.0048822  1.7074892 -0.0010013  0.0008910  1.7074897 -0.0010018
  0.0169900  0.0032041  1.7237915  0.0001496  0.0012831  1.7237925  0.0001487
  0.0171174  0.0034540  1.7226602 -0.0006360  0.0017953  1.7226620 -0.0006379
  0.0171616  0.0029793  1.7231040  0.0005441  0.0013493  1.7231050  0.0005431
  0.0174608  0.0032435  1.7224588 -0.0001370  0.0017069  1.7224605 -0.0001387
  0.0168386  0.0032854  1.7226411  0.0002611  0.0006306  1.7226413  0.0002608
  0.0165965  0.0032825  1.7226266  0.0003205  0.0016889  1.7226283  0.0003188
  0.0168867  0.0035452  1.7195466 -0.0006552  0.0008066  1.7195470 -0.0006555
  0.0165999  0.0035838  1.7198976 -0.0004976  0.0016774  1.7198992 -0.0004992
  0.0168556  0.0030994  1.7250681 -0.0004707  0.0003720  1.7250681 -0.0004708
  0.0169505  0.0028513  1.7277746  0.0004043  0.0007948  1.7277750  0.0004040
  0.0166161  0.0030634  1.7247135 -0.0004099  0.0013148  1.7247145 -0.0004109
  0.0166731  0.0027660  1.7271539  0.0003508  0.0015351  1.7271553  0.0003495
  0.0184167  0.0040430  1.7150764 -0.0011271  0.0005258  1.7150766 -0.0011272
  0.0184396  0.0035177  1.7207953  0.0005950  0.0006697  1.7207956  0.0005947
  0.0179546  0.0040363  1.7150439 -0.0009994  0.0023941  1.7150473 -0.0010028
  0.0179252  0.0034836  1.7205179  0.0006352  0.0023462  1.7205211  0.0006320
  0.0187555  0.0040560  1.7142482 -0.0008639  0.0021864  1.7142509 -0.0008667
  0.0192192  0.0040848  1.7144690 -0.0010052  0.0005611  1.7144691 -0.0010054
  0.0187972  0.0035420  1.7193932  0.0006982  0.0024206  1.7193966  0.0006948
  0.0192599  0.0035741  1.7196488  0.0005671  0.0007941  1.7196492  0.0005667
  0.0187271  0.0044307  1.7111905  0.0006749  0.0027546  1.7111949  0.0006705
  0.0186911  0.0049404  1.7060334 -0.0008933  0.0025122  1.7060371 -0.0008970
  0.0191891  0.0044589  1.7113822  0.0004648  0.0011516  1.7113830  0.0004641
  0.0191477  0.0049700  1.7062464 -0.0011000  0.0008913  1.7062469 -0.0011005
  0.0183967  0.0044190  1.7117529  0.0004603  0.0009839  1.7117535  0.0004597
  0.0179562  0.0044151  1.7117354  0.0005199  0.0025180  1.7117391  0.0005161
  0.0183651  0.0049209  1.7068979 -0.0010007  0.0008493  1.7068983 -0.0010011
  0.0179308  0.0048973  1.7066794 -0.0010008  0.0023964  1.7066828 -0.0010042
  0.0168457  0.0055736  1.7017963 -0.0010868  0.0010481  1.7017969 -0.0010875
  0.0169137  0.0051572  1.7055545  0.0001152  0.0014373  1.7055557  0.0001140
  0.0164948  0.0055090  1.7013040 -0.0008160  0.0022157  1.7013068 -0.0008189
  0.0165542  0.0051212  1.7053494  0.0004730  0.0026207  1.7053534  0.0004690
  0.0171204  0.0056217  1.6997761 -0.0009143  0.0024139  1.6997795 -0.0009177
  0.0175199  0.0056883  1.7003140 -0.0011215  0.0010525  1.7003147 -0.0011221
  0.0171916  0.0051844  1.7044549  0.0005599  0.0028459  1.7044596  0.0005551
  0.0175911  0.0052227  1.7047188  0.0002624  0.0014443  1.7047200  0.0002611
  0.0170454  0.0059319  1.6966916  0.0005365  0.0030754  1.6966972  0.0005309
  0.0169118  0.0063419  1.6927704 -0.0010039  0.0022121  1.6927733 -0.0010068
  0.0174371  0.0060486  1.6972923 -0.0001613  0.0021311  1.6972949 -0.0001639
  0.0172823  0.0065676  1.6941348 -0.0013778  0.0014635  1.6941361 -0.0013790
  0.0167791  0.0058598  1.6992262 -0.0000990  0.0019762  1.6992285 -0.0001013
  0.0164432  0.0057799  1.6988154  0.0003054  0.0027874  1.6988200  0.0003008
  0.0166652  0.0062252  1.6964205 -0.0011245  0.0014499  1.6964217 -0.0011257
  0.0163618  0.0061321  1.6957999 -0.0007465  0.0023023  1.6958030 -0.0007496
  0.0182642  0.0057927  1.6992900 -0.0012160  0.0010653  1.6992906 -0.0012166
  0.0183296  0.0052890  1.7039005  0.0002352  0.0014755  1.7039018  0.0002340
  0.0178264  0.0057341  1.6988968 -0.0008672  0.0024704  1.6989004 -0.0008708
  0.0178961  0.0052507  1.7036897  0.0006491  0.0029204  1.7036947  0.0006441
  0.0185946  0.0058263  1.6977071 -0.0010178  0.0027923  1.6977117 -0.0010224
  0.0190597  0.0058592  1.6979370 -0.0012299  0.0012078  1.6979378 -0.0012308
  0.0186557  0.0053143  1.7028286  0.0005562  0.0031268  1.7028344  0.0005505
  0.0191130  0.0053453  1.7030478  0.0003360  0.0015140  1.7030491  0.0003346
  0.0185514  0.0062049  1.6945865  0.0005322  0.0034981  1.6945937  0.0005249
  0.0184944  0.0067274  1.6894003 -0.0010672  0.0031472  1.6894062 -0.0010730
  0.0190201  0.0062372  1.6947900  0.0002312  0.0018651  1.6947921  0.0002291
  0.0189653  0.0067557  1.6895622 -0.0013796  0.0015174  1.6895636 -0.0013810
  0.0182109  0.0061716  1.6956710  0.0003223  0.0017870  1.6956729  0.0003204
  0.0177494  0.0061129  1.6952102  0.0007068  0.0035024  1.6952174  0.0006996
  0.0181310  0.0067030  1.6902777 -0.0013805  0.0012875  1.6902787 -0.0013815
  0.0176089  0.0066643  1.6901012 -0.0009615  0.0028460  1.6901060 -0.0009663
  0.0198243  0.0062885  1.6939685  0.0002256  0.0019727  1.6939708  0.0002233
  0.0193612  0.0062596  1.6937839  0.0004843  0.0035804  1.6937914  0.0004768
  0.0197721  0.0068044  1.6888202 -0.0013542  0.0016564  1.6888218 -0.0013558
  0.0193077  0.0067763  1.6886454 -0.0010933  0.0032603  1.6886517 -0.0010996
  0.0198612  0.0059113  1.6971123 -0.0012278  0.0013308  1.6971134 -0.0012288
  0.0199098  0.0053968  1.7022777  0.0003526  0.0016269  1.7022793  0.0003511
  0.0193991  0.0058820  1.6969161 -0.0009947  0.0029388  1.6969212 -0.0009997
  0.0194490  0.0053674  1.7020786  0.0005857  0.0032393  1.7020847  0.0005795
  0.0202007  0.0059322  1.6961369 -0.0010083  0.0030600  1.6961424 -0.0010139
  0.0206661  0.0059600  1.6963241 -0.0012268  0.0014387  1.6963253 -0.0012280
  0.0202485  0.0054177  1.7012985  0.0005684  0.0033447  1.7013051  0.0005618
  0.0207130  0.0054453  1.7014848  0.0003491  0.0017201  1.7014866  0.0003474
  0.0201643  0.0063093  1.6930207  0.0004822  0.0037065  1.6930288  0.0004741
  0.0201127  0.0068249  1.6878835 -0.0010937  0.0033932  1.6878903 -0.0011006
  0.0206301  0.0063372  1.6931943  0.0002197  0.0020921  1.6931969  0.0002171
  0.0205788  0.0068528  1.6880574 -0.0013560  0.0017797  1.6880593 -0.0013579
  0.0199856  0.0045089  1.7105762  0.0004623  0.0012482  1.7105771  0.0004614
  0.0195263  0.0044798  1.7103579  0.0006231  0.0028617  1.7103627  0.0006183
  0.0199432  0.0050210  1.7054220 -0.0011048  0.0010020  1.7054226 -0.0011054
  0.0194831  0.0049916  1.7052015 -0.0009450  0.0026127  1.7052055 -0.0009490
  0.0200154  0.0041349  1.7136946 -0.0010061  0.0006523  1.7136949 -0.0010063
  0.0200543  0.0036255  1.7188344  0.0005541  0.0008817  1.7188349  0.0005537
  0.0195567  0.0041060  1.7134743 -0.0008569  0.0022606  1.7134773 -0.0008599
  0.0195967  0.0035965  1.7186127  0.0007034  0.0024936  1.7186164  0.0006998
  0.0203522  0.0041552  1.7126908 -0.0008793  0.0023631  1.7126940 -0.0008826
  0.0208137  0.0041816  1.7128944 -0.0010073  0.0007400  1.7128947 -0.0010077
  0.0203901  0.0036454  1.7178584  0.0006866  0.0025783  1.7178623  0.0006827
  0.0208501  0.0036709  1.7180541  0.0005555  0.0009491  1.7180547  0.0005549
  0.0203230  0.0045294  1.7095829  0.0006291  0.0029615  1.7095880  0.0006240
  0.0202813  0.0050418  1.7044143 -0.0009415  0.0027195  1.7044186 -0.0009458
  0.0207856  0.0045563  1.7097810  0.0004654  0.0013325  1.7097820  0.0004644
  0.0207450  0.0050692  1.7046158 -0.0011035  0.0010951  1.7046165 -0.0011042
  0.0214388  0.0063850  1.6924115  0.0002184  0.0022119  1.6924144  0.0002155
  0.0209717  0.0063575  1.6922382  0.0004728  0.0038315  1.6922468  0.0004641
  0.0213883  0.0069012  1.6872755 -0.0013554  0.0019064  1.6872777 -0.0013576
  0.0209206  0.0068732  1.6870994 -0.0011022  0.0035238  1.6871068 -0.0011096
  0.0214740  0.0060075  1.6955425 -0.0012240  0.0015499  1.6955439 -0.0012254
  0.0215195  0.0054920  1.7007032  0.0003499  0.0018213  1.7007052  0.0003480
  0.0210073  0.0059802  1.6953570 -0.0010158  0.0031752  1.6953629 -0.0010218
  0.0210536  0.0054652  1.7005219  0.0005598  0.0034497  1.7005289  0.0005528
  0.0218174  0.0060272  1.6945697 -0.0010248  0.0032991  1.6945761 -0.0010312
  0.0222888  0.0060538  1.6947519 -0.0012254  0.0016560  1.6947535 -0.0012270
  0.0218624  0.0055114  1.6997441  0.0005519  0.0035646  1.6997515  0.0005444
  0.0223332  0.0055374  1.6999211  0.0003494  0.0019192  1.6999232  0.0003472
  0.0217825  0.0064050  1.6914483  0.0004654  0.0039637  1.6914576  0.0004561
  0.0217324  0.0069215  1.6863015 -0.0011104  0.0036631  1.6863095 -0.0011184
  0.0222543  0.0064321  1.6916187  0.0002169  0.0023278  1.6916219  0.0002137
  0.0222047  0.0069491  1.6864769 -0.0013570  0.0020294  1.6864793 -0.0013595
  0.0215901  0.0046010  1.7090096  0.0004641  0.0014195  1.7090107  0.0004629
  0.0211251  0.0045755  1.7088219  0.0006187  0.0030556  1.7088274  0.0006133
  0.0215506  0.0051151  1.7038347 -0.0011062  0.0011912  1.7038355 -0.0011070
  0.0210851  0.0050888  1.7036394 -0.0009541  0.0028251  1.7036441 -0.0009588
  0.0216171  0.0042251  1.7121256 -0.0010061  0.0008232  1.7121260 -0.0010065
  0.0216514  0.0037121  1.7173115  0.0005623  0.0010177  1.7173121  0.0005617
  0.0211526  0.0042003  1.7119327 -0.0008914  0.0024616  1.7119363 -0.0008949
  0.0211880  0.0036887  1.7171314  0.0006814  0.0026609  1.7171355  0.0006773
  0.0219589  0.0042428  1.7111819 -0.0009019  0.0025604  1.7111857 -0.0009057
  0.0224284  0.0042666  1.7113695 -0.0010076  0.0009009  1.7113700 -0.0010080
  0.0219926  0.0037288  1.7164088  0.0006778  0.0027486  1.7164132  0.0006734
  0.0224615  0.0037511  1.7165818  0.0005675  0.0010863  1.7165825  0.0005668
  0.0219323  0.0046194  1.7080617  0.0006187  0.0031577  1.7080675  0.0006129
  0.0218932  0.0051341  1.7028645 -0.0009575  0.0029328  1.7028696 -0.0009626
  0.0224022  0.0046441  1.7082427  0.0004671  0.0015037  1.7082440  0.0004658
  0.0223636  0.0051597  1.7030537 -0.0011064  0.0012814  1.7030546 -0.0011074
  0.0230763  0.0064799  1.6908109  0.0002198  0.0024461  1.6908145  0.0002163
  0.0226010  0.0064522  1.6906300  0.0004541  0.0040944  1.6906399  0.0004442
  0.0230278  0.0069973  1.6856638 -0.0013537  0.0021570  1.6856665 -0.0013565
  0.0225518  0.0069694  1.6854819 -0.0011201  0.0038027  1.6854905 -0.0011287
  0.0231101  0.0061012  1.6939529 -0.0012232  0.0017670  1.6939548 -0.0012250
  0.0231538  0.0055838  1.6991269  0.0003517  0.0020230  1.6991293  0.0003492
  0.0226351  0.0060737  1.6937593 -0.0010352  0.0034216  1.6937662 -0.0010421
  0.0226793  0.0055569  1.6989381  0.0005413  0.0036794  1.6989461  0.0005333
  0.0234593  0.0061214  1.6929257 -0.0010436  0.0035477  1.6929331 -0.0010510
  0.0239386  0.0061492  1.6931240 -0.0012241  0.0018771  1.6931261 -0.0012262
  0.0235029  0.0056039  1.6981040  0.0005317  0.0037997  1.6981125  0.0005232
  0.0239820  0.0056318  1.6983034  0.0003514  0.0021286  1.6983061  0.0003487
  0.0234259  0.0065002  1.6897938  0.0004439  0.0042283  1.6898044  0.0004334
  0.0233779  0.0070177  1.6846440 -0.0011287  0.0039466  1.6846532 -0.0011379
  0.0239055  0.0065280  1.6899783  0.0002214  0.0025640  1.6899822  0.0002176
  0.0238584  0.0070455  1.6848281 -0.0013508  0.0022852  1.6848312 -0.0013539
  0.0232226  0.0046882  1.7074688  0.0004677  0.0015950  1.7074702  0.0004662
  0.0227479  0.0046625  1.7072765  0.0006099  0.0032615  1.7072827  0.0006037
  0.0231840  0.0052052  1.7022706 -0.0011080  0.0013757  1.7022717 -0.0011091
  0.0227095  0.0051787  1.7020699 -0.0009682  0.0030422  1.7020754 -0.0009737
  0.0232488  0.0043092  1.7106103 -0.0010075  0.0009792  1.7106109 -0.0010081
  0.0232819  0.0037909  1.7158438  0.0005732  0.0011608  1.7158445  0.0005724
  0.0227740  0.0042844  1.7104106 -0.0009126  0.0026582  1.7104147 -0.0009168
  0.0228070  0.0037678  1.7156605  0.0006731  0.0028403  1.7156652  0.0006684
  0.0235984  0.0043281  1.7095996 -0.0009198  0.0027558  1.7096040 -0.0009242
  0.0240787  0.0043548  1.7098186 -0.0010105  0.0010585  1.7098192 -0.0010111
  0.0236318  0.0038086  1.7148640  0.0006704  0.0029395  1.7148691  0.0006654
  0.0241131  0.0038339  1.7150675  0.0005753  0.0012445  1.7150684  0.0005744
  0.0235719  0.0047076  1.7064500  0.0006052  0.0033719  1.7064566  0.0005986
  0.0235330  0.0052251  1.7012434 -0.0009730  0.0031516  1.7012492 -0.0009789
  0.0240517  0.0047350  1.7066585  0.0004665  0.0016916  1.7066602  0.0004648
  0.0240123  0.0052529  1.7014561 -0.0011108  0.0014696  1.7014573 -0.0011120
  0.0247393  0.0065792  1.6891180  0.0002278  0.0026848  1.6891223  0.0002235
  0.0242574  0.0065491  1.6889042  0.0004219  0.0043575  1.6889154  0.0004106
  0.0246943  0.0070949  1.6839744 -0.0013394  0.0024215  1.6839779 -0.0013429
  0.0242111  0.0070662  1.6837750 -0.0011415  0.0040910  1.6837849 -0.0011515
  0.0247718  0.0062016  1.6922739 -0.0012192  0.0019946  1.6922762 -0.0012215
  0.0248156  0.0056856  1.6974371  0.0003510  0.0022440  1.6974400  0.0003480
  0.0242903  0.0061707  1.6920425 -0.0010550  0.0036712  1.6920504 -0.0010630
  0.0243337  0.0056537  1.6971958  0.0005120  0.0039188  1.6972049  0.0005029
  0.0251243  0.0062246  1.6911195 -0.0010580  0.0037921  1.6911280 -0.0010665
  0.0256058  0.0062568  1.6913634 -0.0012200  0.0021144  1.6913660 -0.0012226
  0.0251685  0.0057103  1.6962191  0.0004932  0.0040409  1.6962287  0.0004836
  0.0256508  0.0057460  1.6964964  0.0003419  0.0023688  1.6964997  0.0003386
  0.0250921  0.0066011  1.6879957  0.0004011  0.0044851  1.6880076  0.0003891
  0.0250483  0.0071152  1.6829014 -0.0011484  0.0042377  1.6829121 -0.0011591
  0.0255741  0.0066309  1.6882159  0.0002312  0.0028050  1.6882205  0.0002265
  0.0255325  0.0071421  1.6830904 -0.0013268  0.0025628  1.6830943 -0.0013307
  0.0248888  0.0047894  1.7057908  0.0004629  0.0018035  1.7057927  0.0004610
  0.0244046  0.0047569  1.7055343  0.0005903  0.0034873  1.7055415  0.0005832
  0.0248469  0.0053072  1.7006061 -0.0011102  0.0015725  1.7006075 -0.0011117
  0.0243644  0.0052749  1.7003490 -0.0009823  0.0032622  1.7003553 -0.0009885
  0.0249180  0.0044083  1.7089765 -0.0010104  0.0011439  1.7089773 -0.0010111
  0.0249559  0.0038849  1.7142233  0.0005762  0.0013438  1.7142243  0.0005752
  0.0244323  0.0043763  1.7087073 -0.0009281  0.0028555  1.7087120 -0.0009329
  0.0244678  0.0038544  1.7139716  0.0006631  0.0030482  1.7139770  0.0006576
  0.0252752  0.0044345  1.7076975 -0.0009253  0.0029533  1.7077026 -0.0009304
  0.0257653  0.0044741  1.7080326 -0.0010136  0.0012372  1.7080335 -0.0010144
  0.0253155  0.0039100  1.7129397  0.0006627  0.0031715  1.7129456  0.0006569
  0.0258099  0.0039483  1.7132554  0.0005702  0.0014691  1.7132567  0.0005690
  0.0252444  0.0048157  1.7045017  0.0005782  0.0036130  1.7045093  0.0005706
  0.0252006  0.0053328  1.6993744 -0.0009801  0.0033697  1.6993810 -0.0009868
  0.0257317  0.0048551  1.7048165  0.0004489  0.0019383  1.7048187  0.0004467
  0.0256845  0.0053704  1.6996762 -0.0011150  0.0016820  1.6996779 -0.0011167
  0.0263994  0.0066847  1.6872911  0.0002431  0.0029227  1.6872962  0.0002381
  0.0259244  0.0066533  1.6870374  0.0003569  0.0045941  1.6870499  0.0003444
  0.0263651  0.0071837  1.6822153 -0.0012934  0.0027234  1.6822197 -0.0012978
  0.0258853  0.0071605  1.6820474 -0.0011553  0.0043837  1.6820588 -0.0011667
  0.0264298  0.0063198  1.6904300 -0.0012077  0.0022465  1.6904330 -0.0012107
  0.0264787  0.0058220  1.6954664  0.0003282  0.0025172  1.6954702  0.0003244
  0.0259556  0.0062823  1.6901339 -0.0010565  0.0039000  1.6901429 -0.0010655
  0.0260019  0.0057759  1.6950904  0.0004533  0.0041546  1.6951006  0.0004431
  0.0267691  0.0063485  1.6891139 -0.0010206  0.0039732  1.6891233 -0.0010300
  0.0272216  0.0063893  1.6894282 -0.0012252  0.0023816  1.6894316 -0.0012285
  0.0268212  0.0058617  1.6937477  0.0004018  0.0042626  1.6937584  0.0003911
  0.0272800  0.0059244  1.6942611  0.0002642  0.0027145  1.6942655  0.0002598
  0.0267395  0.0067055  1.6861267  0.0002961  0.0046669  1.6861396  0.0002832
  0.0267109  0.0071943  1.6813717 -0.0011361  0.0045319  1.6813839 -0.0011483
  0.0271937  0.0067311  1.6863597  0.0002690  0.0030220  1.6863651  0.0002635
  0.0271758  0.0072000  1.6813973 -0.0012236  0.0029165  1.6814023 -0.0012287
  0.0265768  0.0049437  1.7036715  0.0004211  0.0021260  1.7036741  0.0004185
  0.0260887  0.0048894  1.7032372  0.0005533  0.0037537  1.7032454  0.0005451
  0.0265181  0.0054532  1.6986646 -0.0011132  0.0018168  1.6986665 -0.0011151
  0.0260375  0.0054027  1.6982515 -0.0009701  0.0034728  1.6982586 -0.0009772
  0.0266194  0.0045634  1.7069466 -0.0010075  0.0013460  1.7069476 -0.0010085
  0.0266772  0.0040339  1.7120942  0.0005630  0.0016347  1.7120958  0.0005615
  0.0261255  0.0045086  1.7064785 -0.0009181  0.0030521  1.7064840 -0.0009236
  0.0261747  0.0039815  1.7116651  0.0006605  0.0033149  1.7116715  0.0006541
  0.0269834  0.0046131  1.7048864 -0.0009060  0.0031199  1.7048921 -0.0009117
  0.0274838  0.0046941  1.7055560 -0.0010564  0.0014430  1.7055573 -0.0010577
  0.0270495  0.0040798  1.7100364  0.0006850  0.0034855  1.7100435  0.0006779
  0.0275642  0.0041529  1.7105968  0.0005098  0.0018441  1.7105988  0.0005078
  0.0269341  0.0049933  1.7015536  0.0005317  0.0039203  1.7015627  0.0005227
  0.0268654  0.0054986  1.6969151 -0.0009070  0.0035669  1.6969226 -0.0009145
  0.0274220  0.0050743  1.7021636  0.0003905  0.0024307  1.7021670  0.0003870
  0.0273337  0.0055720  1.6975102 -0.0010673  0.0020090  1.6975126 -0.0010697
  0.0278581  0.0067470  1.6853432  0.0002098  0.0030454  1.6853487  0.0002043
  0.0274934  0.0067422  1.6852664  0.0001331  0.0046239  1.6852791  0.0001204
  0.0279384  0.0071223  1.6809091 -0.0011317  0.0033973  1.6809159 -0.0011385
  0.0275047  0.0071807  1.6813881 -0.0010316  0.0046766  1.6814011 -0.0010446
  0.0278794  0.0064791  1.6887807 -0.0009429  0.0025786  1.6887846 -0.0009468
  0.0280178  0.0061224  1.6925681  0.0002873  0.0031819  1.6925741  0.0002813
  0.0275191  0.0064243  1.6882620 -0.0008430  0.0039511  1.6882712 -0.0008522
  0.0276006  0.0059942  1.6916671  0.0002200  0.0042601  1.6916778  0.0002092
  0.0280840  0.0066308  1.6868491 -0.0000538  0.0039891  1.6868585 -0.0000632
  0.0282829  0.0069905  1.6850930 -0.0013570  0.0048196  1.6851068 -0.0013708
  0.0283366  0.0063086  1.6858298  0.0006275  0.0041044  1.6858398  0.0006175
  0.0287905  0.0066891  1.6848095 -0.0005114  0.0046843  1.6848226 -0.0005245
  0.0286841  0.0054182  1.6952380  0.0008958  0.0045808  1.6952504  0.0008834
  0.0284974  0.0059837  1.6902262 -0.0010785  0.0034711  1.6902333 -0.0010856
  0.0292606  0.0056109  1.6962252 -0.0000286  0.0032831  1.6962315 -0.0000349
  0.0290524  0.0063194  1.6921191 -0.0016048  0.0024217  1.6921226 -0.0016082
  0.0282887  0.0052962  1.6996761  0.0000413  0.0030179  1.6996815  0.0000359
  0.0277850  0.0051555  1.6989457  0.0005330  0.0041504  1.6989558  0.0005228
  0.0281275  0.0058055  1.6959596 -0.0013107  0.0023268  1.6959628 -0.0013139
  0.0276719  0.0056542  1.6949773 -0.0008400  0.0035308  1.6949847 -0.0008473
  0.0283862  0.0048964  1.7035785 -0.0012525  0.0015194  1.7035799 -0.0012538
  0.0284913  0.0043136  1.7086525  0.0003751  0.0020624  1.7086550  0.0003727
  0.0278597  0.0047700  1.7025928 -0.0009815  0.0031762  1.7025987 -0.0009874
  0.0279505  0.0042156  1.7079592  0.0007298  0.0037202  1.7079673  0.0007217
  0.0287924  0.0049904  1.6996056 -0.0010822  0.0034729  1.6996127 -0.0010893
  0.0293756  0.0051208  1.7006780 -0.0012279  0.0015927  1.7006795 -0.0012294
  0.0289016  0.0043871  1.7056318  0.0008181  0.0040493  1.7056415  0.0008085
  0.0294818  0.0044901  1.7064690  0.0005920  0.0021212  1.7064717  0.0005894
  0.0304501  0.0053217  1.6983793 -0.0012639  0.0017128  1.6983810 -0.0012656
  0.0305363  0.0046521  1.7043292  0.0005951  0.0022010  1.7043321  0.0005923
  0.0298198  0.0052095  1.6975639 -0.0009665  0.0036315  1.6975716 -0.0009743
  0.0299198  0.0045611  1.7036635  0.0009541  0.0041857  1.7036738  0.0009438
  0.0309207  0.0053871  1.6951831 -0.0012184  0.0041556  1.6951933 -0.0012285
  0.0315761  0.0054536  1.6957475 -0.0012664  0.0019720  1.6957498 -0.0012687
  0.0309953  0.0047098  1.7018224  0.0007987  0.0044999  1.7018343  0.0007868
  0.0316328  0.0047767  1.7024234  0.0007557  0.0022565  1.7024264  0.0007527
  0.0308734  0.0058921  1.6909448  0.0007111  0.0052572  1.6909612  0.0006948
  0.0308188  0.0065946  1.6840971 -0.0013582  0.0049968  1.6841119 -0.0013730
  0.0315383  0.0059551  1.6915124  0.0006936  0.0029401  1.6915175  0.0006885
  0.0314916  0.0066483  1.6845604 -0.0014052  0.0027007  1.6845647 -0.0014095
  0.0303852  0.0058294  1.6933951  0.0008083  0.0028250  1.6933999  0.0008036
  0.0297164  0.0057211  1.6924214  0.0010473  0.0052755  1.6924379  0.0010308
  0.0302943  0.0065470  1.6861963 -0.0014193  0.0023002  1.6861994 -0.0014224
  0.0295339  0.0064704  1.6857110 -0.0010874  0.0045150  1.6857231 -0.0010995
  0.0284868  0.0079390  1.6744545 -0.0018598  0.0056733  1.6744737 -0.0018790
  0.0290928  0.0078429  1.6738272 -0.0010293  0.0036090  1.6738350 -0.0010371
  0.0283908  0.0073411  1.6817083  0.0005098  0.0048055  1.6817220  0.0004961
  0.0289931  0.0071002  1.6797410  0.0008769  0.0029547  1.6797462  0.0008717
  0.0285258  0.0083870  1.6704005  0.0002783  0.0061433  1.6704231  0.0002557
  0.0285362  0.0090131  1.6637394 -0.0017205  0.0061928  1.6637624 -0.0017435
  0.0291320  0.0083547  1.6700829  0.0002086  0.0040000  1.6700924  0.0001990
  0.0291394  0.0090103  1.6637193 -0.0017007  0.0040353  1.6637291 -0.0017105
  0.0281042  0.0084120  1.6700202  0.0002782  0.0038296  1.6700290  0.0002694
  0.0275585  0.0084479  1.6703321  0.0001888  0.0058037  1.6703522  0.0001687
  0.0281115  0.0090152  1.6642362 -0.0014592  0.0039261  1.6642455 -0.0014685
  0.0275544  0.0090181  1.6642061 -0.0016475  0.0058644  1.6642268 -0.0016681
  0.0280733  0.0079943  1.6730681 -0.0012355  0.0037344  1.6730764 -0.0012438
  0.0279960  0.0074565  1.6781120  0.0003275  0.0033482  1.6781187  0.0003209
  0.0275492  0.0080494  1.6734548 -0.0014437  0.0053645  1.6734719 -0.0014608
  0.0275197  0.0075310  1.6787951  0.0001794  0.0051164  1.6788107  0.0001638
  0.0302512  0.0078114  1.6743437 -0.0017606  0.0032913  1.6743502 -0.0017671
  0.0302584  0.0070780  1.6822365  0.0006062  0.0032804  1.6822429  0.0005998
  0.0295655  0.0078087  1.6742820 -0.0018760  0.0060065  1.6743036 -0.0018975
  0.0294935  0.0070297  1.6817666  0.0003779  0.0057284  1.6817861  0.0003584
  0.0307503  0.0078259  1.6729422 -0.0015805  0.0057929  1.6729622 -0.0016005
  0.0314283  0.0078630  1.6732862 -0.0015385  0.0034624  1.6732933 -0.0015456
  0.0307859  0.0071128  1.6798679  0.0005003  0.0059381  1.6798889  0.0004793
  0.0314621  0.0071595  1.6803084  0.0005712  0.0036052  1.6803161  0.0005635
  0.0307315  0.0083442  1.6688055  0.0003394  0.0066663  1.6688321  0.0003128
  0.0307156  0.0090471  1.6618163 -0.0017586  0.0065888  1.6618424 -0.0017847
  0.0314065  0.0083776  1.6691145  0.0003777  0.0043529  1.6691259  0.0003664
  0.0313808  0.0090801  1.6621309 -0.0017194  0.0042411  1.6621417 -0.0017303
  0.0302455  0.0083343  1.6697843  0.0003717  0.0040082  1.6697939  0.0003621
  0.0295928  0.0083406  1.6697652  0.0001217  0.0062289  1.6697885  0.0000985
  0.0302371  0.0090296  1.6631219 -0.0016239  0.0040787  1.6631319 -0.0016338
  0.0295951  0.0090147  1.6628906 -0.0019415  0.0063390  1.6629148 -0.0019656
  0.0325640  0.0084436  1.6677663  0.0003861  0.0045835  1.6677789  0.0003735
  0.0318975  0.0084042  1.6673849  0.0002935  0.0068865  1.6674133  0.0002650
  0.0325388  0.0091463  1.6608591 -0.0016868  0.0044883  1.6608712 -0.0016989
  0.0318693  0.0091067  1.6604782 -0.0017794  0.0067805  1.6605059 -0.0018070
  0.0325835  0.0079320  1.6719521 -0.0014955  0.0037095  1.6719604 -0.0015037
  0.0326117  0.0072370  1.6788417  0.0005731  0.0038247  1.6788504  0.0005644
  0.0319195  0.0078914  1.6715683 -0.0015678  0.0059873  1.6715897 -0.0015892
  0.0319513  0.0071928  1.6784175  0.0004890  0.0061139  1.6784398  0.0004667
  0.0330677  0.0079583  1.6702444 -0.0015885  0.0062214  1.6702675 -0.0016116
  0.0337266  0.0079897  1.6705626 -0.0014598  0.0039637  1.6705720 -0.0014692
  0.0330918  0.0072658  1.6770648  0.0004564  0.0062910  1.6770884  0.0004328
  0.0337431  0.0073003  1.6774212  0.0005969  0.0040078  1.6774308  0.0005873
  0.0330511  0.0084692  1.6661020  0.0002704  0.0071060  1.6661324  0.0002401
  0.0330298  0.0091727  1.6591661 -0.0018090  0.0070493  1.6591961 -0.0018389
  0.0337154  0.0085001  1.6664227  0.0004082  0.0047911  1.6664365  0.0003944
  0.0337015  0.0092052  1.6594954 -0.0016691  0.0047600  1.6595090 -0.0016827
  0.0326694  0.0060486  1.6898388  0.0007125  0.0030866  1.6898445  0.0007069
  0.0320195  0.0059971  1.6893469  0.0006370  0.0053603  1.6893639  0.0006199
  0.0326347  0.0067324  1.6830141 -0.0013386  0.0029363  1.6830193 -0.0013438
  0.0319781  0.0066852  1.6825747 -0.0013991  0.0051890  1.6825907 -0.0014151
  0.0326974  0.0055511  1.6940150 -0.0012334  0.0021769  1.6940178 -0.0012362
  0.0327392  0.0048758  1.7007495  0.0007945  0.0023700  1.7007528  0.0007912
  0.0320522  0.0054976  1.6935259 -0.0012637  0.0043980  1.6935373 -0.0012752
  0.0321001  0.0048211  1.7002394  0.0007589  0.0046114  1.7002519  0.0007464
  0.0331668  0.0055879  1.6920092 -0.0012812  0.0045681  1.6920215 -0.0012935
  0.0338038  0.0056347  1.6924551 -0.0012085  0.0023520  1.6924584 -0.0012118
  0.0332053  0.0049144  1.6986928  0.0007275  0.0047267  1.6987060  0.0007144
  0.0338397  0.0049653  1.6991824  0.0008131  0.0025029  1.6991861  0.0008094
  0.0331416  0.0060833  1.6878912  0.0006063  0.0054896  1.6879091  0.0005884
  0.0331116  0.0067634  1.6811711 -0.0014096  0.0053863  1.6811883 -0.0014268
  0.0337819  0.0061266  1.6883276  0.0007386  0.0032353  1.6883338  0.0007324
  0.0337580  0.0068011  1.6815439 -0.0012964  0.0031514  1.6815498 -0.0013023
  0.0348589  0.0085351  1.6652269  0.0004700  0.0049634  1.6652417  0.0004552
  0.0341998  0.0085177  1.6649959  0.0002317  0.0072925  1.6650279  0.0001998
  0.0348659  0.0092449  1.6582334 -0.0016297  0.0050562  1.6582489 -0.0016451
  0.0341935  0.0092245  1.6579810 -0.0018711  0.0073391  1.6580134 -0.0019036
  0.0348549  0.0080256  1.6693147 -0.0014051  0.0042525  1.6693256 -0.0014160
  0.0348512  0.0073434  1.6761398  0.0006432  0.0041784  1.6761502  0.0006328
  0.0342054  0.0080077  1.6690922 -0.0016190  0.0064676  1.6691172 -0.0016441
  0.0342145  0.0073211  1.6758643  0.0004105  0.0064385  1.6758890  0.0003857
  0.0353286  0.0080258  1.6683854 -0.0016509  0.0067348  1.6684126 -0.0016780
  0.0359734  0.0080084  1.6683202 -0.0013679  0.0045955  1.6683328 -0.0013806
  0.0353098  0.0073476  1.6750688  0.0003632  0.0065430  1.6750944  0.0003377
  0.0359263  0.0073366  1.6750595  0.0006772  0.0043020  1.6750705  0.0006661
  0.0353425  0.0085359  1.6643736  0.0002287  0.0074169  1.6644067  0.0001957
  0.0353617  0.0092513  1.6570915 -0.0019663  0.0076349  1.6571266 -0.0020014
  0.0360049  0.0085206  1.6643367  0.0005822  0.0050349  1.6643520  0.0005670
  0.0360437  0.0092482  1.6571786 -0.0015856  0.0053155  1.6571957 -0.0016026
  0.0348655  0.0061954  1.6869018  0.0007697  0.0033896  1.6869086  0.0007629
  0.0342438  0.0061567  1.6864794  0.0005545  0.0056006  1.6864980  0.0005359
  0.0348540  0.0068530  1.6801906 -0.0012419  0.0033848  1.6801974 -0.0012487
  0.0342248  0.0068251  1.6798851 -0.0014211  0.0055705  1.6799036 -0.0014395
  0.0348832  0.0057154  1.6909921 -0.0011738  0.0025281  1.6909958 -0.0011776
  0.0349200  0.0050616  1.6976336  0.0008206  0.0026727  1.6976379  0.0008164
  0.0342637  0.0056689  1.6905365 -0.0012773  0.0047023  1.6905495 -0.0012904
  0.0342991  0.0050047  1.6970777  0.0006868  0.0048377  1.6970915  0.0006730
  0.0353240  0.0057505  1.6890750 -0.0012206  0.0047773  1.6890885 -0.0012342
  0.0359090  0.0057999  1.6895475 -0.0011712  0.0026963  1.6895518 -0.0011755
  0.0353643  0.0051107  1.6952133  0.0006268  0.0049491  1.6952278  0.0006123
  0.0359572  0.0051879  1.6959441  0.0007555  0.0029107  1.6959491  0.0007505
  0.0353079  0.0062202  1.6851707  0.0004920  0.0056661  1.6851898  0.0004730
  0.0353043  0.0068638  1.6789089 -0.0013852  0.0057397  1.6789285 -0.0014048
  0.0358951  0.0062494  1.6855459  0.0008229  0.0035217  1.6855533  0.0008156
  0.0359052  0.0068653  1.6789943 -0.0011464  0.0036495  1.6790022 -0.0011543
  0.0371868  0.0084320  1.6640470  0.0009475  0.0049834  1.6640619  0.0009326
  0.0364991  0.0084928  1.6644332  0.0003364  0.0074383  1.6644665  0.0003032
  0.0372556  0.0092165  1.6564956 -0.0013856  0.0055118  1.6565140 -0.0014040
  0.0365512  0.0092389  1.6564816 -0.0021059  0.0079453  1.6565197 -0.0021439
  0.0371100  0.0078886  1.6680717 -0.0011958  0.0049783  1.6680865 -0.0012106
  0.0369693  0.0071884  1.6746235  0.0009349  0.0042052  1.6746341  0.0009243
  0.0364508  0.0079716  1.6685651 -0.0017878  0.0069912  1.6685944 -0.0018171
  0.0363709  0.0072940  1.6754794  0.0003889  0.0063728  1.6755037  0.0003647
  0.0376251  0.0078091  1.6698115 -0.0023049  0.0072866  1.6698432 -0.0023367
  0.0383730  0.0076752  1.6690185 -0.0009325  0.0048115  1.6690324 -0.0009463
  0.0374581  0.0070315  1.6790991  0.0009093  0.0058325  1.6791194  0.0008891
  0.0381953  0.0067087  1.6766085  0.0016447  0.0037014  1.6766167  0.0016365
  0.0377131  0.0083905  1.6645273  0.0003909  0.0078041  1.6645639  0.0003543
  0.0377866  0.0092012  1.6559906 -0.0022233  0.0083002  1.6560321 -0.0022648
  0.0384634  0.0083378  1.6641708  0.0008013  0.0051907  1.6641870  0.0007851
  0.0385328  0.0091817  1.6559654 -0.0017066  0.0056433  1.6559846 -0.0017258
  0.0378534  0.0105997  1.6428072 -0.0024101  0.0091629  1.6428582 -0.0024611
  0.0385983  0.0106211  1.6431617 -0.0018766  0.0065554  1.6431878 -0.0019027
  0.0378242  0.0097931  1.6510685  0.0000854  0.0088759  1.6511162  0.0000377
  0.0385689  0.0097935  1.6512133  0.0005552  0.0062777  1.6512372  0.0005313
  0.0378657  0.0111889  1.6379724 -0.0001994  0.0099661  1.6380330 -0.0002601
  0.0378704  0.0119922  1.6299621 -0.0026046  0.0101250  1.6300249 -0.0026674
  0.0386113  0.0112234  1.6384222  0.0002746  0.0073999  1.6384556  0.0002412
  0.0386174  0.0120413  1.6305538 -0.0020886  0.0075608  1.6305888 -0.0021236
  0.0373275  0.0111648  1.6398243  0.0001949  0.0071441  1.6398554  0.0001638
  0.0366027  0.0111335  1.6394269 -0.0001940  0.0096427  1.6394836 -0.0002507
  0.0373300  0.0119573  1.6322233 -0.0020862  0.0072631  1.6322556 -0.0021185
  0.0366008  0.0119110  1.6316854 -0.0025157  0.0097489  1.6317435 -0.0025739
  0.0373169  0.0105850  1.6443678 -0.0017975  0.0063506  1.6443923 -0.0018220
  0.0372905  0.0097934  1.6520445  0.0005193  0.0061017  1.6520670  0.0004968
  0.0365964  0.0105663  1.6440577 -0.0022732  0.0088375  1.6441052 -0.0023206
  0.0365772  0.0097945  1.6519286  0.0000985  0.0086061  1.6519734  0.0000537
  0.0353716  0.0105304  1.6452599 -0.0021916  0.0084929  1.6453037 -0.0022354
  0.0360751  0.0105517  1.6455630 -0.0018146  0.0060786  1.6455855 -0.0018371
  0.0353695  0.0097857  1.6528036  0.0000723  0.0083649  1.6528460  0.0000300
  0.0360625  0.0097924  1.6529674  0.0004117  0.0059175  1.6529885  0.0003905
  0.0353678  0.0110796  1.6407915 -0.0001829  0.0093332  1.6408446 -0.0002360
  0.0353554  0.0118353  1.6333022 -0.0024265  0.0093640  1.6333558 -0.0024801
  0.0360776  0.0111106  1.6411567  0.0001061  0.0068825  1.6411855  0.0000772
  0.0360717  0.0118783  1.6337771 -0.0021062  0.0069356  1.6338065 -0.0021357
  0.0348530  0.0110540  1.6425408  0.0000153  0.0066405  1.6425677 -0.0000115
  0.0341562  0.0110152  1.6421325 -0.0001872  0.0090411  1.6421823 -0.0002370
  0.0348356  0.0118021  1.6353405 -0.0021427  0.0066142  1.6353673 -0.0021694
  0.0341317  0.0117544  1.6348556 -0.0023674  0.0089896  1.6349049 -0.0024168
  0.0348613  0.0105106  1.6468640 -0.0018890  0.0058149  1.6468845 -0.0019095
  0.0348666  0.0097743  1.6540381  0.0002623  0.0057824  1.6540584  0.0002421
  0.0341706  0.0104780  1.6465068 -0.0021189  0.0081632  1.6465472 -0.0021593
  0.0341857  0.0097498  1.6537523  0.0000520  0.0081646  1.6537926  0.0000117
  0.0353098  0.0131607  1.6212960 -0.0026917  0.0102075  1.6213601 -0.0027558
  0.0360344  0.0132221  1.6218973 -0.0024606  0.0077908  1.6219347 -0.0024980
  0.0353398  0.0123929  1.6287488 -0.0004580  0.0102885  1.6288138 -0.0005230
  0.0360601  0.0124441  1.6292594 -0.0002538  0.0078554  1.6292973 -0.0002917
  0.0352831  0.0137234  1.6166672 -0.0007948  0.0112018  1.6167448 -0.0008724
  0.0352401  0.0144929  1.6093316 -0.0029979  0.0110413  1.6094072 -0.0030735
  0.0360102  0.0137920  1.6173024 -0.0006463  0.0087957  1.6173502 -0.0006941
  0.0359699  0.0145710  1.6100503 -0.0028241  0.0086474  1.6100966 -0.0028705
  0.0347550  0.0136731  1.6191779 -0.0006789  0.0084157  1.6192216 -0.0007227
  0.0340395  0.0136042  1.6185565 -0.0007729  0.0107835  1.6186283 -0.0008447
  0.0347100  0.0144364  1.6120487 -0.0028234  0.0082311  1.6120906 -0.0028653
  0.0339914  0.0143603  1.6113650 -0.0029365  0.0105859  1.6114344 -0.0030059
  0.0347837  0.0131152  1.6236985 -0.0024759  0.0074193  1.6237324 -0.0025098
  0.0348170  0.0123544  1.6309024 -0.0003139  0.0075376  1.6309372 -0.0003488
  0.0340709  0.0130523  1.6231065 -0.0026341  0.0097901  1.6231655 -0.0026930
  0.0341089  0.0123003  1.6303873 -0.0004489  0.0099267  1.6304477 -0.0005093
  0.0373040  0.0133378  1.6200680 -0.0024371  0.0081890  1.6201093 -0.0024785
  0.0373237  0.0125395  1.6275806 -0.0001869  0.0082005  1.6276219 -0.0002282
  0.0365687  0.0132696  1.6193764 -0.0027742  0.0106402  1.6194462 -0.0028440
  0.0365917  0.0124834  1.6269985 -0.0004918  0.0106639  1.6270683 -0.0005616
  0.0378480  0.0133888  1.6173599 -0.0028445  0.0110987  1.6174359 -0.0029205
  0.0385990  0.0134597  1.6180959 -0.0024274  0.0086041  1.6181416 -0.0024731
  0.0378656  0.0125816  1.6251372 -0.0005160  0.0110756  1.6252127 -0.0005915
  0.0386141  0.0126405  1.6257636 -0.0001310  0.0085722  1.6258088 -0.0001762
  0.0378289  0.0139790  1.6125131 -0.0008928  0.0121085  1.6126040 -0.0009837
  0.0377945  0.0147846  1.6048945 -0.0031756  0.0120188  1.6049843 -0.0032654
  0.0385816  0.0140584  1.6132763 -0.0006054  0.0096383  1.6133338 -0.0006630
  0.0385495  0.0148751  1.6057555 -0.0028591  0.0095585  1.6058123 -0.0029159
  0.0372835  0.0139219  1.6153563 -0.0006120  0.0092046  1.6154087 -0.0006644
  0.0365462  0.0138452  1.6146288 -0.0008476  0.0116338  1.6147125 -0.0009314
  0.0372474  0.0147193  1.6079805 -0.0028238  0.0090947  1.6080318 -0.0028752
  0.0365078  0.0146317  1.6071559 -0.0030885  0.0115132  1.6072382 -0.0031708
  0.0346125  0.0157655  1.6004119 -0.0032233  0.0090295  1.6004627 -0.0032742
  0.0346718  0.0149971  1.6074695 -0.0010913  0.0092939  1.6075231 -0.0011450
  0.0338923  0.0156764  1.5996470 -0.0032711  0.0113539  1.5997275 -0.0033515
  0.0339520  0.0149155  1.6067725 -0.0011183  0.0116242  1.6068565 -0.0012023
  0.0351441  0.0158326  1.5973984 -0.0033292  0.0118364  1.5974860 -0.0034167
  0.0358760  0.0159268  1.5982156 -0.0032423  0.0094803  1.5982717 -0.0032984
  0.0352029  0.0150580  1.6046487 -0.0011413  0.0120943  1.6047398 -0.0012324
  0.0359340  0.0151430  1.6053837 -0.0010795  0.0097302  1.6054427 -0.0011384
  0.0350961  0.0163979  1.5926566 -0.0015347  0.0129526  1.5927618 -0.0016399
  0.0350240  0.0171680  1.5855824 -0.0036820  0.0126181  1.5856825 -0.0037821
  0.0358282  0.0164989  1.5934896 -0.0015360  0.0106421  1.5935606 -0.0016071
  0.0357554  0.0172783  1.5864989 -0.0036579  0.0103123  1.5865657 -0.0037248
  0.0345647  0.0163264  1.5957849 -0.0015343  0.0101565  1.5958495 -0.0015989
  0.0338448  0.0162318  1.5950091 -0.0015093  0.0124369  1.5951060 -0.0016062
  0.0344933  0.0170904  1.5888831 -0.0036301  0.0098269  1.5889437 -0.0036907
  0.0337748  0.0169885  1.5880385 -0.0036257  0.0121063  1.5881306 -0.0037178
  0.0371582  0.0161054  1.5959006 -0.0032551  0.0099559  1.5959626 -0.0033170
  0.0372138  0.0153044  1.6031908 -0.0010597  0.0101795  1.6032554 -0.0011243
  0.0364157  0.0159999  1.5949689 -0.0034213  0.0123363  1.5950641 -0.0035165
  0.0364728  0.0152090  1.6023470 -0.0011991  0.0125697  1.6024455 -0.0012976
  0.0377077  0.0161842  1.5924042 -0.0035254  0.0128589  1.5925078 -0.0036290
  0.0384664  0.0162938  1.5933868 -0.0033128  0.0104178  1.5934547 -0.0033808
  0.0377620  0.0153754  1.5999802 -0.0012467  0.0130711  1.6000869 -0.0013534
  0.0385186  0.0154740  1.6008680 -0.0010629  0.0106182  1.6009384 -0.0011333
  0.0376612  0.0167752  1.5873903 -0.0016354  0.0140268  1.5875141 -0.0017592
  0.0375886  0.0175814  1.5800140 -0.0038649  0.0137229  1.5801329 -0.0039838
  0.0384214  0.0168932  1.5884004 -0.0015060  0.0116301  1.5884855 -0.0015911
  0.0383504  0.0177111  1.5811228 -0.0037052  0.0113385  1.5812039 -0.0037863
  0.0371111  0.0166906  1.5910383 -0.0015290  0.0111423  1.5911163 -0.0016070
  0.0363681  0.0165773  1.5900896 -0.0015939  0.0134740  1.5902037 -0.0017079
  0.0370379  0.0174884  1.5839447 -0.0036784  0.0108254  1.5840186 -0.0037522
  0.0362950  0.0173641  1.5828991 -0.0037729  0.0131499  1.5830081 -0.0038818
  0.0368792  0.0188685  1.5721222 -0.0041704  0.0116854  1.5722088 -0.0042570
  0.0369758  0.0180720  1.5789895 -0.0020616  0.0121304  1.5790826 -0.0021547
  0.0361392  0.0187253  1.5709971 -0.0041296  0.0139183  1.5711201 -0.0042525
  0.0362337  0.0179397  1.5779617 -0.0019913  0.0143675  1.5780923 -0.0021219
  0.0374289  0.0189769  1.5678552 -0.0042205  0.0145559  1.5679899 -0.0043553
  0.0381907  0.0191300  1.5690512 -0.0042329  0.0122886  1.5691472 -0.0043289
  0.0375264  0.0181713  1.5749381 -0.0020473  0.0150090  1.5750810 -0.0021902
  0.0382886  0.0183105  1.5760174 -0.0020961  0.0127305  1.5761201 -0.0021988
  0.0373487  0.0195629  1.5627129 -0.0025125  0.0158992  1.5628743 -0.0026740
  0.0372270  0.0203583  1.5559572 -0.0046400  0.0152858  1.5561069 -0.0047897
  0.0381084  0.0197268  1.5638628 -0.0027823  0.0137555  1.5639836 -0.0029031
  0.0379814  0.0205376  1.5572457 -0.0048684  0.0131465  1.5573564 -0.0049791
  0.0368007  0.0194477  1.5671059 -0.0026312  0.0130730  1.5672148 -0.0027401
  0.0360632  0.0192966  1.5660094 -0.0024374  0.0152001  1.5661567 -0.0025847
  0.0366827  0.0202334  1.5605433 -0.0046827  0.0125177  1.5606435 -0.0047828
  0.0359503  0.0200718  1.5593455 -0.0045181  0.0146463  1.5594826 -0.0046553
  0.0348029  0.0190583  1.5690818 -0.0023789  0.0145840  1.5692171 -0.0025143
  0.0346971  0.0198165  1.5624510 -0.0044403  0.0140626  1.5625772 -0.0045665
  0.0355279  0.0191923  1.5700702 -0.0025688  0.0124437  1.5701687 -0.0026673
  0.0354183  0.0199601  1.5635288 -0.0046041  0.0119217  1.5636194 -0.0046947
  0.0342775  0.0189645  1.5727874 -0.0025502  0.0118514  1.5728765 -0.0026393
  0.0335674  0.0188424  1.5718800 -0.0023627  0.0139765  1.5720041 -0.0024868
  0.0341748  0.0197160  1.5663027 -0.0045614  0.0113568  1.5663848 -0.0046435
  0.0334691  0.0195849  1.5653072 -0.0043992  0.0134851  1.5654231 -0.0045150
  0.0343473  0.0184106  1.5774848 -0.0040890  0.0106015  1.5775559 -0.0041601
  0.0344351  0.0176489  1.5842185 -0.0020248  0.0110199  1.5842950 -0.0021014
  0.0336341  0.0182948  1.5765680 -0.0040000  0.0128134  1.5766718 -0.0041039
  0.0337184  0.0175412  1.5833817 -0.0019126  0.0132286  1.5834921 -0.0020230
  0.0348746  0.0184995  1.5739095 -0.0040486  0.0133547  1.5740225 -0.0041616
  0.0356020  0.0186265  1.5749092 -0.0041275  0.0111254  1.5749876 -0.0042059
  0.0349646  0.0177311  1.5808038 -0.0019329  0.0137925  1.5809240 -0.0020531
  0.0356948  0.0178483  1.5817126 -0.0020390  0.0115622  1.5817970 -0.0021234
  0.0339686  0.0210104  1.5553029 -0.0050964  0.0120694  1.5553963 -0.0051898
  0.0340920  0.0202642  1.5615535 -0.0031179  0.0126696  1.5616561 -0.0032205
  0.0332711  0.0208613  1.5542332 -0.0048219  0.0140944  1.5543606 -0.0049493
  0.0333897  0.0201259  1.5605841 -0.0028143  0.0146952  1.5607222 -0.0029524
  0.0344853  0.0211231  1.5511691 -0.0048533  0.0147041  1.5513080 -0.0049922
  0.0351996  0.0212823  1.5522970 -0.0051414  0.0126612  1.5523999 -0.0052443
  0.0346120  0.0203698  1.5575815 -0.0028175  0.0153358  1.5577322 -0.0029682
  0.0353303  0.0205201  1.5586267 -0.0031297  0.0132919  1.5587398 -0.0032428
  0.0343859  0.0216722  1.5461990 -0.0032725  0.0160296  1.5463648 -0.0034383
  0.0342409  0.0224191  1.5399770 -0.0052866  0.0153178  1.5401288 -0.0054385
  0.0350992  0.0218380  1.5473222 -0.0036563  0.0140448  1.5474494 -0.0037834
  0.0349557  0.0225942  1.5411661 -0.0056457  0.0133498  1.5412814 -0.0057609
  0.0338706  0.0215536  1.5504673 -0.0037061  0.0134487  1.5505836 -0.0038225
  0.0331761  0.0213954  1.5494132 -0.0032963  0.0153716  1.5495654 -0.0034484
  0.0337263  0.0222917  1.5445004 -0.0056441  0.0127527  1.5446053 -0.0057490
  0.0330354  0.0221189  1.5433241 -0.0052732  0.0146634  1.5434630 -0.0054120
  0.0320880  0.0206274  1.5570862 -0.0047792  0.0134997  1.5572028 -0.0048958
  0.0327672  0.0207587  1.5580348 -0.0050721  0.0114812  1.5581192 -0.0051564
  0.0321944  0.0199113  1.5633804 -0.0027997  0.0140618  1.5635066 -0.0029259
  0.0328813  0.0200313  1.5642141 -0.0031238  0.0120506  1.5643068 -0.0032164
  0.0320021  0.0211448  1.5525006 -0.0032875  0.0146895  1.5526392 -0.0034261
  0.0318740  0.0218424  1.5465442 -0.0052176  0.0140097  1.5466706 -0.0053440
  0.0326755  0.0212858  1.5534183 -0.0037420  0.0128127  1.5535237 -0.0038475
  0.0325391  0.0219985  1.5476052 -0.0056315  0.0121339  1.5477000 -0.0057263
  0.0315172  0.0210492  1.5560574 -0.0036807  0.0121635  1.5561522 -0.0037755
  0.0308655  0.0209289  1.5552751 -0.0032461  0.0140181  1.5554012 -0.0033721
  0.0313963  0.0217366  1.5503239 -0.0055240  0.0115435  1.5504095 -0.0056096
  0.0307563  0.0216037  1.5494062 -0.0051230  0.0134115  1.5495219 -0.0052387
  0.0315980  0.0205384  1.5604296 -0.0049933  0.0109297  1.5605059 -0.0050696
  0.0316981  0.0198303  1.5665589 -0.0030781  0.0114394  1.5666423 -0.0031615
  0.0309386  0.0204266  1.5596083 -0.0047215  0.0129442  1.5597154 -0.0048286
  0.0310289  0.0197290  1.5658507 -0.0027775  0.0134377  1.5659658 -0.0028927
  0.0318484  0.0185868  1.5773433 -0.0025209  0.0107071  1.5774159 -0.0025934
  0.0311640  0.0184999  1.5766968 -0.0023293  0.0128211  1.5768009 -0.0024334
  0.0317651  0.0193074  1.5709185 -0.0044951  0.0102922  1.5709857 -0.0045623
  0.0310893  0.0192128  1.5701852 -0.0043259  0.0124246  1.5702832 -0.0044239
  0.0319047  0.0180537  1.5817343 -0.0040456  0.0096178  1.5817926 -0.0041039
  0.0319753  0.0173177  1.5884540 -0.0019990  0.0099662  1.5885164 -0.0020615
  0.0312143  0.0179716  1.5810726 -0.0039384  0.0118493  1.5811611 -0.0040270
  0.0312771  0.0172411  1.5878567 -0.0018755  0.0121770  1.5879499 -0.0019688
  0.0324143  0.0181193  1.5789756 -0.0039599  0.0123125  1.5790713 -0.0040556
  0.0331162  0.0182168  1.5797480 -0.0040798  0.0100911  1.5798122 -0.0041441
  0.0324898  0.0173788  1.5857690 -0.0018839  0.0126979  1.5858706 -0.0019855
  0.0331972  0.0174689  1.5864648 -0.0020249  0.0104867  1.5865340 -0.0020941
  0.0323542  0.0186564  1.5744537 -0.0023277  0.0133956  1.5745675 -0.0024415
  0.0322658  0.0193832  1.5679103 -0.0043485  0.0129350  1.5680167 -0.0044549
  0.0330520  0.0187598  1.5752161 -0.0025459  0.0112726  1.5752967 -0.0026264
  0.0329576  0.0194957  1.5687654 -0.0045411  0.0108038  1.5688396 -0.0046153
  0.0299962  0.0183870  1.5786335 -0.0023193  0.0123067  1.5787293 -0.0024151
  0.0299373  0.0190869  1.5720899 -0.0043099  0.0119886  1.5721811 -0.0044010
  0.0306677  0.0184464  1.5790739 -0.0024933  0.0101759  1.5791394 -0.0025587
  0.0305995  0.0191537  1.5726122 -0.0044629  0.0098340  1.5726735 -0.0045242
  0.0295088  0.0183505  1.5804247 -0.0024730  0.0096998  1.5804842 -0.0025325
  0.0288490  0.0183103  1.5801170 -0.0023654  0.0118428  1.5802056 -0.0024540
  0.0294558  0.0190465  1.5739193 -0.0044407  0.0094451  1.5739758 -0.0044973
  0.0288027  0.0190029  1.5735723 -0.0043430  0.0116078  1.5736577 -0.0044284
  0.0295430  0.0178343  1.5845231 -0.0040269  0.0087985  1.5845718 -0.0040757
  0.0295834  0.0171200  1.5912066 -0.0020143  0.0089825  1.5912572 -0.0020649
  0.0288781  0.0177989  1.5842264 -0.0039872  0.0110259  1.5843030 -0.0040637
  0.0289112  0.0170943  1.5910073 -0.0019466  0.0111900  1.5910859 -0.0020252
  0.0300348  0.0178672  1.5828379 -0.0039779  0.0114233  1.5829201 -0.0040601
  0.0307133  0.0179217  1.5832921 -0.0040292  0.0091787  1.5833451 -0.0040823
  0.0300813  0.0171471  1.5896381 -0.0019250  0.0116534  1.5897234 -0.0020103
  0.0307696  0.0171954  1.5900225 -0.0019949  0.0094366  1.5900784 -0.0020509
  0.0293551  0.0202276  1.5636486 -0.0048290  0.0100499  1.5637130 -0.0048933
  0.0294146  0.0195494  1.5699397 -0.0029172  0.0103501  1.5700078 -0.0029853
  0.0287239  0.0201803  1.5632860 -0.0046714  0.0121432  1.5633801 -0.0047655
  0.0287692  0.0195039  1.5696113 -0.0027551  0.0123990  1.5697090 -0.0028529
  0.0298209  0.0202747  1.5617158 -0.0046627  0.0124825  1.5618153 -0.0047621
  0.0304624  0.0203560  1.5623205 -0.0049091  0.0104424  1.5623901 -0.0049787
  0.0298903  0.0195927  1.5679703 -0.0027402  0.0128790  1.5680759 -0.0028458
  0.0305445  0.0196653  1.5684749 -0.0030098  0.0108693  1.5685501 -0.0030850
  0.0297640  0.0207632  1.5576586 -0.0031789  0.0134149  1.5577738 -0.0032942
  0.0296779  0.0214157  1.5518086 -0.0050124  0.0129170  1.5519158 -0.0051195
  0.0303958  0.0208523  1.5582395 -0.0035576  0.0115508  1.5583249 -0.0036430
  0.0302958  0.0215177  1.5525306 -0.0053574  0.0110289  1.5526086 -0.0054355
  0.0293070  0.0207112  1.5598662 -0.0034544  0.0109889  1.5599434 -0.0035316
  0.0286902  0.0206584  1.5595277 -0.0031939  0.0128480  1.5596333 -0.0032995
  0.0292352  0.0213542  1.5541947 -0.0051986  0.0106203  1.5542670 -0.0052709
  0.0286436  0.0212883  1.5537001 -0.0049713  0.0125456  1.5538011 -0.0050723
  0.0276099  0.0201626  1.5642632 -0.0048589  0.0118818  1.5643532 -0.0049488
  0.0282563  0.0201629  1.5642545 -0.0048955  0.0097083  1.5643145 -0.0049555
  0.0276468  0.0194613  1.5707888 -0.0028994  0.0120159  1.5708806 -0.0029911
  0.0282955  0.0194803  1.5709588 -0.0028821  0.0098572  1.5710205 -0.0029439
  0.0276054  0.0206562  1.5607464 -0.0033680  0.0123630  1.5608441 -0.0034657
  0.0276302  0.0213033  1.5548109 -0.0051508  0.0124647  1.5549105 -0.0052504
  0.0282343  0.0206437  1.5606543 -0.0033425  0.0104383  1.5607240 -0.0034122
  0.0282135  0.0212746  1.5545385 -0.0051753  0.0103905  1.5546077 -0.0052445
  0.0271192  0.0206735  1.5605869 -0.0029974  0.0097929  1.5606482 -0.0030587
  0.0264197  0.0207082  1.5607375 -0.0035787  0.0122995  1.5608342 -0.0036754
  0.0271449  0.0213813  1.5523509 -0.0054941  0.0101730  1.5524174 -0.0055605
  0.0264022  0.0215658  1.5538359 -0.0056369  0.0124816  1.5539358 -0.0057368
  0.0271255  0.0201541  1.5651912 -0.0049883  0.0090029  1.5652428 -0.0050400
  0.0271684  0.0194430  1.5718485 -0.0029609  0.0093367  1.5719038 -0.0030162
  0.0264486  0.0201311  1.5651361 -0.0045447  0.0111269  1.5652150 -0.0046235
  0.0265101  0.0194121  1.5717110 -0.0025298  0.0115141  1.5717952 -0.0026140
  0.0273926  0.0222886  1.5452053 -0.0056052  0.0115061  1.5452907 -0.0056905
  0.0272182  0.0218141  1.5491636 -0.0037426  0.0103191  1.5492322 -0.0038111
  0.0270227  0.0226343  1.5474196 -0.0063496  0.0120028  1.5475124 -0.0064423
  0.0265638  0.0220819  1.5497841 -0.0047894  0.0110030  1.5498620 -0.0048673
  0.0276913  0.0221865  1.5466131 -0.0053385  0.0126670  1.5467165 -0.0054419
  0.0281373  0.0222536  1.5472600 -0.0054248  0.0109616  1.5473374 -0.0055022
  0.0276532  0.0217133  1.5517107 -0.0038327  0.0126352  1.5518133 -0.0039353
  0.0281875  0.0217060  1.5515769 -0.0041073  0.0111945  1.5516575 -0.0041878
  0.0276163  0.0225121  1.5425177 -0.0039602  0.0132412  1.5426311 -0.0040736
  0.0273732  0.0229284  1.5390978 -0.0054988  0.0122392  1.5391948 -0.0055958
  0.0280527  0.0226484  1.5433145 -0.0046855  0.0121074  1.5434092 -0.0047802
  0.0278718  0.0231794  1.5402152 -0.0058919  0.0114364  1.5402998 -0.0059765
  0.0290712  0.0224292  1.5453854 -0.0055748  0.0112103  1.5454665 -0.0056558
  0.0291720  0.0218146  1.5504521 -0.0039671  0.0117052  1.5505402 -0.0040553
  0.0285070  0.0223186  1.5445898 -0.0052891  0.0128994  1.5446972 -0.0053964
  0.0285945  0.0217331  1.5499318 -0.0036022  0.0133943  1.5500473 -0.0037177
  0.0294964  0.0225156  1.5422579 -0.0053637  0.0133439  1.5423729 -0.0054788
  0.0300940  0.0226411  1.5431009 -0.0057985  0.0116157  1.5431881 -0.0058856
  0.0296062  0.0218853  1.5477309 -0.0035942  0.0139568  1.5478564 -0.0037198
  0.0302150  0.0219970  1.5484329 -0.0040649  0.0122377  1.5485294 -0.0041614
  0.0294089  0.0229759  1.5381022 -0.0040089  0.0144612  1.5382378 -0.0041445
  0.0292796  0.0236029  1.5330010 -0.0056890  0.0138172  1.5331251 -0.0058130
  0.0300027  0.0231054  1.5389227 -0.0044537  0.0128374  1.5390294 -0.0045604
  0.0298741  0.0237299  1.5338002 -0.0061406  0.0121912  1.5338967 -0.0062371
  0.0289846  0.0228798  1.5413357 -0.0044211  0.0123489  1.5414344 -0.0045198
  0.0284194  0.0227469  1.5404906 -0.0038557  0.0139349  1.5406163 -0.0039814
  0.0288491  0.0234961  1.5365143 -0.0060484  0.0116661  1.5366025 -0.0061366
  0.0282673  0.0233316  1.5354950 -0.0055754  0.0131599  1.5356074 -0.0056878
  0.0263638  0.0236465  1.5387253 -0.0072046  0.0108710  1.5388017 -0.0072810
  0.0267470  0.0229982  1.5414636 -0.0048959  0.0123038  1.5415615 -0.0049938
  0.0257393  0.0232380  1.5381808 -0.0052317  0.0110015  1.5382592 -0.0053101
  0.0261676  0.0224635  1.5405419 -0.0033099  0.0122252  1.5406387 -0.0034067
  0.0268185  0.0239160  1.5311459 -0.0056065  0.0118902  1.5312379 -0.0056985
  0.0274363  0.0242435  1.5320026 -0.0068485  0.0113040  1.5320856 -0.0069316
  0.0271594  0.0233046  1.5342228 -0.0037725  0.0130604  1.5343337 -0.0038834
  0.0277067  0.0236068  1.5352362 -0.0051320  0.0124241  1.5353364 -0.0052322
  0.0265541  0.0243856  1.5248808 -0.0038232  0.0135849  1.5250015 -0.0039440
  0.0261727  0.0250574  1.5215593 -0.0062634  0.0120414  1.5216542 -0.0063583
  0.0271982  0.0247755  1.5256819 -0.0058885  0.0132187  1.5257960 -0.0060025
  0.0268181  0.0255921  1.5227212 -0.0078598  0.0118995  1.5228137 -0.0079523
  0.0260898  0.0241135  1.5322652 -0.0055014  0.0126001  1.5323684 -0.0056046
  0.0254656  0.0237599  1.5314543 -0.0040681  0.0130774  1.5315657 -0.0041795
  0.0257247  0.0247410  1.5293176 -0.0074395  0.0113740  1.5294018 -0.0075237
  0.0251460  0.0244112  1.5284366 -0.0059003  0.0118851  1.5285287 -0.0059924
  0.0243141  0.0232398  1.5365761 -0.0037465  0.0125416  1.5366782 -0.0038486
  0.0240370  0.0239595  1.5324032 -0.0056763  0.0113321  1.5324867 -0.0057598
  0.0249898  0.0235258  1.5375976 -0.0050881  0.0115160  1.5376836 -0.0051740
  0.0246938  0.0242018  1.5332807 -0.0071749  0.0101989  1.5333482 -0.0072424
  0.0238054  0.0230383  1.5425572 -0.0046643  0.0103521  1.5426264 -0.0047336
  0.0230913  0.0227737  1.5412454 -0.0031921  0.0119064  1.5413372 -0.0032839
  0.0235043  0.0237881  1.5368513 -0.0071608  0.0088349  1.5369019 -0.0072114
  0.0227060  0.0235622  1.5360313 -0.0056205  0.0103831  1.5361013 -0.0056904
  0.0240148  0.0224924  1.5490023 -0.0064092  0.0087829  1.5490519 -0.0064588
  0.0242857  0.0217508  1.5537090 -0.0043598  0.0100290  1.5537736 -0.0044243
  0.0233334  0.0222282  1.5479073 -0.0051016  0.0100145  1.5479719 -0.0051662
  0.0236094  0.0215265  1.5528106 -0.0029181  0.0113539  1.5528935 -0.0030009
  0.0245276  0.0226946  1.5430535 -0.0055564  0.0110538  1.5431324 -0.0056353
  0.0252473  0.0229830  1.5444260 -0.0070696  0.0095971  1.5444854 -0.0071290
  0.0248338  0.0219248  1.5485980 -0.0030865  0.0125687  1.5486998 -0.0031883
  0.0256549  0.0221759  1.5494446 -0.0046488  0.0111279  1.5495242 -0.0047285
  0.0251685  0.0205810  1.5611756 -0.0025237  0.0118331  1.5612651 -0.0026132
  0.0250055  0.0213585  1.5536971 -0.0050150  0.0108357  1.5537724 -0.0050903
  0.0258970  0.0206834  1.5618109 -0.0034881  0.0093657  1.5618670 -0.0035441
  0.0258290  0.0215597  1.5548881 -0.0056504  0.0087547  1.5549372 -0.0056995
  0.0246587  0.0204861  1.5642772 -0.0037288  0.0094444  1.5643340 -0.0037856
  0.0239945  0.0203293  1.5634917 -0.0026168  0.0111445  1.5635710 -0.0026961
  0.0244582  0.0212132  1.5588605 -0.0057314  0.0084069  1.5589057 -0.0057766
  0.0237865  0.0210176  1.5578314 -0.0047463  0.0100117  1.5578956 -0.0048104
  0.0247787  0.0199632  1.5688644 -0.0050805  0.0079704  1.5689047 -0.0051208
  0.0249058  0.0192618  1.5747744 -0.0031246  0.0087296  1.5748227 -0.0031729
  0.0241256  0.0198319  1.5680837 -0.0043815  0.0097916  1.5681446 -0.0044425
  0.0242759  0.0191613  1.5741893 -0.0023168  0.0106646  1.5742614 -0.0023889
  0.0252677  0.0200349  1.5661223 -0.0045208  0.0106589  1.5661947 -0.0045931
  0.0259508  0.0200991  1.5665439 -0.0048165  0.0085887  1.5665909 -0.0048634
  0.0253757  0.0193202  1.5726836 -0.0024824  0.0111829  1.5727629 -0.0025618
  0.0260297  0.0193792  1.5731000 -0.0027989  0.0090179  1.5731516 -0.0028505
  0.0229266  0.0200536  1.5663367 -0.0025758  0.0104961  1.5664070 -0.0026460
  0.0227126  0.0206827  1.5613174 -0.0045635  0.0093725  1.5613735 -0.0046196
  0.0235304  0.0202134  1.5671026 -0.0036715  0.0090396  1.5671546 -0.0037235
  0.0233188  0.0208755  1.5622910 -0.0055498  0.0079940  1.5623317 -0.0055906
  0.0225010  0.0199375  1.5698952 -0.0037093  0.0086234  1.5699424 -0.0037566
  0.0219420  0.0197798  1.5691800 -0.0025809  0.0099142  1.5692425 -0.0026434
  0.0222881  0.0205449  1.5654840 -0.0055201  0.0075671  1.5655204 -0.0055565
  0.0217345  0.0203612  1.5645850 -0.0044760  0.0088047  1.5646344 -0.0045254
  0.0226420  0.0194921  1.5741466 -0.0049951  0.0072239  1.5741797 -0.0050281
  0.0228146  0.0188828  1.5789939 -0.0032066  0.0081475  1.5790358 -0.0032486
  0.0220816  0.0193514  1.5733962 -0.0041130  0.0086716  1.5734439 -0.0041607
  0.0222555  0.0187625  1.5783898 -0.0022562  0.0096429  1.5784487 -0.0023150
  0.0230668  0.0195944  1.5707475 -0.0042230  0.0091949  1.5708012 -0.0042767
  0.0236670  0.0197330  1.5715220 -0.0050464  0.0075883  1.5715585 -0.0050829
  0.0232361  0.0189686  1.5762104 -0.0022693  0.0101501  1.5762757 -0.0023345
  0.0238285  0.0190828  1.5768173 -0.0031769  0.0084756  1.5768628 -0.0032224
  0.0218418  0.0215878  1.5572356 -0.0060567  0.0079876  1.5572764 -0.0060975
  0.0221115  0.0209871  1.5608134 -0.0042606  0.0091315  1.5608666 -0.0043139
  0.0213171  0.0213376  1.5562370 -0.0048417  0.0088094  1.5562868 -0.0048915
  0.0215671  0.0207786  1.5600857 -0.0029125  0.0100381  1.5601501 -0.0029770
  0.0222558  0.0217749  1.5516996 -0.0050282  0.0093474  1.5517557 -0.0050844
  0.0228621  0.0220360  1.5528627 -0.0062531  0.0082409  1.5529063 -0.0062967
  0.0225329  0.0211439  1.5563523 -0.0028546  0.0107044  1.5564258 -0.0029281
  0.0231397  0.0213638  1.5572942 -0.0042245  0.0094994  1.5573520 -0.0042823
  0.0220157  0.0222234  1.5463368 -0.0030682  0.0105919  1.5464092 -0.0031406
  0.0216371  0.0228177  1.5435216 -0.0054431  0.0091529  1.5435757 -0.0054972
  0.0226118  0.0225554  1.5467832 -0.0050998  0.0103266  1.5468519 -0.0051685
  0.0222056  0.0233022  1.5443914 -0.0069568  0.0091369  1.5444452 -0.0070106
  0.0216151  0.0220000  1.5517909 -0.0049073  0.0096993  1.5518513 -0.0049678
  0.0211166  0.0217217  1.5515321 -0.0032728  0.0098476  1.5515944 -0.0033352
  0.0212655  0.0225256  1.5499372 -0.0066047  0.0086955  1.5499858 -0.0066533
  0.0208191  0.0222120  1.5494756 -0.0050659  0.0087478  1.5495248 -0.0051151
  0.0204647  0.0209894  1.5598396 -0.0046578  0.0084426  1.5598851 -0.0047034
  0.0209481  0.0211773  1.5606345 -0.0058031  0.0075227  1.5606706 -0.0058393
  0.0206767  0.0204689  1.5635594 -0.0029259  0.0095255  1.5636173 -0.0029838
  0.0211826  0.0206398  1.5641853 -0.0041106  0.0085863  1.5642323 -0.0041577
  0.0203064  0.0213499  1.5557624 -0.0033796  0.0095248  1.5558206 -0.0034377
  0.0200860  0.0218143  1.5528613 -0.0049398  0.0085216  1.5529079 -0.0049864
  0.0207660  0.0215475  1.5563505 -0.0044797  0.0089145  1.5564014 -0.0045306
  0.0205030  0.0220214  1.5536377 -0.0060380  0.0079192  1.5536779 -0.0060783
  0.0199700  0.0212264  1.5595320 -0.0043769  0.0082470  1.5595755 -0.0044204
  0.0195105  0.0210865  1.5590188 -0.0033290  0.0091517  1.5590725 -0.0033826
  0.0197753  0.0216910  1.5561247 -0.0059431  0.0072742  1.5561586 -0.0059769
  0.0193435  0.0215611  1.5555890 -0.0048217  0.0082412  1.5556325 -0.0048653
  0.0201137  0.0208686  1.5632079 -0.0055995  0.0070099  1.5632392 -0.0056308
  0.0203118  0.0203555  1.5670198 -0.0039499  0.0080066  1.5670606 -0.0039907
  0.0196383  0.0207263  1.5625715 -0.0045250  0.0080960  1.5626133 -0.0045668
  0.0198206  0.0202166  1.5664537 -0.0028813  0.0090774  1.5665062 -0.0029338
  0.0195131  0.0223486  1.5491407 -0.0060151  0.0074186  1.5491761 -0.0060504
  0.0196529  0.0219917  1.5529185 -0.0045409  0.0082559  1.5529623 -0.0045847
  0.0191488  0.0223334  1.5492749 -0.0051014  0.0086929  1.5493235 -0.0051500
  0.0192466  0.0218952  1.5524503 -0.0039835  0.0092215  1.5525049 -0.0040381
  0.0197393  0.0224458  1.5478026 -0.0052843  0.0083095  1.5478471 -0.0053288
  0.0199933  0.0226960  1.5482379 -0.0064325  0.0084897  1.5482843 -0.0064789
  0.0199341  0.0221080  1.5493148 -0.0038289  0.0092163  1.5493695 -0.0038836
  0.0202960  0.0223291  1.5494226 -0.0050506  0.0092126  1.5494772 -0.0051052
  0.0195267  0.0226016  1.5461950 -0.0039042  0.0078470  1.5462347 -0.0039440
  0.0191405  0.0226896  1.5466781 -0.0049854  0.0091027  1.5467315 -0.0050388
  0.0197038  0.0229360  1.5426571 -0.0055249  0.0088749  1.5427080 -0.0055758
  0.0192156  0.0232246  1.5438783 -0.0059473  0.0095724  1.5439374 -0.0060064
  0.0202576  0.0236062  1.5371455 -0.0056717  0.0093622  1.5372023 -0.0057285
  0.0198997  0.0232051  1.5387119 -0.0038109  0.0084167  1.5387578 -0.0038568
  0.0198148  0.0239789  1.5376016 -0.0072327  0.0092349  1.5376568 -0.0072879
  0.0193962  0.0235701  1.5390268 -0.0054131  0.0083657  1.5390721 -0.0054584
  0.0205713  0.0233109  1.5440296 -0.0067134  0.0091211  1.5440832 -0.0067671
  0.0209859  0.0228768  1.5444817 -0.0052662  0.0096560  1.5445419 -0.0053264
  0.0202163  0.0229278  1.5444343 -0.0053035  0.0085929  1.5444820 -0.0053512
  0.0205778  0.0225352  1.5449340 -0.0037067  0.0092046  1.5449887 -0.0037614
  0.0208345  0.0236240  1.5381627 -0.0052928  0.0094184  1.5382202 -0.0053503
  0.0211982  0.0240964  1.5359305 -0.0074809  0.0106435  1.5360039 -0.0075543
  0.0213206  0.0231930  1.5373217 -0.0036725  0.0094815  1.5373801 -0.0037308
  0.0218269  0.0237151  1.5355357 -0.0056542  0.0104994  1.5356072 -0.0057258
  0.0205012  0.0239124  1.5315042 -0.0043994  0.0091012  1.5315581 -0.0044533
  0.0200769  0.0242693  1.5321559 -0.0055531  0.0091211  1.5322100 -0.0056072
  0.0208090  0.0243479  1.5299265 -0.0058025  0.0099216  1.5299906 -0.0058666
  0.0203743  0.0246538  1.5304515 -0.0071439  0.0100229  1.5305168 -0.0072092
  0.0192823  0.0245992  1.5307440 -0.0074462  0.0084099  1.5307899 -0.0074921
  0.0195535  0.0242450  1.5329632 -0.0054589  0.0095517  1.5330225 -0.0055182
  0.0188812  0.0244638  1.5307084 -0.0055941  0.0088416  1.5307593 -0.0056450
  0.0191233  0.0239074  1.5324014 -0.0044600  0.0096214  1.5324617 -0.0045203
  0.0194942  0.0247769  1.5287712 -0.0058170  0.0091921  1.5288262 -0.0058720
  0.0196719  0.0251270  1.5268312 -0.0072568  0.0101366  1.5268982 -0.0073238
  0.0198070  0.0245009  1.5279599 -0.0045448  0.0091863  1.5280150 -0.0045999
  0.0200696  0.0248625  1.5263712 -0.0059670  0.0100118  1.5264366 -0.0060324
  0.0192205  0.0248801  1.5275723 -0.0049712  0.0085228  1.5276197 -0.0050186
  0.0187856  0.0248862  1.5274049 -0.0057460  0.0103220  1.5274744 -0.0058155
  0.0193227  0.0252934  1.5224139 -0.0066961  0.0092402  1.5224697 -0.0067520
  0.0187665  0.0254837  1.5235276 -0.0068917  0.0104886  1.5235995 -0.0069636
  0.0183298  0.0222806  1.5499016 -0.0050757  0.0085055  1.5499481 -0.0051222
  0.0188318  0.0223152  1.5500013 -0.0056214  0.0070516  1.5500332 -0.0056534
  0.0184408  0.0217641  1.5540638 -0.0037056  0.0090328  1.5541162 -0.0037580
  0.0189218  0.0218342  1.5544917 -0.0041600  0.0075782  1.5545286 -0.0041968
  0.0182558  0.0226794  1.5464399 -0.0038100  0.0092986  1.5464956 -0.0038658
  0.0181644  0.0232526  1.5407562 -0.0056291  0.0087084  1.5408053 -0.0056782
  0.0187999  0.0227105  1.5465333 -0.0045555  0.0071780  1.5465665 -0.0045888
  0.0188031  0.0233095  1.5410012 -0.0062115  0.0069185  1.5410321 -0.0062424
  0.0178540  0.0226356  1.5478519 -0.0047573  0.0073303  1.5478865 -0.0047919
  0.0173006  0.0225469  1.5474389 -0.0037985  0.0089452  1.5474905 -0.0038501
  0.0177216  0.0231980  1.5430448 -0.0064501  0.0065315  1.5430723 -0.0064776
  0.0171507  0.0231056  1.5426376 -0.0055234  0.0080952  1.5426799 -0.0055658
  0.0179488  0.0222355  1.5512675 -0.0060272  0.0063706  1.5512936 -0.0060533
  0.0180753  0.0217047  1.5559322 -0.0043674  0.0071728  1.5559652 -0.0044004
  0.0174097  0.0221468  1.5508885 -0.0050857  0.0078516  1.5509281 -0.0051253
  0.0175577  0.0216125  1.5554778 -0.0034119  0.0086994  1.5555263 -0.0034605
  0.0179219  0.0242911  1.5322219 -0.0061995  0.0089904  1.5322745 -0.0062520
  0.0185167  0.0243812  1.5327466 -0.0069555  0.0071373  1.5327797 -0.0069886
  0.0180749  0.0236844  1.5376245 -0.0043534  0.0098045  1.5376868 -0.0044157
  0.0187272  0.0237572  1.5379101 -0.0051198  0.0080626  1.5379523 -0.0051619
  0.0178101  0.0247400  1.5278182 -0.0046531  0.0100285  1.5278839 -0.0047187
  0.0176576  0.0253600  1.5225428 -0.0065708  0.0090597  1.5225965 -0.0066245
  0.0184077  0.0248486  1.5283286 -0.0059217  0.0082424  1.5283728 -0.0059660
  0.0183204  0.0255015  1.5231503 -0.0076558  0.0074832  1.5231869 -0.0076924
  0.0173675  0.0246566  1.5306028 -0.0057584  0.0077924  1.5306424 -0.0057979
  0.0167560  0.0245371  1.5300832 -0.0046152  0.0093934  1.5301407 -0.0046727
  0.0171914  0.0252618  1.5257442 -0.0075848  0.0068223  1.5257746 -0.0076152
  0.0165804  0.0251352  1.5251697 -0.0064657  0.0084080  1.5252159 -0.0065118
  0.0174830  0.0242171  1.5343978 -0.0070403  0.0065793  1.5344259 -0.0070684
  0.0176222  0.0236217  1.5394507 -0.0052465  0.0074427  1.5394866 -0.0052823
  0.0168785  0.0241052  1.5338745 -0.0060161  0.0082206  1.5339184 -0.0060600
  0.0170376  0.0235232  1.5389901 -0.0041535  0.0091612  1.5390445 -0.0042079
  0.0164773  0.0219538  1.5527939 -0.0049859  0.0073130  1.5528282 -0.0050202
  0.0170154  0.0220714  1.5533149 -0.0060412  0.0059405  1.5533375 -0.0060639
  0.0166504  0.0214207  1.5571890 -0.0032693  0.0082691  1.5572328 -0.0033132
  0.0171759  0.0215364  1.5577293 -0.0043464  0.0068662  1.5577595 -0.0043766
  0.0163495  0.0223513  1.5491145 -0.0036379  0.0084491  1.5491605 -0.0036838
  0.0161732  0.0229041  1.5445511 -0.0054110  0.0074672  1.5445870 -0.0054470
  0.0168975  0.0224707  1.5496720 -0.0047606  0.0069795  1.5497033 -0.0047920
  0.0167358  0.0230269  1.5450953 -0.0065041  0.0060361  1.5451188 -0.0065276
  0.0159499  0.0222562  1.5518452 -0.0046917  0.0066130  1.5518733 -0.0047198
  0.0154064  0.0221159  1.5512146 -0.0034810  0.0079550  1.5512553 -0.0035217
  0.0157641  0.0228060  1.5475161 -0.0064571  0.0055880  1.5475362 -0.0064772
  0.0152090  0.0226610  1.5468871 -0.0052777  0.0068979  1.5469177 -0.0053084
  0.0160844  0.0218604  1.5556154 -0.0060360  0.0055057  1.5556348 -0.0060554
  0.0162659  0.0213291  1.5598317 -0.0043094  0.0065115  1.5598588 -0.0043365
  0.0155489  0.0217229  1.5550246 -0.0048777  0.0067791  1.5550541 -0.0049072
  0.0157410  0.0211945  1.5592305 -0.0031268  0.0078113  1.5592696 -0.0031659
  0.0158584  0.0238817  1.5361267 -0.0058406  0.0076007  1.5361641 -0.0058781
  0.0164433  0.0240153  1.5367249 -0.0069778  0.0061352  1.5367493 -0.0070022
  0.0160417  0.0233141  1.5407867 -0.0040174  0.0086181  1.5408348 -0.0040654
  0.0166141  0.0234407  1.5413665 -0.0051942  0.0071108  1.5413992 -0.0052269
  0.0157208  0.0243050  1.5322041 -0.0044298  0.0087717  1.5322542 -0.0044798
  0.0155282  0.0248938  1.5274697 -0.0062974  0.0077206  1.5275085 -0.0063362
  0.0163148  0.0244429  1.5328358 -0.0056460  0.0072470  1.5328700 -0.0056801
  0.0161347  0.0250365  1.5281018 -0.0074818  0.0062319  1.5281271 -0.0075071
  0.0152898  0.0241959  1.5352624 -0.0055545  0.0068046  1.5352925 -0.0055845
  0.0147061  0.0240358  1.5345563 -0.0042323  0.0081892  1.5345999 -0.0042758
  0.0150881  0.0247802  1.5307973 -0.0074088  0.0057120  1.5308185 -0.0074300
  0.0144920  0.0246127  1.5300800 -0.0061284  0.0070581  1.5301124 -0.0061608
  0.0154339  0.0237760  1.5392687 -0.0069130  0.0056667  1.5392895 -0.0069338
  0.0156259  0.0232133  1.5436395 -0.0051170  0.0067161  1.5436686 -0.0051461
  0.0148589  0.0236209  1.5385980 -0.0056863  0.0069992  1.5386297 -0.0057180
  0.0150624  0.0230643  1.5429764 -0.0038538  0.0080835  1.5430186 -0.0038961
  0.0146278  0.0214468  1.5576305 -0.0047526  0.0062448  1.5576555 -0.0047776
  0.0151586  0.0216121  1.5583262 -0.0059502  0.0051103  1.5583429 -0.0059669
  0.0148374  0.0209269  1.5615546 -0.0030064  0.0073148  1.5615888 -0.0030406
  0.0153583  0.0210868  1.5622485 -0.0042359  0.0061525  1.5622727 -0.0042600
  0.0144724  0.0218338  1.5536224 -0.0033767  0.0074302  1.5536579 -0.0034121
  0.0142574  0.0223712  1.5496042 -0.0051573  0.0063411  1.5496301 -0.0051832
  0.0150104  0.0220027  1.5543637 -0.0046182  0.0062426  1.5543887 -0.0046432
  0.0148053  0.0225445  1.5503403 -0.0063717  0.0051782  1.5503575 -0.0063889
  0.0140804  0.0217030  1.5572332 -0.0045306  0.0058525  1.5572551 -0.0045525
  0.0135477  0.0215145  1.5564640 -0.0032021  0.0069100  1.5564947 -0.0032327
  0.0138580  0.0222372  1.5534593 -0.0063004  0.0047441  1.5534738 -0.0063149
  0.0133149  0.0220445  1.5527018 -0.0049995  0.0057799  1.5527233 -0.0050210
  0.0142413  0.0213185  1.5613291 -0.0058888  0.0047118  1.5613433 -0.0059030
  0.0144582  0.0208021  1.5649903 -0.0041713  0.0057870  1.5650117 -0.0041926
  0.0137161  0.0211331  1.5605965 -0.0046371  0.0057200  1.5606174 -0.0046580
  0.0139431  0.0206211  1.5642475 -0.0028921  0.0068169  1.5642771 -0.0029217
  0.0138773  0.0233153  1.5414377 -0.0055549  0.0064187  1.5414644 -0.0055815
  0.0144418  0.0234974  1.5422070 -0.0068152  0.0052357  1.5422247 -0.0068329
  0.0140979  0.0227681  1.5455058 -0.0037389  0.0075332  1.5455425 -0.0037755
  0.0146529  0.0229450  1.5462750 -0.0050289  0.0063244  1.5463008 -0.0050547
  0.0137124  0.0237219  1.5372182 -0.0041269  0.0076163  1.5372558 -0.0041645
  0.0134826  0.0242857  1.5330489 -0.0060034  0.0064604  1.5330761 -0.0060305
  0.0142835  0.0239088  1.5380267 -0.0054543  0.0063954  1.5380532 -0.0054808
  0.0140618  0.0244802  1.5338756 -0.0072939  0.0052692  1.5338937 -0.0073119
  0.0132978  0.0235788  1.5411274 -0.0053707  0.0059709  1.5411505 -0.0053938
  0.0127364  0.0233745  1.5402908 -0.0040106  0.0070616  1.5403231 -0.0040429
  0.0130632  0.0241373  1.5372417 -0.0071967  0.0048270  1.5372567 -0.0072118
  0.0124967  0.0239264  1.5363863 -0.0058666  0.0058961  1.5364088 -0.0058891
  0.0134668  0.0231754  1.5454275 -0.0067396  0.0047948  1.5454423 -0.0067545
  0.0136936  0.0226317  1.5492600 -0.0049497  0.0059138  1.5492825 -0.0049722
  0.0129098  0.0229752  1.5446216 -0.0054278  0.0058635  1.5446437 -0.0054499
  0.0131440  0.0224359  1.5484532 -0.0036137  0.0070012  1.5484847 -0.0036453
  0.0128059  0.0207595  1.5642000 -0.0044074  0.0050852  1.5642165 -0.0044239
  0.0133314  0.0209834  1.5649164 -0.0057427  0.0043306  1.5649283 -0.0057547
  0.0130619  0.0202598  1.5672979 -0.0026952  0.0061821  1.5673222 -0.0027196
  0.0135689  0.0204758  1.5680407 -0.0040792  0.0054000  1.5680593 -0.0040978
  0.0126235  0.0211366  1.5596501 -0.0030900  0.0064062  1.5596763 -0.0031163
  0.0123813  0.0216671  1.5560973 -0.0048668  0.0052770  1.5561151 -0.0048846
  0.0131574  0.0213628  1.5605574 -0.0044017  0.0054834  1.5605766 -0.0044209
  0.0129193  0.0218918  1.5569816 -0.0061807  0.0043532  1.5569937 -0.0061929
  0.0122430  0.0209683  1.5640378 -0.0042211  0.0049601  1.5640535 -0.0042368
  0.0117374  0.0207346  1.5631582 -0.0027284  0.0057524  1.5631793 -0.0027496
  0.0119748  0.0214893  1.5608711 -0.0060001  0.0038194  1.5608804 -0.0060094
  0.0114022  0.0212280  1.5601067 -0.0046699  0.0045263  1.5601198 -0.0046830
  0.0124319  0.0205914  1.5688949 -0.0057095  0.0039948  1.5689050 -0.0057196
  0.0126797  0.0200827  1.5719594 -0.0039941  0.0051010  1.5719759 -0.0040106
  0.0119358  0.0203559  1.5680685 -0.0042509  0.0047076  1.5680826 -0.0042650
  0.0121426  0.0198149  1.5711453 -0.0026892  0.0057337  1.5711661 -0.0027101
  0.0119447  0.0225893  1.5483065 -0.0052439  0.0052186  1.5483240 -0.0052615
  0.0125020  0.0228181  1.5491099 -0.0066028  0.0043370  1.5491220 -0.0066149
  0.0121994  0.0220564  1.5517123 -0.0034765  0.0063473  1.5517382 -0.0035024
  0.0127437  0.0222817  1.5525442 -0.0048609  0.0054490  1.5525633 -0.0048800
  0.0117647  0.0229863  1.5437005 -0.0039371  0.0065320  1.5437281 -0.0039647
  0.0115278  0.0235381  1.5399214 -0.0057514  0.0053882  1.5399402 -0.0057702
  0.0123256  0.0232158  1.5446425 -0.0052563  0.0055268  1.5446622 -0.0052760
  0.0120852  0.0237659  1.5408671 -0.0070800  0.0043759  1.5408795 -0.0070924
  0.0113643  0.0228188  1.5481132 -0.0050314  0.0048999  1.5481286 -0.0050468
  0.0108313  0.0225906  1.5471740 -0.0035536  0.0058524  1.5471961 -0.0035757
  0.0111046  0.0233628  1.5445971 -0.0068581  0.0037330  1.5446061 -0.0068670
  0.0105059  0.0231117  1.5437817 -0.0055241  0.0045928  1.5437953 -0.0055377
  0.0115476  0.0224211  1.5530441 -0.0065290  0.0039195  1.5530539 -0.0065389
  0.0117885  0.0218786  1.5565362 -0.0047529  0.0050559  1.5565526 -0.0047693
  0.0110199  0.0221904  1.5521111 -0.0050713  0.0048330  1.5521261 -0.0050863
  0.0112099  0.0216181  1.5556519 -0.0034472  0.0058739  1.5556740 -0.0034693
  0.0111101  0.0244792  1.5319393 -0.0062060  0.0053323  1.5319578 -0.0062245
  0.0116663  0.0247083  1.5328188 -0.0075218  0.0043927  1.5328313 -0.0075343
  0.0113524  0.0239381  1.5354846 -0.0044523  0.0064451  1.5355116 -0.0044793
  0.0119086  0.0241658  1.5363568 -0.0057733  0.0055020  1.5363765 -0.0057930
  0.0109466  0.0248673  1.5275238 -0.0050056  0.0065340  1.5275517 -0.0050335
  0.0107420  0.0253865  1.5238616 -0.0067104  0.0054648  1.5238811 -0.0067299
  0.0114884  0.0250954  1.5284330 -0.0062046  0.0056131  1.5284535 -0.0062251
  0.0112447  0.0256104  1.5249107 -0.0079539  0.0045045  1.5249239 -0.0079672
  0.0105512  0.0247136  1.5318768 -0.0058271  0.0047732  1.5318916 -0.0058419
  0.0100128  0.0245218  1.5308768 -0.0047873  0.0060063  1.5309003 -0.0048108
  0.0103407  0.0252409  1.5278011 -0.0075658  0.0037303  1.5278102 -0.0075749
  0.0097469  0.0250670  1.5270935 -0.0065022  0.0049358  1.5271093 -0.0065181
  0.0107088  0.0243180  1.5365781 -0.0073977  0.0038469  1.5365877 -0.0074073
  0.0109289  0.0237645  1.5403803 -0.0056186  0.0049643  1.5403962 -0.0056346
  0.0101686  0.0241068  1.5356390 -0.0059574  0.0049364  1.5356548 -0.0059732
  0.0103283  0.0235179  1.5394783 -0.0043580  0.0059215  1.5395010 -0.0043807
  0.0102992  0.0219586  1.5537582 -0.0057870  0.0049610  1.5537740 -0.0058028
  0.0106854  0.0220665  1.5550552 -0.0055808  0.0032800  1.5550621 -0.0055877
  0.0102905  0.0215700  1.5590533 -0.0042030  0.0049962  1.5590693 -0.0042189
  0.0108085  0.0215354  1.5587456 -0.0044416  0.0036319  1.5587540 -0.0044500
  0.0101879  0.0221876  1.5512476 -0.0033403  0.0044574  1.5512604 -0.0033530
  0.0098752  0.0224247  1.5509166 -0.0052250  0.0040559  1.5509272 -0.0052356
  0.0105160  0.0224215  1.5504373 -0.0053247  0.0050508  1.5504537 -0.0053411
  0.0101765  0.0228603  1.5503561 -0.0063198  0.0046330  1.5503699 -0.0063336
  0.0100380  0.0219736  1.5538575 -0.0051015  0.0041244  1.5538684 -0.0051125
  0.0099564  0.0216228  1.5572658 -0.0038137  0.0034151  1.5572733 -0.0038211
  0.0097104  0.0221225  1.5548980 -0.0058382  0.0050087  1.5549141 -0.0058543
  0.0095617  0.0217325  1.5577251 -0.0046347  0.0042885  1.5577368 -0.0046465
  0.0091341  0.0227329  1.5490978 -0.0047539  0.0042848  1.5491096 -0.0047657
  0.0093065  0.0232016  1.5448903 -0.0064977  0.0053096  1.5449085 -0.0065158
  0.0095928  0.0225708  1.5480914 -0.0037373  0.0030369  1.5480974 -0.0037432
  0.0098524  0.0230693  1.5443831 -0.0054413  0.0041141  1.5443940 -0.0054522
  0.0088006  0.0228433  1.5463323 -0.0041679  0.0027572  1.5463373 -0.0041728
  0.0083483  0.0229828  1.5471110 -0.0049241  0.0038932  1.5471207 -0.0049338
  0.0089466  0.0232989  1.5425008 -0.0056470  0.0035705  1.5425090 -0.0056553
  0.0085092  0.0234324  1.5432954 -0.0064342  0.0047489  1.5433099 -0.0064488
  0.0086855  0.0225092  1.5496324 -0.0053410  0.0034561  1.5496401 -0.0053487
  0.0085168  0.0220520  1.5534114 -0.0038063  0.0025671  1.5534157 -0.0038105
  0.0082296  0.0226482  1.5503640 -0.0061764  0.0045709  1.5503774 -0.0061898
  0.0080661  0.0221836  1.5541108 -0.0046726  0.0037098  1.5541196 -0.0046815
  0.0090083  0.0223988  1.5530498 -0.0061090  0.0048255  1.5530648 -0.0061239
  0.0094345  0.0222364  1.5524267 -0.0050586  0.0040600  1.5524373 -0.0050692
  0.0088372  0.0219550  1.5559403 -0.0047600  0.0039763  1.5559505 -0.0047702
  0.0092618  0.0218216  1.5554749 -0.0035979  0.0031374  1.5554812 -0.0036042
  0.0091558  0.0239558  1.5367408 -0.0058876  0.0041913  1.5367522 -0.0058990
  0.0090418  0.0235970  1.5398766 -0.0045077  0.0033269  1.5398837 -0.0045148
  0.0088247  0.0241394  1.5378232 -0.0068070  0.0048679  1.5378385 -0.0068223
  0.0086368  0.0237423  1.5403943 -0.0055114  0.0040445  1.5404048 -0.0055220
  0.0094236  0.0239184  1.5370685 -0.0066780  0.0050074  1.5370848 -0.0066942
  0.0098242  0.0239997  1.5381267 -0.0062782  0.0032229  1.5381334 -0.0062849
  0.0093841  0.0235192  1.5424242 -0.0050627  0.0047885  1.5424391 -0.0050776
  0.0099144  0.0234522  1.5419496 -0.0051416  0.0034196  1.5419572 -0.0051491
  0.0093282  0.0241642  1.5342786 -0.0041631  0.0045580  1.5342921 -0.0041766
  0.0090278  0.0244367  1.5333288 -0.0060909  0.0038272  1.5333383 -0.0061005
  0.0096851  0.0243746  1.5339594 -0.0061559  0.0048064  1.5339744 -0.0061709
  0.0093951  0.0248516  1.5333066 -0.0071887  0.0041967  1.5333180 -0.0072002
  0.0082690  0.0248481  1.5310141 -0.0057325  0.0040969  1.5310251 -0.0057435
  0.0085077  0.0253429  1.5275631 -0.0075804  0.0052822  1.5275812 -0.0075986
  0.0087440  0.0246199  1.5299934 -0.0042728  0.0032551  1.5300003 -0.0042797
  0.0090796  0.0251110  1.5268771 -0.0062145  0.0044878  1.5268903 -0.0062277
  0.0079160  0.0250021  1.5274311 -0.0049520  0.0027133  1.5274360 -0.0049568
  0.0074266  0.0251946  1.5283502 -0.0059679  0.0037145  1.5283592 -0.0059769
  0.0081177  0.0254941  1.5238971 -0.0065330  0.0036844  1.5239059 -0.0065419
  0.0076242  0.0256752  1.5247350 -0.0075867  0.0047092  1.5247494 -0.0076012
  0.0077654  0.0246478  1.5312749 -0.0062217  0.0035288  1.5312830 -0.0062298
  0.0075557  0.0241717  1.5347323 -0.0045985  0.0025139  1.5347364 -0.0046026
  0.0072813  0.0248400  1.5321106 -0.0072676  0.0044443  1.5321234 -0.0072805
  0.0070820  0.0243517  1.5355409 -0.0056975  0.0034699  1.5355487 -0.0057053
  0.0081034  0.0244991  1.5354474 -0.0070366  0.0046520  1.5354615 -0.0070507
  0.0085427  0.0242850  1.5347682 -0.0058829  0.0040970  1.5347791 -0.0058938
  0.0078896  0.0240402  1.5379999 -0.0056306  0.0037416  1.5380089 -0.0056397
  0.0083281  0.0238610  1.5374694 -0.0043417  0.0031058  1.5374757 -0.0043479
  0.0075666  0.0232350  1.5450009 -0.0051304  0.0036305  1.5450094 -0.0051389
  0.0077458  0.0237015  1.5414931 -0.0066682  0.0045668  1.5415066 -0.0066817
  0.0080176  0.0230878  1.5443306 -0.0040779  0.0026261  1.5443351 -0.0040823
  0.0081874  0.0235403  1.5406984 -0.0056593  0.0035860  1.5407067 -0.0056676
  0.0072313  0.0233457  1.5421732 -0.0042532  0.0023087  1.5421766 -0.0042566
  0.0067661  0.0235009  1.5428875 -0.0053203  0.0033369  1.5428947 -0.0053275
  0.0074126  0.0238228  1.5384843 -0.0058632  0.0032868  1.5384913 -0.0058702
  0.0069439  0.0239929  1.5392773 -0.0068731  0.0042739  1.5392891 -0.0068849
  0.0071035  0.0229940  1.5456408 -0.0055291  0.0029208  1.5456463 -0.0055346
  0.0069356  0.0225101  1.5496054 -0.0039072  0.0019772  1.5496079 -0.0039098
  0.0066397  0.0231410  1.5463937 -0.0064756  0.0040356  1.5464042 -0.0064861
  0.0064723  0.0226498  1.5503095 -0.0048809  0.0031111  1.5503158 -0.0048871
  0.0074401  0.0228892  1.5483266 -0.0063234  0.0043084  1.5483386 -0.0063354
  0.0078959  0.0227501  1.5476083 -0.0053856  0.0031846  1.5476149 -0.0053922
  0.0072734  0.0224110  1.5521656 -0.0047582  0.0034003  1.5521731 -0.0047656
  0.0077330  0.0222798  1.5515160 -0.0037948  0.0022628  1.5515193 -0.0037981
  0.0058264  0.0233882  1.5443226 -0.0065177  0.0037130  1.5443315 -0.0065266
  0.0062975  0.0232467  1.5435842 -0.0056805  0.0025689  1.5435885 -0.0056848
  0.0056713  0.0228889  1.5483423 -0.0049570  0.0028494  1.5483476 -0.0049623
  0.0061335  0.0227513  1.5475986 -0.0040995  0.0016804  1.5476004 -0.0041013
  0.0059428  0.0237588  1.5407992 -0.0053981  0.0030534  1.5408052 -0.0054042
  0.0061056  0.0242720  1.5367688 -0.0069864  0.0039468  1.5367789 -0.0069965
  0.0064208  0.0236116  1.5400144 -0.0044736  0.0018644  1.5400167 -0.0044758
  0.0065937  0.0241132  1.5359451 -0.0061092  0.0028018  1.5359501 -0.0061143
  0.0055893  0.0238602  1.5380802 -0.0046293  0.0014567  1.5380816 -0.0046307
  0.0051015  0.0239900  1.5388528 -0.0053827  0.0027991  1.5388579 -0.0053878
  0.0057422  0.0243813  1.5336925 -0.0062463  0.0022913  1.5336959 -0.0062497
  0.0052375  0.0245215  1.5344804 -0.0069565  0.0035769  1.5344887 -0.0069648
  0.0054798  0.0234858  1.5415775 -0.0057897  0.0021227  1.5415804 -0.0057926
  0.0053338  0.0229841  1.5457935 -0.0042331  0.0013173  1.5457947 -0.0042342
  0.0050041  0.0236108  1.5422693 -0.0065043  0.0033557  1.5422766 -0.0065115
  0.0048739  0.0231064  1.5465201 -0.0049675  0.0025898  1.5465245 -0.0049718
  0.0042482  0.0241758  1.5372276 -0.0053874  0.0025663  1.5372318 -0.0053916
  0.0043482  0.0247182  1.5324730 -0.0069687  0.0031932  1.5324796 -0.0069753
  0.0047422  0.0240746  1.5365738 -0.0047823  0.0010614  1.5365745 -0.0047830
  0.0048640  0.0246117  1.5318407 -0.0063916  0.0017534  1.5318427 -0.0063936
  0.0038865  0.0242375  1.5355529 -0.0049861  0.0006939  1.5355532 -0.0049865
  0.0033920  0.0243048  1.5360140 -0.0053666  0.0022907  1.5360174 -0.0053700
  0.0039699  0.0247823  1.5306583 -0.0065378  0.0011639  1.5306592 -0.0065387
  0.0034520  0.0248509  1.5310824 -0.0069063  0.0026907  1.5310871 -0.0069110
  0.0038253  0.0238512  1.5387206 -0.0060694  0.0011188  1.5387214 -0.0060702
  0.0037416  0.0233407  1.5433441 -0.0045926  0.0006447  1.5433444 -0.0045929
  0.0033463  0.0239174  1.5391311 -0.0064401  0.0025441  1.5391353 -0.0064443
  0.0032814  0.0234050  1.5437782 -0.0049763  0.0021273  1.5437811 -0.0049792
  0.0041759  0.0237910  1.5404951 -0.0064813  0.0029633  1.5405008 -0.0064870
  0.0046547  0.0236926  1.5399211 -0.0059220  0.0016322  1.5399228 -0.0059237
  0.0040781  0.0232820  1.5449536 -0.0049878  0.0023545  1.5449571 -0.0049914
  0.0045374  0.0231862  1.5443426 -0.0044095  0.0009697  1.5443432 -0.0044101
  0.0050701  0.0221411  1.5530034 -0.0038214  0.0012130  1.5530043 -0.0038223
  0.0046454  0.0222748  1.5537825 -0.0045837  0.0023240  1.5537860 -0.0045872
  0.0052240  0.0226238  1.5491613 -0.0053107  0.0020356  1.5491640 -0.0053134
  0.0047778  0.0227484  1.5497962 -0.0060870  0.0031270  1.5498025 -0.0060933
  0.0049500  0.0218117  1.5563016 -0.0048997  0.0020947  1.5563044 -0.0049025
  0.0047758  0.0213944  1.5592483 -0.0035979  0.0012993  1.5592494 -0.0035990
  0.0045490  0.0219479  1.5568587 -0.0056250  0.0028548  1.5568639 -0.0056302
  0.0044182  0.0215286  1.5599563 -0.0043635  0.0021190  1.5599592 -0.0043664
  0.0052561  0.0216946  1.5595657 -0.0058604  0.0031737  1.5595722 -0.0058669
  0.0056915  0.0215109  1.5588772 -0.0046982  0.0024504  1.5588810 -0.0047021
  0.0050540  0.0212430  1.5631210 -0.0040438  0.0020109  1.5631236 -0.0040464
  0.0054568  0.0209636  1.5618510 -0.0032030  0.0014930  1.5618524 -0.0032044
  0.0053902  0.0220387  1.5559958 -0.0045182  0.0025846  1.5560000 -0.0045224
  0.0055544  0.0225273  1.5518657 -0.0061417  0.0034956  1.5518736 -0.0061495
  0.0058400  0.0218927  1.5551537 -0.0037265  0.0014363  1.5551550 -0.0037278
  0.0060109  0.0223885  1.5511004 -0.0053293  0.0023416  1.5511039 -0.0053328
  0.0039120  0.0224480  1.5521332 -0.0046571  0.0021858  1.5521363 -0.0046602
  0.0040074  0.0229222  1.5480148 -0.0060489  0.0027709  1.5480197 -0.0060538
  0.0043351  0.0223570  1.5515558 -0.0041058  0.0009174  1.5515563 -0.0041064
  0.0044518  0.0228283  1.5474780 -0.0055189  0.0015602  1.5474796 -0.0055205
  0.0035997  0.0225022  1.5506810 -0.0042539  0.0006154  1.5506813 -0.0042542
  0.0031694  0.0225595  1.5510517 -0.0046448  0.0020008  1.5510542 -0.0046474
  0.0036811  0.0229792  1.5463318 -0.0056505  0.0010805  1.5463326 -0.0056513
  0.0032340  0.0230411  1.5467093 -0.0060196  0.0024103  1.5467131 -0.0060233
  0.0035436  0.0221640  1.5534873 -0.0052709  0.0009927  1.5534879 -0.0052715
  0.0034720  0.0217169  1.5576724 -0.0039346  0.0005655  1.5576726 -0.0039348
  0.0031245  0.0222161  1.5537997 -0.0056259  0.0022664  1.5538030 -0.0056292
  0.0030664  0.0217599  1.5579262 -0.0043246  0.0018918  1.5579285 -0.0043269
  0.0038461  0.0221138  1.5549588 -0.0056147  0.0025754  1.5549630 -0.0056190
  0.0042532  0.0220289  1.5544636 -0.0051850  0.0014711  1.5544650 -0.0051864
  0.0037613  0.0216751  1.5586885 -0.0043706  0.0020767  1.5586913 -0.0043733
  0.0041464  0.0216038  1.5582422 -0.0038868  0.0008914  1.5582427 -0.0038873
  0.0046801  0.0207293  1.5661180 -0.0045641  0.0020610  1.5661207 -0.0045668
  0.0048997  0.0209844  1.5667193 -0.0052582  0.0021835  1.5667223 -0.0052612
  0.0048115  0.0204449  1.5672994 -0.0036790  0.0026656  1.5673039 -0.0036835
  0.0052210  0.0206780  1.5674332 -0.0044313  0.0025961  1.5674375 -0.0044356
  0.0045287  0.0208497  1.5649182 -0.0037145  0.0010784  1.5649190 -0.0037152
  0.0042466  0.0208942  1.5651897 -0.0042013  0.0020633  1.5651924 -0.0042040
  0.0046629  0.0211366  1.5620029 -0.0048472  0.0017539  1.5620049 -0.0048492
  0.0043371  0.0212462  1.5626130 -0.0051015  0.0024818  1.5626169 -0.0051054
  0.0044952  0.0206362  1.5675231 -0.0045067  0.0011845  1.5675240 -0.0045076
  0.0045378  0.0203398  1.5708498 -0.0035462  0.0012519  1.5708508 -0.0035472
  0.0042097  0.0206367  1.5674448 -0.0047874  0.0023354  1.5674483 -0.0047909
  0.0041997  0.0202856  1.5703427 -0.0039116  0.0022193  1.5703458 -0.0039148
  0.0036463  0.0209569  1.5648731 -0.0040687  0.0019791  1.5648756 -0.0040712
  0.0037078  0.0213651  1.5612470 -0.0052346  0.0023684  1.5612506 -0.0052382
  0.0040101  0.0209229  1.5647114 -0.0036106  0.0007666  1.5647118 -0.0036110
  0.0040812  0.0213075  1.5608884 -0.0048584  0.0012219  1.5608894 -0.0048594
  0.0033706  0.0209777  1.5644024 -0.0036549  0.0005008  1.5644026 -0.0036550
  0.0029811  0.0210006  1.5644920 -0.0040255  0.0018074  1.5644940 -0.0040276
  0.0034256  0.0213990  1.5603057 -0.0049402  0.0008530  1.5603062 -0.0049406
  0.0030280  0.0214342  1.5605014 -0.0052681  0.0021195  1.5605043 -0.0052710
  0.0033375  0.0206727  1.5669005 -0.0046556  0.0007345  1.5669008 -0.0046559
  0.0033020  0.0202609  1.5709510 -0.0034117  0.0004845  1.5709511 -0.0034119
  0.0029516  0.0206869  1.5669358 -0.0049465  0.0020107  1.5669384 -0.0049490
  0.0029179  0.0202638  1.5708781 -0.0037380  0.0017764  1.5708801 -0.0037400
  0.0036111  0.0206611  1.5671987 -0.0049072  0.0022317  1.5672019 -0.0049103
  0.0039728  0.0206434  1.5671256 -0.0046334  0.0010138  1.5671263 -0.0046340
  0.0035764  0.0202611  1.5708468 -0.0037861  0.0020027  1.5708494 -0.0037886
  0.0039421  0.0202645  1.5709767 -0.0034517  0.0007796  1.5709771 -0.0034521
  0.0049125  0.0197286  1.5745922 -0.0033084  0.0027722  1.5745971 -0.0033133
  0.0048737  0.0201768  1.5696296 -0.0048324  0.0024656  1.5696334 -0.0048362
  0.0053647  0.0198091  1.5752458 -0.0034687  0.0012797  1.5752468 -0.0034697
  0.0053455  0.0203630  1.5711181 -0.0047187  0.0010994  1.5711189 -0.0047194
  0.0046018  0.0196769  1.5765139 -0.0033777  0.0011650  1.5765148 -0.0033786
  0.0042052  0.0196160  1.5760121 -0.0034940  0.0023331  1.5760156 -0.0034975
  0.0045664  0.0200827  1.5729640 -0.0044459  0.0010426  1.5729647 -0.0044465
  0.0041985  0.0200121  1.5722869 -0.0046122  0.0022963  1.5722902 -0.0046156
  0.0046101  0.0193656  1.5788186 -0.0042114  0.0009666  1.5788192 -0.0042120
  0.0045974  0.0189211  1.5829484 -0.0029689  0.0008775  1.5829489 -0.0029694
  0.0042031  0.0193148  1.5782877 -0.0044891  0.0023510  1.5782912 -0.0044926
  0.0041907  0.0188879  1.5825890 -0.0031950  0.0022574  1.5825922 -0.0031982
  0.0049203  0.0193978  1.5774715 -0.0046433  0.0028268  1.5774765 -0.0046483
  0.0053607  0.0194348  1.5779499 -0.0041179  0.0013458  1.5779510 -0.0041191
  0.0049029  0.0189421  1.5820587 -0.0032512  0.0026050  1.5820629 -0.0032555
  0.0053306  0.0189662  1.5824310 -0.0027475  0.0010888  1.5824318 -0.0027482
  0.0035379  0.0195631  1.5768213 -0.0034861  0.0020285  1.5768239 -0.0034887
  0.0035568  0.0199669  1.5730719 -0.0046221  0.0021821  1.5730749 -0.0046251
  0.0039201  0.0195855  1.5771014 -0.0031772  0.0007940  1.5771018 -0.0031776
  0.0039279  0.0199810  1.5732858 -0.0043267  0.0009143  1.5732864 -0.0043272
  0.0032569  0.0195512  1.5773231 -0.0031493  0.0004737  1.5773233 -0.0031495
  0.0028717  0.0195411  1.5771427 -0.0034578  0.0017600  1.5771447 -0.0034597
  0.0032804  0.0199604  1.5733502 -0.0043570  0.0006590  1.5733505 -0.0043572
  0.0028965  0.0199567  1.5732311 -0.0046474  0.0019459  1.5732335 -0.0046498
  0.0032409  0.0192496  1.5796778 -0.0040733  0.0005867  1.5796780 -0.0040736
  0.0032206  0.0188350  1.5836722 -0.0028623  0.0004183  1.5836723 -0.0028624
  0.0028548  0.0192365  1.5794721 -0.0043767  0.0018887  1.5794743 -0.0043790
  0.0028334  0.0188202  1.5834518 -0.0031695  0.0017177  1.5834536 -0.0031714
  0.0035242  0.0192633  1.5790841 -0.0043948  0.0021235  1.5790870 -0.0043976
  0.0039121  0.0192874  1.5793894 -0.0040877  0.0007990  1.5793898 -0.0040882
  0.0035059  0.0188478  1.5831153 -0.0031753  0.0019728  1.5831178 -0.0031778
  0.0038982  0.0188683  1.5833798 -0.0028831  0.0006650  1.5833801 -0.0028834
  0.0048455  0.0181811  1.5889673 -0.0029953  0.0024023  1.5889709 -0.0029990
  0.0048828  0.0186160  1.5846788 -0.0043219  0.0027102  1.5846835 -0.0043265
  0.0052568  0.0181899  1.5891999 -0.0024832  0.0009812  1.5892005 -0.0024838
  0.0053028  0.0186326  1.5849794 -0.0037970  0.0013105  1.5849805 -0.0037980
  0.0045482  0.0181717  1.5894844 -0.0025778  0.0007623  1.5894848 -0.0025781
  0.0041473  0.0181548  1.5892125 -0.0029839  0.0021415  1.5892154 -0.0029868
  0.0045808  0.0186012  1.5853767 -0.0038358  0.0010016  1.5853773 -0.0038364
  0.0041757  0.0185771  1.5850394 -0.0042590  0.0023721  1.5850429 -0.0042625
  0.0045208  0.0178600  1.5918734 -0.0035399  0.0009759  1.5918740 -0.0035405
  0.0044783  0.0174379  1.5959486 -0.0022753  0.0006719  1.5959489 -0.0022756
  0.0041232  0.0178472  1.5916213 -0.0040088  0.0023159  1.5916247 -0.0040122
  0.0040858  0.0174291  1.5957311 -0.0027381  0.0020252  1.5957337 -0.0027407
  0.0048147  0.0178664  1.5914426 -0.0040579  0.0026104  1.5914469 -0.0040622
  0.0052203  0.0178714  1.5916481 -0.0035152  0.0012551  1.5916491 -0.0035162
  0.0047679  0.0174418  1.5956022 -0.0027533  0.0022524  1.5956054 -0.0027564
  0.0051666  0.0174439  1.5957837 -0.0022102  0.0008772  1.5957842 -0.0022107
  0.0034453  0.0178284  1.5918806 -0.0039338  0.0020306  1.5918831 -0.0039363
  0.0038350  0.0178387  1.5920831 -0.0035612  0.0007149  1.5920834 -0.0035615
  0.0034147  0.0174169  1.5959180 -0.0026976  0.0017968  1.5959200 -0.0026997
  0.0038008  0.0174234  1.5960859 -0.0023330  0.0004720  1.5960860 -0.0023331
  0.0034655  0.0181305  1.5895190 -0.0029320  0.0018876  1.5895212 -0.0029343
  0.0034902  0.0185443  1.5854581 -0.0041665  0.0020768  1.5854608 -0.0041692
  0.0038572  0.0181438  1.5897329 -0.0026121  0.0005498  1.5897331 -0.0026123
  0.0038835  0.0185619  1.5857121 -0.0038352  0.0007417  1.5857124 -0.0038356
  0.0031808  0.0181209  1.5899740 -0.0026004  0.0003369  1.5899741 -0.0026004
  0.0027947  0.0181080  1.5897659 -0.0029153  0.0016496  1.5897676 -0.0029170
  0.0032045  0.0185325  1.5860075 -0.0038057  0.0005195  1.5860077 -0.0038058
  0.0028173  0.0185178  1.5857830 -0.0041249  0.0018296  1.5857851 -0.0041270
  0.0031618  0.0178203  1.5922967 -0.0035571  0.0004743  1.5922969 -0.0035572
  0.0031336  0.0174107  1.5962662 -0.0023464  0.0002676  1.5962663 -0.0023464
  0.0027772  0.0178086  1.5920950 -0.0038875  0.0017749  1.5920970 -0.0038895
  0.0027518  0.0174005  1.5960765 -0.0026751  0.0015771  1.5960781 -0.0026767
  0.0033567  0.0167193  1.6021692 -0.0024797  0.0017102  1.6021710 -0.0024815
  0.0033909  0.0171197  1.5982497 -0.0036869  0.0019684  1.5982521 -0.0036893
  0.0037355  0.0167218  1.6023086 -0.0020883  0.0004066  1.6023087 -0.0020884
  0.0037742  0.0171242  1.5984065 -0.0032940  0.0006779  1.5984068 -0.0032943
  0.0030805  0.0167159  1.6024339 -0.0021166  0.0002131  1.6024340 -0.0021166
  0.0027047  0.0167089  1.6022691 -0.0024580  0.0015067  1.6022705 -0.0024594
  0.0031118  0.0171148  1.5985629 -0.0033018  0.0004367  1.5985630 -0.0033020
  0.0027324  0.0171058  1.5983810 -0.0036457  0.0017196  1.5983829 -0.0036476
  0.0030566  0.0164262  1.6046882 -0.0030673  0.0004031  1.6046883 -0.0030674
  0.0030226  0.0160336  1.6085112 -0.0018924  0.0001634  1.6085113 -0.0018925
  0.0026837  0.0164205  1.6045330 -0.0034187  0.0016638  1.6045347 -0.0034205
  0.0026539  0.0160295  1.6083695 -0.0022431  0.0014370  1.6083707 -0.0022444
  0.0033305  0.0164286  1.6044564 -0.0034582  0.0018989  1.6044586 -0.0034604
  0.0037061  0.0164296  1.6045861 -0.0030547  0.0006339  1.6045863 -0.0030549
  0.0032934  0.0160347  1.6083220 -0.0022618  0.0016222  1.6083237 -0.0022635
  0.0036644  0.0160337  1.6084335 -0.0018597  0.0003438  1.6084336 -0.0018598
  0.0043631  0.0164333  1.6045264 -0.0030220  0.0008706  1.6045269 -0.0030224
  0.0043128  0.0160340  1.6084174 -0.0017949  0.0005174  1.6084175 -0.0017951
  0.0039828  0.0164309  1.6043551 -0.0035212  0.0021517  1.6043580 -0.0035241
  0.0039376  0.0160335  1.6082623 -0.0022949  0.0018136  1.6082644 -0.0022969
  0.0046427  0.0164329  1.6043293 -0.0035633  0.0023977  1.6043329 -0.0035668
  0.0050262  0.0164292  1.6044655 -0.0030030  0.0011144  1.6044663 -0.0030037
  0.0045885  0.0160325  1.6082533 -0.0023115  0.0020008  1.6082558 -0.0023139
  0.0049666  0.0160276  1.6083787 -0.0017475  0.0007012  1.6083790 -0.0017478
  0.0046812  0.0167288  1.6019985 -0.0025303  0.0021219  1.6020013 -0.0025331
  0.0047321  0.0171370  1.5979952 -0.0037980  0.0025017  1.5979991 -0.0038019
  0.0050689  0.0167265  1.6021447 -0.0019734  0.0007877  1.6021451 -0.0019738
  0.0051260  0.0171372  1.5981632 -0.0032419  0.0011850  1.5981640 -0.0032428
  0.0043987  0.0167282  1.6022381 -0.0020289  0.0005931  1.6022383 -0.0020292
  0.0040147  0.0167242  1.6020553 -0.0025176  0.0019177  1.6020576 -0.0025199
  0.0044456  0.0171346  1.5982912 -0.0032650  0.0009253  1.5982918 -0.0032656
  0.0040568  0.0171282  1.5980877 -0.0037550  0.0022360  1.5980908 -0.0037581
  0.0044956  0.0153571  1.6143339 -0.0021034  0.0018966  1.6143361 -0.0021056
  0.0045491  0.0157442  1.6105314 -0.0033186  0.0022865  1.6105346 -0.0033218
  0.0048645  0.0153498  1.6144327 -0.0015556  0.0006280  1.6144330 -0.0015558
  0.0049233  0.0157384  1.6106438 -0.0027734  0.0010335  1.6106445 -0.0027740
  0.0042261  0.0153606  1.6144310 -0.0016050  0.0004548  1.6144311 -0.0016052
  0.0038588  0.0153628  1.6143038 -0.0020947  0.0017224  1.6143057 -0.0020965
  0.0042761  0.0157466  1.6106598 -0.0027969  0.0008046  1.6106602 -0.0027973
  0.0039044  0.0157473  1.6105192 -0.0032856  0.0020590  1.6105218 -0.0032882
  0.0041890  0.0150802  1.6166295 -0.0025906  0.0007457  1.6166299 -0.0025910
  0.0041377  0.0147001  1.6203559 -0.0014089  0.0003888  1.6203560 -0.0014090
  0.0038250  0.0150833  1.6165115 -0.0030743  0.0019742  1.6165140 -0.0030768
  0.0037782  0.0147041  1.6202461 -0.0018955  0.0016314  1.6202478 -0.0018971
  0.0044560  0.0150761  1.6165645 -0.0031080  0.0021858  1.6165675 -0.0031110
  0.0048214  0.0150680  1.6166550 -0.0025703  0.0009597  1.6166556 -0.0025709
  0.0044014  0.0146954  1.6203048 -0.0019086  0.0017918  1.6203067 -0.0019106
  0.0047623  0.0146866  1.6203885 -0.0013669  0.0005518  1.6203887 -0.0013671
  0.0032281  0.0153678  1.6143206 -0.0020625  0.0015447  1.6143221 -0.0020639
  0.0032660  0.0157504  1.6105677 -0.0032267  0.0018234  1.6105697 -0.0032287
  0.0035914  0.0153647  1.6144128 -0.0016631  0.0002914  1.6144128 -0.0016631
  0.0036337  0.0157483  1.6106685 -0.0028290  0.0005841  1.6106687 -0.0028292
  0.0029628  0.0153685  1.6144478 -0.0016986  0.0001212  1.6144478 -0.0016987
  0.0026013  0.0153673  1.6143326 -0.0020458  0.0013717  1.6143337 -0.0020470
  0.0029975  0.0157501  1.6107243 -0.0028452  0.0003643  1.6107244 -0.0028453
  0.0026318  0.0157473  1.6105945 -0.0031935  0.0016023  1.6105961 -0.0031950
  0.0029369  0.0150912  1.6166215 -0.0026416  0.0003286  1.6166216 -0.0026416
  0.0029009  0.0147152  1.6203002 -0.0015062  0.0000782  1.6203002 -0.0015062
  0.0025784  0.0150910  1.6165168 -0.0029862  0.0015431  1.6165183 -0.0029877
  0.0025466  0.0147164  1.6202072 -0.0018509  0.0013059  1.6202082 -0.0018520
  0.0031999  0.0150898  1.6165211 -0.0030209  0.0017514  1.6165230 -0.0030228
  0.0035600  0.0150858  1.6166060 -0.0026227  0.0005363  1.6166062 -0.0026229
  0.0031607  0.0147129  1.6202309 -0.0018668  0.0014644  1.6202322 -0.0018681
  0.0035164  0.0147075  1.6203024 -0.0014683  0.0002361  1.6203025 -0.0014684
  0.0040514  0.0140541  1.6261576 -0.0012490  0.0003351  1.6261577 -0.0012491
  0.0036990  0.0140603  1.6260749 -0.0017089  0.0015528  1.6260764 -0.0017104
  0.0041008  0.0144251  1.6225186 -0.0024008  0.0006775  1.6225189 -0.0024011
  0.0037444  0.0144300  1.6224235 -0.0028600  0.0018834  1.6224257 -0.0028622
  0.0040150  0.0137841  1.6282941 -0.0022212  0.0006209  1.6282943 -0.0022214
  0.0039650  0.0134172  1.6319059 -0.0010759  0.0002753  1.6319059 -0.0010759
  0.0036655  0.0137909  1.6282196 -0.0026707  0.0018039  1.6282216 -0.0026727
  0.0036195  0.0134247  1.6318375 -0.0015284  0.0014711  1.6318388 -0.0015297
  0.0042712  0.0137779  1.6283141 -0.0027021  0.0019893  1.6283166 -0.0027045
  0.0046218  0.0137678  1.6283750 -0.0022022  0.0008070  1.6283754 -0.0022026
  0.0042183  0.0134106  1.6319359 -0.0015420  0.0016114  1.6319375 -0.0015436
  0.0045651  0.0134001  1.6319923 -0.0010384  0.0004170  1.6319924 -0.0010385
  0.0043098  0.0140483  1.6261560 -0.0017182  0.0017042  1.6261578 -0.0017200
  0.0043622  0.0144200  1.6224985 -0.0028876  0.0020804  1.6225012 -0.0028903
  0.0046633  0.0140386  1.6262217 -0.0012066  0.0004877  1.6262219 -0.0012067
  0.0047199  0.0144108  1.6225698 -0.0023799  0.0008773  1.6225703 -0.0023803
  0.0030651  0.0138033  1.6281657 -0.0026288  0.0016075  1.6281673 -0.0026304
  0.0034110  0.0137961  1.6282149 -0.0022525  0.0004354  1.6282150 -0.0022526
  0.0030257  0.0134386  1.6317663 -0.0015069  0.0013231  1.6317674 -0.0015080
  0.0033678  0.0134304  1.6318056 -0.0011298  0.0001395  1.6318056 -0.0011298
  0.0030936  0.0140716  1.6260279 -0.0016843  0.0013956  1.6260291 -0.0016855
  0.0031323  0.0144400  1.6224023 -0.0028121  0.0016756  1.6224040 -0.0028138
  0.0034424  0.0140650  1.6260830 -0.0013014  0.0001905  1.6260830 -0.0013014
  0.0034849  0.0144340  1.6224631 -0.0024314  0.0004832  1.6224632 -0.0024316
  0.0028389  0.0140754  1.6260414 -0.0013400  0.0000408  1.6260414 -0.0013400
  0.0024915  0.0140793  1.6259766 -0.0016712  0.0012449  1.6259775 -0.0016721
  0.0028746  0.0144431  1.6224410 -0.0024517  0.0002880  1.6224411 -0.0024518
  0.0025233  0.0144453  1.6223608 -0.0027843  0.0014803  1.6223622 -0.0027856
  0.0028123  0.0138077  1.6281587 -0.0022747  0.0002522  1.6281588 -0.0022747
  0.0027756  0.0134437  1.6317346 -0.0011685 -0.0000012  1.6317346 -0.0011685
  0.0024677  0.0138124  1.6281026 -0.0026029  0.0014234  1.6281039 -0.0026041
  0.0024346  0.0134495  1.6316885 -0.0014968  0.0011813  1.6316893 -0.0014977
  0.0029589  0.0128136  1.6374449 -0.0013367  0.0012651  1.6374459 -0.0013377
  0.0029972  0.0131734  1.6338915 -0.0024418  0.0015381  1.6338930 -0.0024432
  0.0032956  0.0128048  1.6374717 -0.0009828  0.0000995  1.6374717 -0.0009828
  0.0033369  0.0131648  1.6339206 -0.0020901  0.0003825  1.6339207 -0.0020902
  0.0027127  0.0128198  1.6373650 -0.0010172 -0.0000380  1.6373650 -0.0010172
  0.0023769  0.0128277  1.6373430 -0.0013299  0.0011242  1.6373438 -0.0013306
  0.0027489  0.0131790  1.6338353 -0.0021087  0.0002105  1.6338353 -0.0021087
  0.0024103  0.0131857  1.6338000 -0.0024230  0.0013644  1.6338012 -0.0024241
  0.0026861  0.0125572  1.6394629 -0.0019542  0.0001748  1.6394629 -0.0019543
  0.0026497  0.0121991  1.6430044 -0.0008595 -0.0000731  1.6430044 -0.0008595
  0.0023520  0.0125658  1.6394499 -0.0022528  0.0013196  1.6394509 -0.0022538
  0.0023174  0.0122080  1.6429953 -0.0011585  0.0010779  1.6429960 -0.0011592
  0.0029309  0.0125508  1.6395505 -0.0022773  0.0014777  1.6395519 -0.0022786
  0.0032654  0.0125419  1.6395738 -0.0019354  0.0003354  1.6395739 -0.0019354
  0.0028927  0.0121925  1.6431009 -0.0011736  0.0012065  1.6431018 -0.0011745
  0.0032244  0.0121835  1.6431226 -0.0008293  0.0000545  1.6431226 -0.0008293
  0.0038484  0.0125266  1.6396836 -0.0019079  0.0004973  1.6396837 -0.0019081
  0.0038015  0.0121683  1.6432363 -0.0007876  0.0001749  1.6432363 -0.0007876
  0.0035113  0.0125354  1.6396415 -0.0023093  0.0016452  1.6396431 -0.0023110
  0.0034679  0.0121770  1.6431939 -0.0011931  0.0013348  1.6431950 -0.0011942
  0.0040953  0.0125193  1.6397587 -0.0023378  0.0018061  1.6397607 -0.0023398
  0.0044328  0.0125082  1.6397950 -0.0018887  0.0006607  1.6397952 -0.0018889
  0.0040459  0.0121610  1.6433078 -0.0012083  0.0014551  1.6433090 -0.0012096
  0.0043801  0.0121499  1.6433433 -0.0007550  0.0002982  1.6433433 -0.0007550
  0.0041315  0.0127827  1.6376448 -0.0013649  0.0015378  1.6376463 -0.0013663
  0.0041809  0.0131440  1.6340742 -0.0025009  0.0018902  1.6340764 -0.0025031
  0.0044716  0.0127717  1.6376843 -0.0009018  0.0003621  1.6376844 -0.0009019
  0.0045249  0.0131332  1.6341169 -0.0020418  0.0007269  1.6341172 -0.0020421
  0.0038827  0.0127899  1.6375823 -0.0009413  0.0002292  1.6375823 -0.0009414
  0.0035431  0.0127985  1.6375356 -0.0013559  0.0014052  1.6375368 -0.0013571
  0.0039295  0.0131508  1.6340210 -0.0020643  0.0005521  1.6340211 -0.0020645
  0.0035867  0.0131588  1.6339674 -0.0024774  0.0017179  1.6339692 -0.0024792
  0.0039660  0.0115445  1.6489371 -0.0010452  0.0013907  1.6489382 -0.0010464
  0.0040113  0.0118998  1.6454107 -0.0021581  0.0017133  1.6454125 -0.0021599
  0.0042939  0.0115338  1.6489629 -0.0006343  0.0002494  1.6489629 -0.0006343
  0.0043428  0.0118888  1.6454346 -0.0017523  0.0005848  1.6454348 -0.0017525
  0.0037258  0.0115516  1.6488587 -0.0006699  0.0001344  1.6488588 -0.0006699
  0.0033975  0.0115603  1.6488281 -0.0010349  0.0012785  1.6488291 -0.0010359
  0.0037687  0.0119070  1.6453256 -0.0017758  0.0004297  1.6453257 -0.0017759
  0.0034374  0.0119157  1.6452947 -0.0021378  0.0015637  1.6452962 -0.0021393
  0.0036948  0.0112922  1.6509406 -0.0016390  0.0003755  1.6509407 -0.0016391
  0.0036530  0.0109388  1.6544696 -0.0005363  0.0000867  1.6544696 -0.0005363
  0.0033688  0.0113006  1.6509116 -0.0019868  0.0014933  1.6509130 -0.0019881
  0.0033303  0.0109466  1.6544345 -0.0008895  0.0012168  1.6544354 -0.0008904
  0.0039332  0.0112852  1.6510239 -0.0020107  0.0016334  1.6510255 -0.0020123
  0.0042586  0.0112747  1.6510479 -0.0016188  0.0005215  1.6510480 -0.0016190
  0.0038889  0.0109323  1.6545370 -0.0009039  0.0013178  1.6545381 -0.0009050
  0.0042109  0.0109221  1.6545635 -0.0005072  0.0001941  1.6545636 -0.0005072
  0.0028302  0.0115743  1.6487393 -0.0010168  0.0011610  1.6487401 -0.0010177
  0.0028657  0.0119309  1.6452032 -0.0021109  0.0014122  1.6452044 -0.0021121
  0.0031575  0.0115664  1.6487615 -0.0007007  0.0000201  1.6487615 -0.0007007
  0.0031955  0.0119221  1.6452182 -0.0017993  0.0002806  1.6452183 -0.0017994
  0.0025898  0.0115802  1.6486610 -0.0007239 -0.0001021  1.6486610 -0.0007239
  0.0022604  0.0115883  1.6486499 -0.0010047  0.0010443  1.6486505 -0.0010054
  0.0026239  0.0119373  1.6451036 -0.0018196  0.0001316  1.6451036 -0.0018196
  0.0022929  0.0119461  1.6450994 -0.0020970  0.0012720  1.6451004 -0.0020980
  0.0025660  0.0113190  1.6507601 -0.0016892  0.0000836  1.6507601 -0.0016892
  0.0025350  0.0109622  1.6543393 -0.0005920 -0.0001292  1.6543393 -0.0005920
  0.0022380  0.0113260  1.6507486 -0.0019383  0.0012152  1.6507495 -0.0019392
  0.0022094  0.0109671  1.6543072 -0.0008493  0.0010126  1.6543078 -0.0008499
  0.0028051  0.0113137  1.6508246 -0.0019618  0.0013491  1.6508257 -0.0019629
  0.0031304  0.0113063  1.6508482 -0.0016642  0.0002309  1.6508482 -0.0016642
  0.0027721  0.0109581  1.6543609 -0.0008713  0.0011113  1.6543616 -0.0008720
  0.0030943  0.0109517  1.6543940 -0.0005678 -0.0000186  1.6543940 -0.0005678
  0.0035855  0.0103290  1.6600605 -0.0004271  0.0000509  1.6600605 -0.0004271
  0.0032686  0.0103361  1.6600304 -0.0007447  0.0011654  1.6600312 -0.0007455
  0.0036237  0.0106807  1.6565405 -0.0015199  0.0003147  1.6565406 -0.0015199
  0.0033034  0.0106881  1.6565130 -0.0018334  0.0014171  1.6565142 -0.0018346
  0.0035579  0.0100724  1.6621267 -0.0013975  0.0002669  1.6621267 -0.0013976
  0.0035207  0.0097229  1.6656377 -0.0003092  0.0000097  1.6656377 -0.0003092
  0.0032436  0.0100792  1.6620976 -0.0016996  0.0013520  1.6620987 -0.0017007
  0.0032100  0.0097292  1.6656046 -0.0006158  0.0011076  1.6656053 -0.0006166
  0.0037877  0.0100665  1.6621933 -0.0017225  0.0014769  1.6621946 -0.0017239
  0.0041015  0.0100574  1.6622142 -0.0013789  0.0003961  1.6622143 -0.0013789
  0.0037481  0.0097173  1.6656916 -0.0006300  0.0011925  1.6656925 -0.0006309
  0.0040586  0.0097083  1.6657143 -0.0002822  0.0001003  1.6657143 -0.0002822
  0.0038171  0.0103230  1.6601241 -0.0007579  0.0012585  1.6601250 -0.0007588
  0.0038578  0.0106744  1.6566173 -0.0018549  0.0015495  1.6566187 -0.0018564
  0.0041333  0.0103136  1.6601462 -0.0003973  0.0001500  1.6601462 -0.0003973
  0.0041774  0.0106646  1.6566357 -0.0014993  0.0004532  1.6566358 -0.0014994
  0.0027002  0.0100871  1.6620344 -0.0016756  0.0012220  1.6620353 -0.0016765
  0.0030138  0.0100832  1.6620754 -0.0014198  0.0001374  1.6620754 -0.0014198
  0.0026735  0.0097363  1.6655538 -0.0005988  0.0010224  1.6655545 -0.0005994
  0.0029830  0.0097329  1.6656001 -0.0003382 -0.0000770  1.6656001 -0.0003382
  0.0027206  0.0103449  1.6599689 -0.0007276  0.0010702  1.6599695 -0.0007283
  0.0027494  0.0106985  1.6564416 -0.0018092  0.0012812  1.6564426 -0.0018102
  0.0030369  0.0103404  1.6600089 -0.0004554 -0.0000458  1.6600089 -0.0004554
  0.0030692  0.0106929  1.6564713 -0.0015430  0.0001780  1.6564713 -0.0015430
  0.0024881  0.0103472  1.6599941 -0.0004796 -0.0001462  1.6599941 -0.0004796
  0.0021692  0.0103488  1.6599401 -0.0007099  0.0009845  1.6599407 -0.0007105
  0.0025141  0.0107018  1.6564247 -0.0015678  0.0000362  1.6564247 -0.0015678
  0.0021910  0.0107053  1.6563895 -0.0017894  0.0011506  1.6563903 -0.0017902
  0.0024700  0.0100888  1.6620685 -0.0014441  0.0000006  1.6620685 -0.0014441
  0.0024467  0.0097375  1.6656110 -0.0003676 -0.0001616  1.6656110 -0.0003676
  0.0021546  0.0100895  1.6620148 -0.0016433  0.0010916  1.6620155 -0.0016441
  0.0021364  0.0097374  1.6655486 -0.0005725  0.0009479  1.6655491 -0.0005731
  0.0026296  0.0091325  1.6711226 -0.0004746  0.0009733  1.6711232 -0.0004752
  0.0026546  0.0094805  1.6676161 -0.0015450  0.0011602  1.6676169 -0.0015458
  0.0029325  0.0091290  1.6711618 -0.0002364 -0.0001045  1.6711618 -0.0002364
  0.0029612  0.0094772  1.6676569 -0.0013090  0.0000952  1.6676569 -0.0013090
  0.0024082  0.0091340  1.6711611 -0.0002662 -0.0001833  1.6711611 -0.0002662
  0.0021063  0.0091347  1.6711100 -0.0004575  0.0008964  1.6711105 -0.0004580
  0.0024301  0.0094817  1.6676663 -0.0013271 -0.0000296  1.6676663 -0.0013271
  0.0021235  0.0094816  1.6676082 -0.0015179  0.0010337  1.6676088 -0.0015185
  0.0023917  0.0088805  1.6732010 -0.0012109 -0.0000537  1.6732010 -0.0012109
  0.0023686  0.0085355  1.6766637 -0.0001587 -0.0002119  1.6766638 -0.0001587
  0.0020929  0.0088820  1.6731591 -0.0013958  0.0009865  1.6731596 -0.0013963
  0.0020733  0.0085384  1.6766360 -0.0003413  0.0008399  1.6766364 -0.0003417
  0.0026110  0.0088786  1.6731745 -0.0014285  0.0011071  1.6731752 -0.0014293
  0.0029114  0.0088748  1.6732101 -0.0011963  0.0000612  1.6732101 -0.0011963
  0.0025854  0.0085328  1.6766679 -0.0003614  0.0009173  1.6766684 -0.0003619
  0.0028825  0.0085285  1.6766977 -0.0001285 -0.0001398  1.6766977 -0.0001285
  0.0034345  0.0088646  1.6732546 -0.0011798  0.0001729  1.6732546 -0.0011798
  0.0033999  0.0085181  1.6767491 -0.0001009 -0.0000664  1.6767491 -0.0001009
  0.0031321  0.0088711  1.6732322 -0.0014502  0.0012240  1.6732331 -0.0014511
  0.0031007  0.0085245  1.6767269 -0.0003742  0.0009960  1.6767275 -0.0003748
  0.0036561  0.0088590  1.6733220 -0.0014728  0.0013351  1.6733231 -0.0014738
  0.0039590  0.0088505  1.6733367 -0.0011647  0.0002838  1.6733367 -0.0011648
  0.0036193  0.0085125  1.6768154 -0.0003875  0.0010706  1.6768161 -0.0003882
  0.0039193  0.0085039  1.6768289 -0.0000769  0.0000094  1.6768289 -0.0000769
  0.0036831  0.0091134  1.6712608 -0.0004997  0.0011354  1.6712616 -0.0005005
  0.0037201  0.0094619  1.6677595 -0.0015876  0.0014009  1.6677606 -0.0015888
  0.0039882  0.0091048  1.6712767 -0.0001822  0.0000586  1.6712767 -0.0001822
  0.0040282  0.0094531  1.6677747 -0.0012734  0.0003349  1.6677747 -0.0012735
  0.0034599  0.0091189  1.6711993 -0.0002090 -0.0000249  1.6711993 -0.0002090
  0.0031550  0.0091254  1.6711751 -0.0004880  0.0010551  1.6711757 -0.0004887
  0.0034945  0.0094674  1.6676951 -0.0012907  0.0002146  1.6676951 -0.0012907
  0.0031863  0.0094737  1.6676689 -0.0015674  0.0012832  1.6676699 -0.0015684
  0.0033426  0.0079175  1.6823032 -0.0000109 -0.0001007  1.6823032 -0.0000109
  0.0030479  0.0079246  1.6822942 -0.0002598  0.0009456  1.6822948 -0.0002604
  0.0033753  0.0082643  1.6788020 -0.0010883  0.0001250  1.6788020 -0.0010883
  0.0030782  0.0082709  1.6787878 -0.0013368  0.0011630  1.6787886 -0.0013376
  0.0033186  0.0076640  1.6843607 -0.0009936  0.0000862  1.6843607 -0.0009936
  0.0032857  0.0073181  1.6878671  0.0000856 -0.0001406  1.6878671  0.0000856
  0.0030257  0.0076712  1.6843543 -0.0012366  0.0011123  1.6843550 -0.0012373
  0.0029951  0.0073254  1.6878613 -0.0001591  0.0008938  1.6878618 -0.0001596
  0.0035331  0.0076582  1.6844470 -0.0012556  0.0012040  1.6844478 -0.0012565
  0.0038263  0.0076499  1.6844531 -0.0009805  0.0001786  1.6844531 -0.0009805
  0.0034984  0.0073124  1.6879525 -0.0001714  0.0009564  1.6879531 -0.0001720
  0.0037892  0.0073041  1.6879585  0.0001059 -0.0000775  1.6879585  0.0001059
  0.0035584  0.0079118  1.6823839 -0.0002697  0.0010164  1.6823845 -0.0002703
  0.0035931  0.0082587  1.6788789 -0.0013540  0.0012647  1.6788798 -0.0013549
  0.0038536  0.0079034  1.6823908  0.0000142 -0.0000311  1.6823908  0.0000142
  0.0038911  0.0082501  1.6788851 -0.0010729  0.0002272  1.6788852 -0.0010730
  0.0025404  0.0079348  1.6822189 -0.0002483  0.0008700  1.6822193 -0.0002488
  0.0025665  0.0082799  1.6787222 -0.0013161  0.0010581  1.6787229 -0.0013168
  0.0028330  0.0079292  1.6822323 -0.0000315 -0.0001699  1.6822323 -0.0000315
  0.0028614  0.0082751  1.6787436 -0.0010986  0.0000260  1.6787436 -0.0010986
  0.0023269  0.0079390  1.6821542 -0.0000569 -0.0002403  1.6821542 -0.0000570
  0.0020361  0.0079447  1.6821525 -0.0002393  0.0007924  1.6821528 -0.0002397
  0.0023512  0.0082832  1.6786955 -0.0011095 -0.0000731  1.6786955 -0.0011095
  0.0020581  0.0082872  1.6786765 -0.0012958  0.0009526  1.6786771 -0.0012963
  0.0023086  0.0076867  1.6841976 -0.0010173 -0.0000918  1.6841976 -0.0010173
  0.0022827  0.0073419  1.6876823  0.0000443 -0.0002666  1.6876824  0.0000443
  0.0020190  0.0076934  1.6842050 -0.0011970  0.0009279  1.6842055 -0.0011976
  0.0019943  0.0073495  1.6876996 -0.0001331  0.0007565  1.6876999 -0.0001334
  0.0025210  0.0076821  1.6842737 -0.0012196  0.0010191  1.6842743 -0.0012202
  0.0028120  0.0076761  1.6842832 -0.0010056 -0.0000033  1.6842832 -0.0010056
  0.0024940  0.0073367  1.6877801 -0.0001479  0.0008261  1.6877805 -0.0001483
  0.0027830  0.0073304  1.6877855  0.0000662 -0.0002028  1.6877855  0.0000662
  0.0034411  0.0067123  1.6935417 -0.0000711  0.0009061  1.6935422 -0.0000716
  0.0034738  0.0070589  1.6900194 -0.0011567  0.0011398  1.6900202 -0.0011574
  0.0037278  0.0067043  1.6935443  0.0001850 -0.0001169  1.6935443  0.0001850
  0.0037628  0.0070507  1.6900202 -0.0009032  0.0001254  1.6900202 -0.0009032
  0.0032311  0.0067178  1.6934549  0.0001651 -0.0001743  1.6934549  0.0001651
  0.0029442  0.0067251  1.6934546 -0.0000612  0.0008497  1.6934550 -0.0000617
  0.0032622  0.0070646  1.6899285 -0.0009171  0.0000406  1.6899285 -0.0009171
  0.0029733  0.0070719  1.6899279 -0.0011420  0.0010577  1.6899285 -0.0011427
  0.0032086  0.0064641  1.6955233 -0.0008397 -0.0000003  1.6955233 -0.0008397
  0.0031781  0.0061178  1.6990608  0.0002449 -0.0002115  1.6990608  0.0002449
  0.0029231  0.0064712  1.6955232 -0.0010576  0.0010073  1.6955238 -0.0010582
  0.0028947  0.0061244  1.6990568  0.0000243  0.0008037  1.6990572  0.0000239
  0.0034174  0.0064587  1.6956103 -0.0010723  0.0010817  1.6956110 -0.0010730
  0.0037024  0.0064509  1.6956124 -0.0008270  0.0000773  1.6956124 -0.0008270
  0.0033854  0.0061126  1.6991374  0.0000135  0.0008528  1.6991378  0.0000130
  0.0036683  0.0061051  1.6991421  0.0002614 -0.0001594  1.6991421  0.0002614
  0.0024482  0.0067366  1.6933745 -0.0000513  0.0007900  1.6933749 -0.0000517
  0.0024745  0.0070834  1.6898452 -0.0011285  0.0009767  1.6898458 -0.0011290
  0.0027344  0.0067301  1.6933748  0.0001495 -0.0002312  1.6933748  0.0001495
  0.0027622  0.0070769  1.6898456 -0.0009286 -0.0000391  1.6898456 -0.0009286
  0.0022384  0.0067418  1.6932720  0.0001322 -0.0002919  1.6932720  0.0001321
  0.0019514  0.0067497  1.6932922 -0.0000439  0.0007291  1.6932925 -0.0000442
  0.0022639  0.0070887  1.6897425 -0.0009428 -0.0001166  1.6897425 -0.0009428
  0.0019762  0.0070966  1.6897632 -0.0011183  0.0009019  1.6897636 -0.0011188
  0.0022202  0.0064873  1.6953486 -0.0008715 -0.0001510  1.6953486 -0.0008716
  0.0021960  0.0061389  1.6989168  0.0002130 -0.0003160  1.6989169  0.0002130
  0.0019338  0.0064948  1.6953690 -0.0010318  0.0008645  1.6953695 -0.0010323
  0.0019108  0.0061451  1.6989252  0.0000484  0.0007044  1.6989255  0.0000481
  0.0024293  0.0064824  1.6954426 -0.0010476  0.0009329  1.6954431 -0.0010481
  0.0027143  0.0064761  1.6954434 -0.0008536 -0.0000748  1.6954434 -0.0008536
  0.0024041  0.0061346  1.6989849  0.0000323  0.0007517  1.6989852  0.0000320
  0.0026873  0.0061289  1.6989912  0.0002293 -0.0002629  1.6989913  0.0002293
  0.0031289  0.0055167  1.7046906  0.0003090 -0.0002405  1.7046907  0.0003090
  0.0028490  0.0055225  1.7046855  0.0001096  0.0007663  1.7046858  0.0001092
  0.0031568  0.0058639  1.7011323 -0.0007780 -0.0000469  1.7011323 -0.0007780
  0.0028748  0.0058702  1.7011318 -0.0009746  0.0009523  1.7011323 -0.0009752
  0.0031089  0.0052627  1.7067689 -0.0007153 -0.0000863  1.7067689 -0.0007153
  0.0030821  0.0049163  1.7103344  0.0003726 -0.0002735  1.7103344  0.0003725
  0.0028304  0.0052682  1.7067622 -0.0009058  0.0009051  1.7067627 -0.0009062
  0.0028055  0.0049211  1.7103220  0.0001791  0.0007251  1.7103223  0.0001788
  0.0033126  0.0052583  1.7068315 -0.0009165  0.0009649  1.7068321 -0.0009170
  0.0035904  0.0052517  1.7068347 -0.0007019 -0.0000216  1.7068347 -0.0007019
  0.0032843  0.0049123  1.7103788  0.0001696  0.0007607  1.7103791  0.0001692
  0.0035599  0.0049063  1.7103880  0.0003878 -0.0002343  1.7103881  0.0003877
  0.0033336  0.0055120  1.7047592  0.0000997  0.0008092  1.7047596  0.0000993
  0.0033630  0.0058589  1.7012120 -0.0009876  0.0010194  1.7012126 -0.0009882
  0.0036130  0.0055050  1.7047611  0.0003230 -0.0001942  1.7047611  0.0003229
  0.0036443  0.0058517  1.7012114 -0.0007667  0.0000233  1.7012114 -0.0007667
  0.0023638  0.0055311  1.7046262  0.0001179  0.0007210  1.7046265  0.0001176
  0.0023865  0.0058797  1.7010629 -0.0009650  0.0008849  1.7010634 -0.0009655
  0.0026439  0.0055264  1.7046350  0.0002948 -0.0002866  1.7046351  0.0002948
  0.0026684  0.0058744  1.7010667 -0.0007908 -0.0001161  1.7010667 -0.0007908
  0.0021581  0.0055344  1.7045800  0.0002797 -0.0003378  1.7045801  0.0002796
  0.0018765  0.0055386  1.7045720  0.0001200  0.0006771  1.7045723  0.0001198
  0.0021794  0.0058836  1.7009970 -0.0008070 -0.0001869  1.7009970 -0.0008071
  0.0018954  0.0058889  1.7009998 -0.0009621  0.0008191  1.7010002 -0.0009625
  0.0021432  0.0052789  1.7066701 -0.0007417 -0.0002182  1.7066701 -0.0007418
  0.0021237  0.0049300  1.7102632  0.0003454 -0.0003517  1.7102633  0.0003453
  0.0018632  0.0052825  1.7066638 -0.0008746  0.0007796  1.7066641 -0.0008750
  0.0018460  0.0049330  1.7102504  0.0002095  0.0006546  1.7102507  0.0002092
  0.0023477  0.0052760  1.7067040 -0.0008946  0.0008437  1.7067044 -0.0008950
  0.0026264  0.0052717  1.7067150 -0.0007262 -0.0001486  1.7067150 -0.0007262
  0.0023266  0.0049277  1.7102771  0.0001899  0.0006881  1.7102774  0.0001896
  0.0026031  0.0049242  1.7102957  0.0003619 -0.0003128  1.7102957  0.0003619
  0.0041992  0.0064316  1.6957216 -0.0008166  0.0001515  1.6957216 -0.0008166
  0.0041608  0.0060870  1.6992358  0.0002741 -0.0001110  1.6992358  0.0002741
  0.0039119  0.0064437  1.6957537 -0.0010765  0.0011575  1.6957545 -0.0010773
  0.0038761  0.0060982  1.6992616  0.0000098  0.0009049  1.6992621  0.0000093
  0.0044094  0.0064221  1.6959320 -0.0010904  0.0012316  1.6959329 -0.0010913
  0.0046964  0.0064079  1.6958882 -0.0008060  0.0002293  1.6958882 -0.0008060
  0.0043692  0.0060777  1.6994283  0.0000005  0.0009507  1.6994288 -0.0000000
  0.0046538  0.0060638  1.6993853  0.0002877 -0.0000600  1.6993853  0.0002877
  0.0044391  0.0066747  1.6938541 -0.0000814  0.0010184  1.6938547 -0.0000820
  0.0044801  0.0070206  1.6903536 -0.0011751  0.0013044  1.6903546 -0.0011761
  0.0047280  0.0066603  1.6938100  0.0002153 -0.0000043  1.6938100  0.0002153
  0.0047716  0.0070059  1.6903075 -0.0008818  0.0002911  1.6903076 -0.0008818
  0.0042276  0.0066845  1.6936468  0.0001958 -0.0000613  1.6936468  0.0001958
  0.0039385  0.0066968  1.6936802 -0.0000751  0.0009650  1.6936807 -0.0000756
  0.0042668  0.0070306  1.6901363 -0.0008951  0.0002055  1.6901363 -0.0008951
  0.0039753  0.0070431  1.6901697 -0.0011636  0.0012234  1.6901706 -0.0011645
  0.0043044  0.0054794  1.7050332  0.0000905  0.0008964  1.7050336  0.0000901
  0.0043410  0.0058252  1.7015118 -0.0010005  0.0011524  1.7015125 -0.0010013
  0.0045850  0.0054661  1.7049856  0.0003441 -0.0001050  1.7049857  0.0003441
  0.0046240  0.0058115  1.7014615 -0.0007500  0.0001594  1.7014615 -0.0007500
  0.0040989  0.0054881  1.7048470  0.0003311 -0.0001502  1.7048470  0.0003311
  0.0038181  0.0054986  1.7048751  0.0000967  0.0008550  1.7048756  0.0000963
  0.0041339  0.0058341  1.7013103 -0.0007600  0.0000891  1.7013103 -0.0007600
  0.0038509  0.0058450  1.7013408 -0.0009917  0.0010862  1.7013415 -0.0009924
  0.0040735  0.0052354  1.7069256 -0.0006950  0.0000382  1.7069256 -0.0006950
  0.0040394  0.0048913  1.7104597  0.0003942 -0.0001966  1.7104598  0.0003942
  0.0037943  0.0052456  1.7069511 -0.0009221  0.0010260  1.7069517 -0.0009228
  0.0037623  0.0049007  1.7104786  0.0001632  0.0007993  1.7104790  0.0001628
  0.0042778  0.0052270  1.7071085 -0.0009290  0.0010847  1.7071092 -0.0009297
  0.0045568  0.0052143  1.7070650 -0.0006822  0.0001030  1.7070650 -0.0006822
  0.0042420  0.0048835  1.7106152  0.0001566  0.0008332  1.7106156  0.0001562
  0.0045184  0.0048716  1.7105793  0.0004082 -0.0001583  1.7105793  0.0004081
  0.0050744  0.0054339  1.7051670  0.0003465 -0.0000621  1.7051670  0.0003465
  0.0047914  0.0054539  1.7052774  0.0000948  0.0009400  1.7052779  0.0000943
  0.0051178  0.0057783  1.7016703 -0.0007457  0.0002235  1.7016704 -0.0007458
  0.0048321  0.0057989  1.7017837 -0.0009939  0.0012160  1.7017846 -0.0009947
  0.0050430  0.0051831  1.7072618 -0.0006782  0.0001617  1.7072618 -0.0006782
  0.0050005  0.0048422  1.7107406  0.0004080 -0.0001208  1.7107406  0.0004080
  0.0047618  0.0052025  1.7073653 -0.0009255  0.0011432  1.7073660 -0.0009263
  0.0047217  0.0048605  1.7108356  0.0001555  0.0008702  1.7108361  0.0001551
  0.0052488  0.0051671  1.7076962 -0.0009254  0.0011987  1.7076970 -0.0009262
  0.0055299  0.0051428  1.7075553 -0.0006627  0.0002286  1.7075553 -0.0006627
  0.0052043  0.0048271  1.7111271  0.0001525  0.0008993  1.7111276  0.0001521
  0.0054824  0.0048042  1.7109957  0.0004217 -0.0000829  1.7109957  0.0004217
  0.0052817  0.0054174  1.7056029  0.0000919  0.0009763  1.7056034  0.0000913
  0.0053270  0.0057614  1.7021359 -0.0009973  0.0012789  1.7021368 -0.0009983
  0.0055649  0.0053925  1.7054524  0.0003574 -0.0000182  1.7054524  0.0003574
  0.0056129  0.0057359  1.7019835 -0.0007355  0.0002943  1.7019835 -0.0007355
  0.0051984  0.0063723  1.6961088 -0.0007978  0.0003012  1.6961088 -0.0007978
  0.0051510  0.0060297  1.6995767  0.0002952 -0.0000123  1.6995767  0.0002952
  0.0049078  0.0063946  1.6962250 -0.0010817  0.0013032  1.6962260 -0.0010827
  0.0048633  0.0060510  1.6996859  0.0000058  0.0010008  1.6996865  0.0000052
  0.0054111  0.0063546  1.6965835 -0.0010897  0.0013722  1.6965846 -0.0010909
  0.0057016  0.0063286  1.6964392 -0.0007869  0.0003766  1.6964393 -0.0007869
  0.0053617  0.0060125  1.7000241  0.0000018  0.0010410  1.7000248  0.0000012
  0.0056495  0.0059867  1.6998786  0.0003076  0.0000361  1.6998786  0.0003076
  0.0054474  0.0066062  1.6944744 -0.0000737  0.0011255  1.6944751 -0.0000745
  0.0054974  0.0069513  1.6910187 -0.0011709  0.0014602  1.6910199 -0.0011722
  0.0057401  0.0065798  1.6943268  0.0002403  0.0001068  1.6943268  0.0002403
  0.0057930  0.0069243  1.6908691 -0.0008612  0.0004524  1.6908692 -0.0008613
  0.0052333  0.0066241  1.6940090  0.0002185  0.0000519  1.6940090  0.0002185
  0.0049408  0.0066468  1.6941285 -0.0000765  0.0010756  1.6941292 -0.0000772
  0.0052812  0.0069695  1.6905353 -0.0008773  0.0003688  1.6905354 -0.0008774
  0.0049862  0.0069922  1.6906522 -0.0011704  0.0013841  1.6906533 -0.0011716
  0.0062113  0.0062662  1.6968670 -0.0007804  0.0004434  1.6968671 -0.0007806
  0.0061536  0.0059263  1.7002572  0.0003085  0.0000806  1.7002572  0.0003085
  0.0059161  0.0063049  1.6971244 -0.0010660  0.0014337  1.6971256 -0.0010672
  0.0058617  0.0059636  1.7005092  0.0000168  0.0010836  1.7005099  0.0000161
  0.0064274  0.0062358  1.6977723 -0.0010691  0.0014927  1.6977736 -0.0010704
  0.0067228  0.0061913  1.6974700 -0.0007685  0.0005137  1.6974701 -0.0007686
  0.0063674  0.0058965  1.7011225  0.0000164  0.0011119  1.7011232  0.0000157
  0.0066595  0.0058526  1.7008178  0.0003207  0.0001219  1.7008178  0.0003207
  0.0064715  0.0064860  1.6955890 -0.0000469  0.0012158  1.6955899 -0.0000478
  0.0065319  0.0068301  1.6921983 -0.0011443  0.0015982  1.6921998 -0.0011458
  0.0067695  0.0064410  1.6952754  0.0002604  0.0002052  1.6952755  0.0002603
  0.0068340  0.0067844  1.6918882 -0.0008414  0.0006013  1.6918884 -0.0008417
  0.0062536  0.0065167  1.6947106  0.0002392  0.0001614  1.6947107  0.0002392
  0.0059561  0.0065558  1.6949743 -0.0000590  0.0011758  1.6949751 -0.0000598
  0.0063114  0.0068611  1.6913040 -0.0008554  0.0005266  1.6913041 -0.0008555
  0.0060111  0.0069001  1.6915613 -0.0011521  0.0015321  1.6915627 -0.0011535
  0.0062693  0.0053060  1.7066571  0.0001019  0.0010463  1.7066577  0.0001012
  0.0063250  0.0056474  1.7032988 -0.0009734  0.0013965  1.7032999 -0.0009745
  0.0065560  0.0052632  1.7063506  0.0003627  0.0000747  1.7063507  0.0003627
  0.0066148  0.0056039  1.7029934 -0.0007160  0.0004355  1.7029936 -0.0007161
  0.0060596  0.0053347  1.7058176  0.0003541  0.0000252  1.7058176  0.0003541
  0.0057733  0.0053703  1.7060676  0.0001037  0.0010144  1.7060682  0.0001031
  0.0061130  0.0056766  1.7024023 -0.0007306  0.0003588  1.7024024 -0.0007306
  0.0058235  0.0057132  1.7026543 -0.0009766  0.0013363  1.7026554 -0.0009777
  0.0060207  0.0050864  1.7079529 -0.0006565  0.0002902  1.7079529 -0.0006565
  0.0059679  0.0047502  1.7113260  0.0004164 -0.0000432  1.7113260  0.0004164
  0.0057367  0.0051212  1.7081884 -0.0009086  0.0012520  1.7081893 -0.0009095
  0.0056870  0.0047836  1.7115542  0.0001581  0.0009306  1.7115547  0.0001576
  0.0062287  0.0050583  1.7087960 -0.0008987  0.0013058  1.7087970 -0.0008997
  0.0065130  0.0050161  1.7085071 -0.0006247  0.0003638  1.7085072 -0.0006247
  0.0061735  0.0047229  1.7121001  0.0001634  0.0009512  1.7121006  0.0001628
  0.0064543  0.0046817  1.7118118  0.0004423 -0.0000033  1.7118118  0.0004423
  0.0070598  0.0051731  1.7070293  0.0004080  0.0001371  1.7070293  0.0004080
  0.0067679  0.0052276  1.7074190  0.0001305  0.0010826  1.7074197  0.0001299
  0.0071167  0.0055131  1.7037330 -0.0006583  0.0005067  1.7037332 -0.0006585
  0.0068269  0.0055679  1.7041323 -0.0009356  0.0014583  1.7041336 -0.0009368
  0.0070150  0.0049252  1.7091707 -0.0006265  0.0004055  1.7091707 -0.0006266
  0.0069492  0.0045880  1.7124101  0.0004275  0.0000240  1.7124101  0.0004275
  0.0067237  0.0049804  1.7095756 -0.0008682  0.0013468  1.7095767 -0.0008693
  0.0066622  0.0046456  1.7128494  0.0001923  0.0009737  1.7128500  0.0001918
  0.0072329  0.0048886  1.7102922 -0.0009706  0.0013779  1.7102933 -0.0009718
  0.0075372  0.0048438  1.7099452 -0.0006569  0.0002481  1.7099452 -0.0006569
  0.0071748  0.0045352  1.7141585  0.0002692  0.0009697  1.7141590  0.0002687
  0.0075041  0.0044484  1.7135019  0.0004477 -0.0000285  1.7135019  0.0004477
  0.0072727  0.0051410  1.7080089  0.0001277  0.0012191  1.7080098  0.0001268
  0.0073234  0.0054772  1.7047390 -0.0008907  0.0014865  1.7047403 -0.0008920
  0.0075625  0.0051079  1.7077610  0.0002651  0.0002555  1.7077610  0.0002651
  0.0075986  0.0054338  1.7043555 -0.0007851  0.0004866  1.7043557 -0.0007852
  0.0072398  0.0060883  1.6982756 -0.0007764  0.0006181  1.6982758 -0.0007766
  0.0071649  0.0057583  1.7014609  0.0002794  0.0001979  1.7014609  0.0002794
  0.0069404  0.0061518  1.6987305 -0.0010239  0.0015460  1.6987319 -0.0010253
  0.0068731  0.0058156  1.7018855  0.0000102  0.0011586  1.7018863  0.0000094
  0.0074473  0.0060348  1.7002112 -0.0009703  0.0015610  1.7002126 -0.0009718
  0.0077149  0.0059521  1.6996929 -0.0006573  0.0008543  1.6996933 -0.0006577
  0.0073702  0.0057166  1.7026811 -0.0001028  0.0011542  1.7026819 -0.0001036
  0.0076394  0.0056600  1.7023649  0.0002901  0.0004000  1.7023650  0.0002900
  0.0075116  0.0062767  1.6974915  0.0000253  0.0012032  1.6974923  0.0000245
  0.0076103  0.0066197  1.6944043 -0.0010933  0.0017651  1.6944061 -0.0010952
  0.0078011  0.0061820  1.6967387  0.0004542  0.0002496  1.6967387  0.0004541
  0.0079612  0.0065180  1.6938608 -0.0007024  0.0009502  1.6938614 -0.0007029
  0.0072943  0.0063353  1.6959606  0.0002506  0.0002186  1.6959607  0.0002505
  0.0069900  0.0064006  1.6964620 -0.0000235  0.0012295  1.6964629 -0.0000244
  0.0073683  0.0066803  1.6926225 -0.0008516  0.0006475  1.6926228 -0.0008519
  0.0070581  0.0067443  1.6930909 -0.0011289  0.0016437  1.6930925 -0.0011305
  0.0081480  0.0059590  1.6986841  0.0003157  0.0009962  1.6986847  0.0003151
  0.0079716  0.0060969  1.6984715 -0.0005079  0.0007846  1.6984719 -0.0005082
  0.0083259  0.0060981  1.6983903 -0.0005465  0.0012462  1.6983913 -0.0005474
  0.0081530  0.0063782  1.6983063 -0.0009429  0.0010233  1.6983069 -0.0009435
  0.0080772  0.0058244  1.7001744 -0.0008179  0.0007386  1.7001747 -0.0008182
  0.0080617  0.0055959  1.7031346  0.0000995  0.0005023  1.7031348  0.0000993
  0.0078836  0.0058958  1.7009541 -0.0009411  0.0015403  1.7009555 -0.0009425
  0.0078247  0.0056277  1.7033163 -0.0001571  0.0012285  1.7033171 -0.0001579
  0.0082183  0.0058256  1.7001205 -0.0008020  0.0011729  1.7001213 -0.0008028
  0.0084103  0.0059003  1.7009224 -0.0008751  0.0004047  1.7009225 -0.0008752
  0.0082341  0.0055992  1.7029112  0.0000613  0.0013849  1.7029123  0.0000602
  0.0084680  0.0056399  1.7031742 -0.0001330  0.0006932  1.7031744 -0.0001333
  0.0082602  0.0050982  1.7076951  0.0001555  0.0014792  1.7076963  0.0001543
  0.0082453  0.0054043  1.7045816 -0.0007845  0.0013783  1.7045827 -0.0007856
  0.0085360  0.0051318  1.7079794  0.0001361  0.0005678  1.7079796  0.0001359
  0.0085017  0.0054340  1.7048711 -0.0008105  0.0003966  1.7048712 -0.0008106
  0.0080555  0.0050879  1.7081349  0.0001659  0.0002967  1.7081350  0.0001658
  0.0077722  0.0050936  1.7081574  0.0000767  0.0012364  1.7081582  0.0000758
  0.0080559  0.0053986  1.7048464 -0.0008208  0.0003432  1.7048464 -0.0008209
  0.0077948  0.0054127  1.7049701 -0.0008875  0.0013591  1.7049711 -0.0008886
  0.0080629  0.0048487  1.7103292 -0.0008892  0.0001888  1.7103292 -0.0008892
  0.0080834  0.0045059  1.7142786  0.0003060  0.0003385  1.7142786  0.0003060
  0.0077596  0.0048332  1.7102032 -0.0007756  0.0013829  1.7102043 -0.0007767
  0.0077476  0.0044406  1.7137252  0.0002762  0.0014052  1.7137263  0.0002750
  0.0082779  0.0048682  1.7095565 -0.0007283  0.0012477  1.7095574 -0.0007292
  0.0085619  0.0049056  1.7098821 -0.0007800  0.0002600  1.7098822 -0.0007800
  0.0083114  0.0045459  1.7126878  0.0002281  0.0014246  1.7126889  0.0002269
  0.0085984  0.0045900  1.7130693  0.0001954  0.0004528  1.7130695  0.0001953
  0.0090186  0.0051992  1.7072249  0.0000791  0.0006401  1.7072252  0.0000789
  0.0087392  0.0051588  1.7069386  0.0002954  0.0015574  1.7069401  0.0002940
  0.0089672  0.0055100  1.7042531 -0.0008677  0.0003405  1.7042532 -0.0008678
  0.0086951  0.0054623  1.7038787 -0.0006726  0.0012700  1.7038796 -0.0006736
  0.0090529  0.0049703  1.7091821 -0.0008049  0.0002862  1.7091822 -0.0008049
  0.0090951  0.0046556  1.7122923  0.0001624  0.0005298  1.7122924  0.0001622
  0.0087696  0.0049330  1.7088854 -0.0006606  0.0012667  1.7088863 -0.0006616
  0.0088084  0.0046194  1.7120137  0.0003096  0.0015004  1.7120150  0.0003083
  0.0092630  0.0049980  1.7082026 -0.0006409  0.0012957  1.7082036 -0.0006419
  0.0095538  0.0050363  1.7084882 -0.0008357  0.0003059  1.7084883 -0.0008358
  0.0093070  0.0046815  1.7113690  0.0003518  0.0015675  1.7113705  0.0003504
  0.0095990  0.0047161  1.7116162  0.0001456  0.0005769  1.7116164  0.0001454
  0.0092271  0.0052294  1.7061879  0.0003226  0.0016451  1.7061895  0.0003210
  0.0091730  0.0055452  1.7031260 -0.0006639  0.0013104  1.7031270 -0.0006649
  0.0095173  0.0052715  1.7064681  0.0000488  0.0007039  1.7064684  0.0000486
  0.0094630  0.0055939  1.7034662 -0.0009171  0.0003788  1.7034663 -0.0009172
  0.0090594  0.0060908  1.6979623 -0.0007662  0.0014216  1.6979635 -0.0007674
  0.0093595  0.0061494  1.6983747 -0.0010014  0.0004966  1.6983749 -0.0010016
  0.0091280  0.0057760  1.7009603  0.0002186  0.0017989  1.7009622  0.0002167
  0.0094207  0.0058291  1.7013466 -0.0000356  0.0008432  1.7013471 -0.0000360
  0.0090108  0.0063274  1.6957497  0.0001673  0.0019566  1.6957520  0.0001651
  0.0089467  0.0066590  1.6925897 -0.0008560  0.0015947  1.6925912 -0.0008575
  0.0093150  0.0063865  1.6962010 -0.0000630  0.0009542  1.6962015 -0.0000635
  0.0092545  0.0067140  1.6929932 -0.0010984  0.0005961  1.6929934 -0.0010986
  0.0087920  0.0062726  1.6973319  0.0000126  0.0009103  1.6973324  0.0000121
  0.0084985  0.0061821  1.6966142  0.0003925  0.0018773  1.6966163  0.0003904
  0.0087042  0.0066055  1.6943203 -0.0010477  0.0004083  1.6943204 -0.0010478
  0.0083493  0.0065145  1.6938380 -0.0006833  0.0012454  1.6938389 -0.0006843
  0.0088504  0.0060394  1.6999912 -0.0009238  0.0004285  1.6999913 -0.0009239
  0.0089221  0.0057351  1.7022890 -0.0001163  0.0008077  1.7022894 -0.0001167
  0.0085797  0.0059576  1.6995070 -0.0005999  0.0011134  1.6995077 -0.0006006
  0.0086524  0.0056763  1.7019698  0.0002776  0.0015385  1.7019712  0.0002762
  0.0098442  0.0064637  1.6952352 -0.0001003  0.0010080  1.6952358 -0.0001009
  0.0095383  0.0064230  1.6949676  0.0002036  0.0020273  1.6949700  0.0002012
  0.0097854  0.0067909  1.6920478 -0.0011301  0.0006514  1.6920480 -0.0011304
  0.0094792  0.0067494  1.6917727 -0.0008291  0.0016685  1.6917744 -0.0008308
  0.0098864  0.0062248  1.6973155 -0.0010567  0.0005528  1.6973157 -0.0010568
  0.0099426  0.0058993  1.7004880 -0.0000372  0.0008940  1.7004885 -0.0000377
  0.0095811  0.0061853  1.6970545 -0.0007677  0.0015685  1.6970560 -0.0007691
  0.0096390  0.0058621  1.7002454  0.0002601  0.0019184  1.7002476  0.0002579
  0.0101112  0.0062525  1.6963369 -0.0007635  0.0016517  1.6963385 -0.0007651
  0.0104201  0.0062888  1.6965666 -0.0010703  0.0006156  1.6965669 -0.0010705
  0.0101667  0.0059254  1.6995730  0.0002754  0.0019970  1.6995753  0.0002730
  0.0104752  0.0059596  1.6997830 -0.0000386  0.0009562  1.6997836 -0.0000392
  0.0100693  0.0064923  1.6942589  0.0002211  0.0021031  1.6942615  0.0002185
  0.0100104  0.0068203  1.6910467 -0.0008201  0.0017367  1.6910485 -0.0008219
  0.0103782  0.0065299  1.6944888 -0.0001146  0.0010764  1.6944895 -0.0001153
  0.0103189  0.0068592  1.6912900 -0.0011517  0.0007111  1.6912902 -0.0011520
  0.0100347  0.0053319  1.7057480  0.0000385  0.0007610  1.7057483  0.0000381
  0.0097337  0.0052990  1.7055408  0.0003267  0.0017789  1.7055426  0.0003248
  0.0099824  0.0056601  1.7025532 -0.0009801  0.0004388  1.7025533 -0.0009802
  0.0096799  0.0056246  1.7023248 -0.0007008  0.0014481  1.7023260 -0.0007020
  0.0100706  0.0050923  1.7077919 -0.0008912  0.0003399  1.7077919 -0.0008912
  0.0101162  0.0047661  1.7109958  0.0001175  0.0006265  1.7109960  0.0001172
  0.0097701  0.0050616  1.7075926 -0.0006358  0.0013642  1.7075937 -0.0006369
  0.0098158  0.0047388  1.7108300  0.0003839  0.0016555  1.7108316  0.0003823
  0.0102931  0.0051136  1.7070109 -0.0006539  0.0014539  1.7070121 -0.0006552
  0.0106006  0.0051409  1.7071799 -0.0009132  0.0003962  1.7071800 -0.0009133
  0.0103386  0.0047852  1.7103166  0.0003841  0.0017421  1.7103183  0.0003823
  0.0106459  0.0048100  1.7104617  0.0001167  0.0006803  1.7104620  0.0001164
  0.0102575  0.0053547  1.7049510  0.0003363  0.0018737  1.7049531  0.0003343
  0.0102059  0.0056849  1.7016526 -0.0007116  0.0015505  1.7016541 -0.0007130
  0.0105653  0.0053840  1.7051263  0.0000425  0.0008229  1.7051267  0.0000421
  0.0105141  0.0057172  1.7018559 -0.0009955  0.0005055  1.7018561 -0.0009957
  0.0109214  0.0065829  1.6938174 -0.0001417  0.0011457  1.6938182 -0.0001425
  0.0106065  0.0065541  1.6936821  0.0002584  0.0022061  1.6936850  0.0002555
  0.0108618  0.0069161  1.6905644 -0.0012004  0.0007657  1.6905647 -0.0012008
  0.0105470  0.0068849  1.6904053 -0.0008085  0.0018223  1.6904072 -0.0008105
  0.0109634  0.0063390  1.6958732 -0.0011131  0.0006633  1.6958735 -0.0011134
  0.0110183  0.0060060  1.6991627 -0.0000566  0.0010144  1.6991633 -0.0000572
  0.0106484  0.0063120  1.6957392 -0.0007516  0.0017370  1.6957410 -0.0007534
  0.0107034  0.0059812  1.6990505  0.0003125  0.0020918  1.6990531  0.0003099
  0.0111957  0.0063584  1.6951949 -0.0007545  0.0018199  1.6951968 -0.0007565
  0.0115155  0.0063843  1.6953150 -0.0011291  0.0007293  1.6953153 -0.0011294
  0.0112506  0.0060238  1.6985405  0.0003201  0.0021770  1.6985433  0.0003173
  0.0115703  0.0060477  1.6986411 -0.0000613  0.0010829  1.6986418 -0.0000620
  0.0111538  0.0066034  1.6931228  0.0002582  0.0023019  1.6931259  0.0002550
  0.0110941  0.0069382  1.6898080 -0.0008198  0.0019164  1.6898101 -0.0008220
  0.0114736  0.0066307  1.6932431 -0.0001515  0.0012225  1.6932440 -0.0001523
  0.0114139  0.0069674  1.6899466 -0.0012231  0.0008402  1.6899470 -0.0012235
  0.0111070  0.0054251  1.7045651  0.0000313  0.0008775  1.7045655  0.0000309
  0.0107929  0.0054029  1.7044637  0.0003674  0.0019638  1.7044660  0.0003651
  0.0110568  0.0057611  1.7012154 -0.0010318  0.0005534  1.7012156 -0.0010320
  0.0107421  0.0057376  1.7011025 -0.0007003  0.0016359  1.7011040 -0.0007019
  0.0111419  0.0051796  1.7066200 -0.0009475  0.0004423  1.7066201 -0.0009476
  0.0111868  0.0048448  1.7099692  0.0001042  0.0007334  1.7099695  0.0001039
  0.0108280  0.0051586  1.7065183 -0.0006485  0.0015330  1.7065197 -0.0006499
  0.0108731  0.0048260  1.7098894  0.0004105  0.0018276  1.7098914  0.0004086
  0.0113735  0.0051942  1.7060718 -0.0006528  0.0016106  1.7060734 -0.0006543
  0.0116927  0.0052129  1.7061511 -0.0009596  0.0004967  1.7061512 -0.0009598
  0.0114184  0.0048579  1.7094864  0.0004183  0.0019040  1.7094885  0.0004161
  0.0117373  0.0048747  1.7095472  0.0001052  0.0007871  1.7095475  0.0001048
  0.0113389  0.0054407  1.7040097  0.0003747  0.0020444  1.7040122  0.0003723
  0.0112890  0.0057779  1.7006082 -0.0007036  0.0017187  1.7006100 -0.0007054
  0.0116582  0.0054609  1.7040901  0.0000300  0.0009374  1.7040906  0.0000295
  0.0116085  0.0058003  1.7007096 -0.0010410  0.0006157  1.7007099 -0.0010412
  0.0120336  0.0066710  1.6926997 -0.0001610  0.0012994  1.6927007 -0.0001620
  0.0117094  0.0066489  1.6926321  0.0002763  0.0024061  1.6926356  0.0002729
  0.0119743  0.0070112  1.6893456 -0.0012502  0.0009135  1.6893461 -0.0012507
  0.0116498  0.0069870  1.6892587 -0.0008202  0.0020155  1.6892611 -0.0008226
  0.0120753  0.0064220  1.6947703 -0.0011576  0.0007931  1.6947707 -0.0011580
  0.0121299  0.0060819  1.6981524 -0.0000723  0.0011513  1.6981532 -0.0000731
  0.0117512  0.0064013  1.6947041 -0.0007561  0.0019081  1.6947062 -0.0007583
  0.0118059  0.0060633  1.6981061  0.0003361  0.0022697  1.6981091  0.0003331
  0.0123141  0.0064370  1.6942351 -0.0007628  0.0019965  1.6942374 -0.0007651
  0.0126427  0.0064571  1.6942956 -0.0011671  0.0008653  1.6942960 -0.0011675
  0.0123687  0.0060955  1.6976691  0.0003380  0.0023571  1.6976724  0.0003347
  0.0126969  0.0061139  1.6977130 -0.0000723  0.0012223  1.6977139 -0.0000732
  0.0122726  0.0066870  1.6921492  0.0002739  0.0025016  1.6921529  0.0002702
  0.0122135  0.0070285  1.6887384 -0.0008318  0.0021134  1.6887411 -0.0008344
  0.0126012  0.0067084  1.6922101 -0.0001644  0.0013785  1.6922112 -0.0001655
  0.0125421  0.0070518  1.6888176 -0.0012636  0.0009936  1.6888182 -0.0012642
  0.0122168  0.0054909  1.7036471  0.0000226  0.0009977  1.7036477  0.0000220
  0.0118934  0.0054744  1.7036055  0.0003869  0.0021257  1.7036082  0.0003842
  0.0121678  0.0058324  1.7002184 -0.0010628  0.0006743  1.7002187 -0.0010631
  0.0118440  0.0058149  1.7001670 -0.0007023  0.0017994  1.7001689 -0.0007042
  0.0122510  0.0052410  1.7057152 -0.0009775  0.0005498  1.7057154 -0.0009777
  0.0122953  0.0048998  1.7091526  0.0001002  0.0008432  1.7091530  0.0000998
  0.0119278  0.0052255  1.7056710 -0.0006505  0.0016823  1.7056727 -0.0006521
  0.0119723  0.0048860  1.7091252  0.0004329  0.0019785  1.7091275  0.0004306
  0.0124891  0.0052521  1.7052864 -0.0006561  0.0017580  1.7052882 -0.0006579
  0.0128164  0.0052667  1.7053222 -0.0009852  0.0006095  1.7053224 -0.0009855
  0.0125333  0.0049098  1.7087666  0.0004341  0.0020522  1.7087690  0.0004317
  0.0128606  0.0049231  1.7087889  0.0001005  0.0009017  1.7087894  0.0001000
  0.0124551  0.0055027  1.7032105  0.0003869  0.0022045  1.7032134  0.0003840
  0.0124064  0.0058451  1.6997458 -0.0007082  0.0018824  1.6997478 -0.0007103
  0.0127826  0.0055184  1.7032451  0.0000233  0.0010604  1.7032457  0.0000226
  0.0127344  0.0058624  1.6997953 -0.0010663  0.0007421  1.6997956 -0.0010666
  0.0131724  0.0067434  1.6917264 -0.0001615  0.0014583  1.6917277 -0.0001627
  0.0128423  0.0067235  1.6916792  0.0002777  0.0025930  1.6916831  0.0002737
  0.0131144  0.0070897  1.6882934 -0.0012704  0.0010772  1.6882940 -0.0012710
  0.0127835  0.0070682  1.6882304 -0.0008378  0.0022064  1.6882332 -0.0008406
  0.0132133  0.0064899  1.6938267 -0.0011780  0.0009428  1.6938272 -0.0011785
  0.0132671  0.0061437  1.6972800 -0.0000738  0.0012983  1.6972810 -0.0000748
  0.0128836  0.0064713  1.6937798 -0.0007728  0.0020812  1.6937824 -0.0007753
  0.0129377  0.0061268  1.6972500  0.0003374  0.0024401  1.6972535  0.0003339
  0.0134559  0.0065033  1.6933276 -0.0007818  0.0021709  1.6933304 -0.0007846
  0.0137891  0.0065215  1.6933725 -0.0011810  0.0010192  1.6933731 -0.0011817
  0.0135094  0.0061561  1.6968248  0.0003340  0.0025248  1.6968285  0.0003303
  0.0138421  0.0061730  1.6968573 -0.0000701  0.0013692  1.6968584 -0.0000712
  0.0134152  0.0067577  1.6912147  0.0002686  0.0026849  1.6912189  0.0002643
  0.0133577  0.0071054  1.6877311 -0.0008533  0.0023060  1.6877342 -0.0008565
  0.0137488  0.0067770  1.6912598 -0.0001621  0.0015373  1.6912612 -0.0001635
  0.0136916  0.0071265  1.6877940 -0.0012775  0.0011625  1.6877948 -0.0012783
  0.0133516  0.0055447  1.7028492  0.0000227  0.0011297  1.7028499  0.0000219
  0.0130228  0.0055297  1.7028195  0.0003816  0.0022792  1.7028225  0.0003785
  0.0133042  0.0058905  1.6993727 -0.0010731  0.0008154  1.6993731 -0.0010735
  0.0129750  0.0058745  1.6993341 -0.0007176  0.0019623  1.6993364 -0.0007198
  0.0133851  0.0052915  1.7049377 -0.0009901  0.0006753  1.7049380 -0.0009904
  0.0134292  0.0049457  1.7084257  0.0001015  0.0009670  1.7084263  0.0001010
  0.0130565  0.0052773  1.7049061 -0.0006609  0.0018283  1.7049080 -0.0006628
  0.0131006  0.0049327  1.7084069  0.0004351  0.0021218  1.7084096  0.0004324
  0.0136266  0.0053020  1.7045188 -0.0006664  0.0019038  1.7045210 -0.0006685
  0.0139576  0.0053165  1.7045536 -0.0009910  0.0007450  1.7045539 -0.0009914
  0.0136705  0.0049554  1.7080319  0.0004322  0.0021946  1.7080347  0.0004294
  0.0140013  0.0049688  1.7080570  0.0001041  0.0010337  1.7080576  0.0001035
  0.0135933  0.0055557  1.7024220  0.0003762  0.0023557  1.7024252  0.0003729
  0.0135462  0.0059022  1.6989215 -0.0007250  0.0020455  1.6989239 -0.0007274
  0.0139246  0.0055709  1.7024557  0.0000265  0.0011957  1.7024565  0.0000257
  0.0138784  0.0059183  1.6989642 -0.0010708  0.0008895  1.6989646 -0.0010713
  0.0143236  0.0068112  1.6907856 -0.0001449  0.0016174  1.6907871 -0.0001465
  0.0139922  0.0067914  1.6907261  0.0002573  0.0027639  1.6907307  0.0002528
  0.0142691  0.0071628  1.6872881 -0.0012627  0.0012588  1.6872891 -0.0012636
  0.0139358  0.0071419  1.6872200 -0.0008657  0.0023975  1.6872234 -0.0008691
  0.0143625  0.0065543  1.6929236 -0.0011742  0.0011088  1.6929243 -0.0011749
  0.0144144  0.0062041  1.6964272 -0.0000613  0.0014500  1.6964285 -0.0000625
  0.0140320  0.0065352  1.6928630 -0.0007984  0.0022506  1.6928660 -0.0008014
  0.0140846  0.0061859  1.6963751  0.0003181  0.0025953  1.6963791  0.0003141
  0.0146048  0.0065680  1.6923962 -0.0008060  0.0023382  1.6923995 -0.0008092
  0.0149364  0.0065863  1.6924538 -0.0011676  0.0011877  1.6924547 -0.0011685
  0.0146562  0.0062177  1.6959162  0.0003087  0.0026720  1.6959204  0.0003045
  0.0149870  0.0062364  1.6959787 -0.0000521  0.0015195  1.6959801 -0.0000535
  0.0145666  0.0068252  1.6902575  0.0002416  0.0028478  1.6902623  0.0002368
  0.0145134  0.0071772  1.6867285 -0.0008796  0.0025030  1.6867322 -0.0008834
  0.0148991  0.0068434  1.6903105 -0.0001358  0.0016905  1.6903122 -0.0001374
  0.0148478  0.0071958  1.6867833 -0.0012542  0.0013524  1.6867844 -0.0012553
  0.0144959  0.0055996  1.7020526  0.0000316  0.0012751  1.7020535  0.0000306
  0.0141665  0.0055826  1.7019953  0.0003556  0.0024232  1.7019987  0.0003522
  0.0144502  0.0059483  1.6985537 -0.0010653  0.0009767  1.6985543 -0.0010659
  0.0141206  0.0059306  1.6984895 -0.0007437  0.0021232  1.6984922 -0.0007463
  0.0145286  0.0053440  1.7041640 -0.0009835  0.0008269  1.7041644 -0.0009839
  0.0145722  0.0049946  1.7076716  0.0001112  0.0011104  1.7076723  0.0001105
  0.0141993  0.0053277  1.7041067 -0.0006790  0.0019761  1.7041090 -0.0006813
  0.0142429  0.0049793  1.7076250  0.0004192  0.0022610  1.7076280  0.0004162
  0.0147700  0.0053566  1.7036659 -0.0006856  0.0020534  1.7036684 -0.0006881
  0.0151003  0.0053746  1.7037417 -0.0009791  0.0009067  1.7037422 -0.0009795
  0.0148137  0.0050062  1.7071904  0.0004137  0.0023361  1.7071936  0.0004105
  0.0151441  0.0050228  1.7072519  0.0001158  0.0011883  1.7072528  0.0001150
  0.0147373  0.0056126  1.7015421  0.0003470  0.0024978  1.7015458  0.0003434
  0.0146917  0.0059617  1.6980383 -0.0007497  0.0022040  1.6980412 -0.0007525
  0.0150676  0.0056312  1.7016194  0.0000399  0.0013494  1.7016205  0.0000388
  0.0150222  0.0059805  1.6981173 -0.0010560  0.0010566  1.6981180 -0.0010567
  0.0154624  0.0068748  1.6898378 -0.0001031  0.0017624  1.6898397 -0.0001050
  0.0151391  0.0068567  1.6897663  0.0002161  0.0029049  1.6897713  0.0002112
  0.0154186  0.0072226  1.6863004 -0.0012103  0.0014668  1.6863016 -0.0012116
  0.0150903  0.0072079  1.6862660 -0.0008841  0.0025964  1.6862700 -0.0008881
  0.0154969  0.0066212  1.6920030 -0.0011399  0.0012861  1.6920040 -0.0011408
  0.0155474  0.0062762  1.6955050 -0.0000336  0.0016110  1.6955066 -0.0000351
  0.0151754  0.0066006  1.6919123 -0.0008155  0.0024046  1.6919158 -0.0008189
  0.0152258  0.0062521  1.6953797  0.0002791  0.0027240  1.6953841  0.0002747
  0.0157275  0.0066366  1.6914286 -0.0007997  0.0024613  1.6914321 -0.0008032
  0.0160361  0.0066580  1.6915248 -0.0011392  0.0013722  1.6915259 -0.0011403
  0.0157792  0.0062973  1.6947277  0.0002487  0.0027843  1.6947322  0.0002441
  0.0160909  0.0063309  1.6949397 -0.0000482  0.0017241  1.6949414 -0.0000499
  0.0156945  0.0068860  1.6893391  0.0001710  0.0029473  1.6893442  0.0001658
  0.0156558  0.0072282  1.6859597 -0.0008731  0.0027109  1.6859641 -0.0008775
  0.0160052  0.0068986  1.6893851 -0.0000741  0.0018137  1.6893871 -0.0000761
  0.0159755  0.0072288  1.6858820 -0.0011501  0.0015966  1.6858836 -0.0011516
  0.0156335  0.0056727  1.7011378  0.0000510  0.0014577  1.7011390  0.0000497
  0.0153077  0.0056473  1.7009924  0.0003192  0.0025639  1.7009963  0.0003154
  0.0155840  0.0060221  1.6976754 -0.0010355  0.0011571  1.6976762 -0.0010363
  0.0152613  0.0059967  1.6975259 -0.0007656  0.0022734  1.6975290 -0.0007686
  0.0156686  0.0054141  1.7032873 -0.0009571  0.0009929  1.7032879 -0.0009576
  0.0157149  0.0050569  1.7068001  0.0001379  0.0012738  1.7068011  0.0001370
  0.0153410  0.0053900  1.7031458 -0.0007042  0.0021236  1.7031484 -0.0007068
  0.0153856  0.0050364  1.7066955  0.0004012  0.0024030  1.7066989  0.0003978
  0.0159106  0.0054361  1.7024395 -0.0007265  0.0021768  1.7024423 -0.0007293
  0.0162442  0.0054721  1.7026953 -0.0009602  0.0010295  1.7026959 -0.0009608
  0.0159595  0.0050736  1.7061259  0.0004257  0.0024823  1.7061295  0.0004221
  0.0162985  0.0050988  1.7062688  0.0001603  0.0013388  1.7062698  0.0001593
  0.0158727  0.0056965  1.7002126  0.0003153  0.0026577  1.7002167  0.0003111
  0.0158181  0.0060454  1.6968930 -0.0007352  0.0023427  1.6968962 -0.0007384
  0.0162003  0.0057361  1.7004702  0.0000758  0.0016240  1.7004718  0.0000743
  0.0161349  0.0060839  1.6971610 -0.0009824  0.0012736  1.6971620 -0.0009833
  0.0164576  0.0068997  1.6888684 -0.0001761  0.0018141  1.6888704 -0.0001780
  0.0162097  0.0069022  1.6889615  0.0000368  0.0029010  1.6889665  0.0000318
  0.0164986  0.0071653  1.6857220 -0.0010909  0.0019125  1.6857242 -0.0010931
  0.0162013  0.0072120  1.6861707 -0.0008049  0.0028108  1.6861753 -0.0008096
  0.0164808  0.0067087  1.6913157 -0.0008719  0.0015448  1.6913171 -0.0008733
  0.0165853  0.0064527  1.6940203  0.0000507  0.0020307  1.6940227  0.0000482
  0.0162379  0.0066773  1.6910624 -0.0006775  0.0024576  1.6910659 -0.0006811
  0.0163068  0.0063725  1.6934860  0.0001051  0.0027424  1.6934905  0.0001006
  0.0166148  0.0068128  1.6901828 -0.0001892  0.0024864  1.6901865 -0.0001929
  0.0167381  0.0070657  1.6890699 -0.0009591  0.0029958  1.6890753 -0.0009644
  0.0167965  0.0065780  1.6894928  0.0002482  0.0025624  1.6894967  0.0002443
  0.0170949  0.0068401  1.6888613 -0.0004342  0.0029158  1.6888663 -0.0004392
  0.0155859  0.0078496  1.6802665 -0.0009839  0.0029465  1.6802717 -0.0009891
  0.0159308  0.0078459  1.6801278 -0.0013370  0.0017953  1.6801297 -0.0013389
  0.0156267  0.0074865  1.6839097  0.0001477  0.0032217  1.6839159  0.0001416
  0.0159556  0.0074827  1.6837623 -0.0002232  0.0020142  1.6837647 -0.0002256
  0.0155524  0.0081230  1.6781062  0.0000945  0.0034593  1.6781133  0.0000874
  0.0155018  0.0085068  1.6741454 -0.0011472  0.0031212  1.6741512 -0.0011530
  0.0159067  0.0081235  1.6779865 -0.0003172  0.0021832  1.6779893 -0.0003200
  0.0158658  0.0085187  1.6741404 -0.0015118  0.0018925  1.6741425 -0.0015140
  0.0152970  0.0081163  1.6783507 -0.0003526  0.0021664  1.6783535 -0.0003554
  0.0149534  0.0080982  1.6783204  0.0000916  0.0033544  1.6783271  0.0000849
  0.0152408  0.0084935  1.6747028 -0.0015184  0.0017928  1.6747047 -0.0015203
  0.0148917  0.0084688  1.6746125 -0.0011019  0.0029523  1.6746177 -0.0011071
  0.0153355  0.0078455  1.6805418 -0.0013666  0.0016380  1.6805434 -0.0013682
  0.0153846  0.0074827  1.6841380 -0.0002290  0.0019743  1.6841404 -0.0002313
  0.0149964  0.0078303  1.6805262 -0.0009725  0.0027814  1.6805308 -0.0009771
  0.0150521  0.0074688  1.6841318  0.0001761  0.0031418  1.6841376  0.0001702
  0.0165500  0.0080855  1.6779757 -0.0001466  0.0021281  1.6779784 -0.0001493
  0.0161740  0.0081134  1.6783289  0.0001440  0.0035126  1.6783362  0.0001366
  0.0165241  0.0085197  1.6738058 -0.0014091  0.0019660  1.6738081 -0.0014114
  0.0161397  0.0085221  1.6738888 -0.0012054  0.0033026  1.6738953 -0.0012120
  0.0165498  0.0077862  1.6801252 -0.0012181  0.0019791  1.6801275 -0.0012205
  0.0165234  0.0074029  1.6837435 -0.0001361  0.0019111  1.6837457 -0.0001383
  0.0161890  0.0078289  1.6805255 -0.0010528  0.0031230  1.6805313 -0.0010586
  0.0161958  0.0074603  1.6843877  0.0001068  0.0031684  1.6843937  0.0001008
  0.0168355  0.0077429  1.6815669 -0.0012828  0.0033734  1.6815737 -0.0012895
  0.0172554  0.0076673  1.6809338 -0.0011051  0.0019342  1.6809361 -0.0011073
  0.0167972  0.0073149  1.6867701  0.0003189  0.0030355  1.6867756  0.0003135
  0.0172179  0.0071320  1.6851409  0.0001829  0.0016895  1.6851426  0.0001812
  0.0168409  0.0080650  1.6786734  0.0002431  0.0037520  1.6786818  0.0002347
  0.0168172  0.0085167  1.6737834 -0.0012412  0.0035348  1.6737908 -0.0012487
  0.0172596  0.0080368  1.6782873 -0.0001651  0.0022388  1.6782903 -0.0001681
  0.0172336  0.0085110  1.6736279 -0.0015802  0.0020279  1.6736304 -0.0015826
  0.0167225  0.0093023  1.6663426 -0.0013276  0.0036230  1.6663505 -0.0013355
  0.0171402  0.0093269  1.6664300 -0.0017653  0.0022076  1.6664329 -0.0017683
  0.0167855  0.0088482  1.6709930  0.0001406  0.0040503  1.6710028  0.0001308
  0.0172016  0.0088567  1.6709217 -0.0003514  0.0026078  1.6709257 -0.0003554
  0.0166669  0.0096367  1.6635043  0.0000363  0.0043174  1.6635155  0.0000250
  0.0165781  0.0100965  1.6590104 -0.0014454  0.0037508  1.6590189 -0.0014538
  0.0170865  0.0096719  1.6636353 -0.0005481  0.0029324  1.6636404 -0.0005533
  0.0170015  0.0101443  1.6592530 -0.0019842  0.0023994  1.6592565 -0.0019876
  0.0163687  0.0096086  1.6644528 -0.0005467  0.0028210  1.6644576 -0.0005514
  0.0159734  0.0095669  1.6642659  0.0000386  0.0041172  1.6642761  0.0000284
  0.0162770  0.0100579  1.6603296 -0.0019247  0.0022639  1.6603327 -0.0019278
  0.0158778  0.0100004  1.6600048 -0.0013973  0.0035175  1.6600122 -0.0014047
  0.0164259  0.0092824  1.6671290 -0.0017031  0.0020996  1.6671317 -0.0017057
  0.0164908  0.0088404  1.6713240 -0.0003691  0.0025118  1.6713278 -0.0003728
  0.0160335  0.0092526  1.6669962 -0.0012760  0.0034107  1.6670031 -0.0012829
  0.0161020  0.0088274  1.6713519  0.0001168  0.0038604  1.6713608  0.0001079
  0.0178863  0.0093700  1.6658072 -0.0018223  0.0023218  1.6658104 -0.0018255
  0.0179496  0.0088791  1.6705572 -0.0003344  0.0027230  1.6705616 -0.0003389
  0.0174520  0.0093451  1.6657068 -0.0014107  0.0038107  1.6657155 -0.0014194
  0.0175136  0.0088649  1.6705637  0.0001103  0.0042195  1.6705744  0.0000996
  0.0182101  0.0093896  1.6649907 -0.0014418  0.0039791  1.6650002 -0.0014513
  0.0186603  0.0094180  1.6651251 -0.0018383  0.0024472  1.6651287 -0.0018419
  0.0182750  0.0088924  1.6699237  0.0001016  0.0043908  1.6699353  0.0000901
  0.0187278  0.0089144  1.6699942 -0.0003132  0.0028594  1.6699991 -0.0003181
  0.0181572  0.0097524  1.6619639 -0.0000163  0.0047162  1.6619773 -0.0000297
  0.0180776  0.0102466  1.6571215 -0.0015654  0.0042149  1.6571322 -0.0015761
  0.0186065  0.0097854  1.6621041 -0.0005129  0.0032149  1.6621103 -0.0005191
  0.0185269  0.0102854  1.6573176 -0.0020428  0.0027229  1.6573221 -0.0020472
  0.0178337  0.0097286  1.6628704 -0.0005256  0.0030691  1.6628761 -0.0005313
  0.0173992  0.0096965  1.6627436 -0.0000078  0.0045232  1.6627559 -0.0000201
  0.0177532  0.0102174  1.6582330 -0.0020172  0.0025693  1.6582369 -0.0020212
  0.0173163  0.0101767  1.6580268 -0.0015297  0.0040022  1.6580364 -0.0015393
  0.0183614  0.0080121  1.6781075  0.0002716  0.0041086  1.6781175  0.0002615
  0.0183155  0.0085233  1.6729818 -0.0013040  0.0037853  1.6729903 -0.0013126
  0.0188274  0.0080312  1.6781698 -0.0000873  0.0025169  1.6781736 -0.0000910
  0.0187726  0.0085428  1.6730538 -0.0016673  0.0021632  1.6730566 -0.0016701
  0.0180265  0.0080096  1.6782945 -0.0001154  0.0022783  1.6782976 -0.0001185
  0.0175773  0.0080219  1.6784707  0.0001094  0.0038069  1.6784793  0.0001008
  0.0179872  0.0085146  1.6734591 -0.0015808  0.0020736  1.6734617 -0.0015833
  0.0175471  0.0085104  1.6734746 -0.0014015  0.0036233  1.6734824 -0.0014094
  0.0180537  0.0076288  1.6815815 -0.0016536  0.0017375  1.6815833 -0.0016554
  0.0180888  0.0070934  1.6873801  0.0001058  0.0019872  1.6873825  0.0001035
  0.0175818  0.0076367  1.6817646 -0.0013160  0.0036296  1.6817725 -0.0013238
  0.0175640  0.0070727  1.6872721  0.0003271  0.0036796  1.6872801  0.0003191
  0.0183984  0.0076335  1.6811417 -0.0011953  0.0034533  1.6811488 -0.0012024
  0.0188681  0.0076541  1.6812289 -0.0015240  0.0018274  1.6812309 -0.0015260
  0.0184534  0.0071102  1.6862837  0.0003884  0.0037922  1.6862923  0.0003798
  0.0189246  0.0071353  1.6864148  0.0000746  0.0021758  1.6864176  0.0000718
  0.0196299  0.0080742  1.6774798 -0.0001033  0.0026807  1.6774840 -0.0001076
  0.0191673  0.0080478  1.6773522  0.0002547  0.0042578  1.6773630  0.0002439
  0.0195684  0.0085873  1.6724221 -0.0016734  0.0022997  1.6724253 -0.0016765
  0.0191083  0.0085600  1.6722829 -0.0013169  0.0038840  1.6722919 -0.0013260
  0.0196737  0.0076976  1.6805780 -0.0015164  0.0019696  1.6805803 -0.0015187
  0.0197318  0.0071819  1.6856953  0.0000661  0.0023324  1.6856986  0.0000629
  0.0192099  0.0076712  1.6804417 -0.0011791  0.0035676  1.6804492 -0.0011867
  0.0192671  0.0071546  1.6855499  0.0003998  0.0039266  1.6855590  0.0003907
  0.0200141  0.0077177  1.6796740 -0.0011901  0.0037091  1.6796822 -0.0011983
  0.0204803  0.0077460  1.6798308 -0.0015162  0.0021091  1.6798334 -0.0015188
  0.0200725  0.0072022  1.6847749  0.0003869  0.0040696  1.6847848  0.0003771
  0.0205386  0.0072303  1.6849287  0.0000599  0.0024692  1.6849323  0.0000563
  0.0199698  0.0080944  1.6765696  0.0002618  0.0044223  1.6765812  0.0002502
  0.0199073  0.0086083  1.6715026 -0.0013137  0.0040320  1.6715123 -0.0013234
  0.0204358  0.0081233  1.6767168 -0.0001060  0.0028344  1.6767216 -0.0001108
  0.0203728  0.0086383  1.6716610 -0.0016783  0.0024438  1.6716646 -0.0016819
  0.0197869  0.0094952  1.6633888 -0.0014407  0.0043265  1.6634000 -0.0014519
  0.0202518  0.0095285  1.6635542 -0.0018733  0.0027589  1.6635588 -0.0018779
  0.0198582  0.0089836  1.6684038  0.0001381  0.0047752  1.6684175  0.0001245
  0.0203235  0.0090148  1.6685479 -0.0003012  0.0032056  1.6685541 -0.0003074
  0.0197316  0.0098692  1.6602824 -0.0000090  0.0051080  1.6602982 -0.0000247
  0.0196521  0.0103794  1.6553226 -0.0015902  0.0046089  1.6553354 -0.0016030
  0.0201965  0.0099044  1.6604424 -0.0005038  0.0035586  1.6604501 -0.0005114
  0.0201171  0.0104175  1.6555093 -0.0020758  0.0030641  1.6555150 -0.0020814
  0.0193944  0.0098438  1.6612867 -0.0005043  0.0033829  1.6612935 -0.0005112
  0.0189380  0.0098099  1.6611366 -0.0000128  0.0049045  1.6611511 -0.0000273
  0.0193148  0.0103516  1.6564153 -0.0020583  0.0028899  1.6564204 -0.0020633
  0.0188585  0.0103136  1.6562267 -0.0015798  0.0044057  1.6562384 -0.0015916
  0.0194494  0.0094714  1.6643667 -0.0018614  0.0026001  1.6643708 -0.0018655
  0.0195200  0.0089617  1.6693319 -0.0002985  0.0030434  1.6693375 -0.0003041
  0.0189923  0.0094399  1.6642169 -0.0014278  0.0041509  1.6642272 -0.0014382
  0.0190614  0.0089330  1.6692103  0.0001427  0.0045925  1.6692229  0.0001300
  0.0210089  0.0099649  1.6595677 -0.0005057  0.0037372  1.6595762 -0.0005141
  0.0205388  0.0099301  1.6594092 -0.0000158  0.0053065  1.6594262 -0.0000328
  0.0209306  0.0104821  1.6545898 -0.0020880  0.0032490  1.6545962 -0.0020943
  0.0204597  0.0104450  1.6544112 -0.0016058  0.0048126  1.6544252 -0.0016197
  0.0210636  0.0095864  1.6626989 -0.0018798  0.0029291  1.6627041 -0.0018850
  0.0211346  0.0090695  1.6677208 -0.0003012  0.0033711  1.6677276 -0.0003080
  0.0205939  0.0095530  1.6625328 -0.0014523  0.0045079  1.6625450 -0.0014646
  0.0206655  0.0090378  1.6675710  0.0001322  0.0049541  1.6675858  0.0001175
  0.0214099  0.0096107  1.6616624 -0.0014662  0.0047031  1.6616757 -0.0014795
  0.0218864  0.0096438  1.6618281 -0.0018846  0.0031020  1.6618339 -0.0018904
  0.0214804  0.0090926  1.6667240  0.0001218  0.0051397  1.6667399  0.0001060
  0.0219560  0.0091241  1.6668757 -0.0003020  0.0035338  1.6668832 -0.0003095
  0.0213557  0.0099903  1.6585268 -0.0000279  0.0055101  1.6585451 -0.0000462
  0.0212780  0.0105090  1.6534961 -0.0016231  0.0050269  1.6535113 -0.0016384
  0.0218329  0.0100246  1.6586839 -0.0005086  0.0039158  1.6586932 -0.0005178
  0.0217561  0.0105453  1.6536713 -0.0020967  0.0034385  1.6536784 -0.0021039
  0.0212469  0.0081743  1.6759162 -0.0001100  0.0029884  1.6759215 -0.0001154
  0.0207780  0.0081447  1.6757619  0.0002543  0.0045848  1.6757744  0.0002418
  0.0211837  0.0086911  1.6708505 -0.0016849  0.0025988  1.6708546 -0.0016889
  0.0207148  0.0086605  1.6706862 -0.0013237  0.0041940  1.6706968 -0.0013342
  0.0212911  0.0077960  1.6790407 -0.0015150  0.0022517  1.6790438 -0.0015180
  0.0213487  0.0072792  1.6841432  0.0000609  0.0026059  1.6841472  0.0000568
  0.0208224  0.0077670  1.6788765 -0.0011973  0.0038576  1.6788854 -0.0012061
  0.0208806  0.0072509  1.6839852  0.0003810  0.0042145  1.6839957  0.0003704
  0.0216359  0.0078172  1.6780611 -0.0012077  0.0040157  1.6780707 -0.0012173
  0.0221095  0.0078460  1.6782272 -0.0015156  0.0023934  1.6782306 -0.0015190
  0.0216931  0.0072999  1.6831812  0.0003716  0.0043639  1.6831926  0.0003603
  0.0221659  0.0073279  1.6833405  0.0000610  0.0027383  1.6833449  0.0000565
  0.0215920  0.0081959  1.6749378  0.0002506  0.0047535  1.6749513  0.0002371
  0.0215292  0.0087135  1.6698484 -0.0013299  0.0043678  1.6698598 -0.0013413
  0.0220662  0.0082255  1.6750934 -0.0001082  0.0031368  1.6750993 -0.0001141
  0.0220042  0.0087441  1.6700134 -0.0016849  0.0027552  1.6700180 -0.0016895
  0.0226668  0.0100846  1.6577860 -0.0005054  0.0040992  1.6577962 -0.0005156
  0.0221842  0.0100499  1.6576198 -0.0000452  0.0057128  1.6576395 -0.0000649
  0.0225923  0.0106082  1.6527457 -0.0020958  0.0036379  1.6527537 -0.0021038
  0.0221083  0.0105719  1.6525662 -0.0016414  0.0052448  1.6525828 -0.0016581
  0.0227188  0.0097017  1.6609460 -0.0018808  0.0032854  1.6609525 -0.0018873
  0.0227864  0.0091791  1.6660134 -0.0002974  0.0037018  1.6660216 -0.0003056
  0.0222372  0.0096682  1.6607710 -0.0014825  0.0049013  1.6607854 -0.0014970
  0.0223060  0.0091473  1.6658533  0.0001069  0.0053240  1.6658704  0.0000899
  0.0230739  0.0097259  1.6598665 -0.0014991  0.0051095  1.6598823 -0.0015148
  0.0235624  0.0097585  1.6600392 -0.0018786  0.0034696  1.6600465 -0.0018858
  0.0231404  0.0092021  1.6649777  0.0000933  0.0055148  1.6649960  0.0000750
  0.0236273  0.0092330  1.6651356 -0.0002923  0.0038679  1.6651446 -0.0003013
  0.0230226  0.0101098  1.6567074 -0.0000611  0.0059217  1.6567285 -0.0000823
  0.0229491  0.0106347  1.6516231 -0.0016602  0.0054710  1.6516412 -0.0016783
  0.0235121  0.0101438  1.6568730 -0.0005026  0.0042845  1.6568841 -0.0005137
  0.0234399  0.0106708  1.6518076 -0.0020942  0.0038406  1.6518165 -0.0021031
  0.0228934  0.0082770  1.6742553 -0.0001049  0.0032891  1.6742618 -0.0001114
  0.0224149  0.0082472  1.6740918  0.0002362  0.0049205  1.6741062  0.0002217
  0.0228331  0.0087974  1.6691624 -0.0016817  0.0029208  1.6691675 -0.0016868
  0.0223536  0.0087666  1.6689900 -0.0013442  0.0045477  1.6690024 -0.0013566
  0.0229354  0.0078964  1.6773972 -0.0015096  0.0025403  1.6774011 -0.0015134
  0.0229901  0.0073769  1.6825218  0.0000669  0.0028715  1.6825267  0.0000620
  0.0224577  0.0078672  1.6772234 -0.0012201  0.0041760  1.6772338 -0.0012305
  0.0225134  0.0073486  1.6823553  0.0003595  0.0045117  1.6823674  0.0003474
  0.0232870  0.0079175  1.6763720 -0.0012318  0.0043416  1.6763832 -0.0012431
  0.0237698  0.0079459  1.6765444 -0.0015057  0.0026886  1.6765487 -0.0015100
  0.0233407  0.0073975  1.6815136  0.0003470  0.0046625  1.6815265  0.0003340
  0.0238221  0.0074255  1.6816826  0.0000710  0.0030040  1.6816880  0.0000657
  0.0232457  0.0082985  1.6732371  0.0002256  0.0050912  1.6732526  0.0002102
  0.0231864  0.0088196  1.6681194 -0.0013553  0.0047338  1.6681328 -0.0013687
  0.0237297  0.0083275  1.6733985 -0.0000996  0.0034375  1.6734056 -0.0001066
  0.0236722  0.0088496  1.6682883 -0.0016767  0.0030869  1.6682940 -0.0016824
  0.0243682  0.0102064  1.6559353 -0.0004884  0.0044754  1.6559474 -0.0005005
  0.0238727  0.0101697  1.6557341 -0.0000875  0.0061285  1.6557568 -0.0001102
  0.0242981  0.0107372  1.6508499 -0.0020787  0.0040529  1.6508599 -0.0020886
  0.0238014  0.0106983  1.6506298 -0.0016852  0.0056991  1.6506494 -0.0017048
  0.0244164  0.0098183  1.6591258 -0.0018651  0.0036639  1.6591338 -0.0018732
  0.0244782  0.0092885  1.6642429 -0.0002798  0.0040377  1.6642527 -0.0002896
  0.0239221  0.0097833  1.6589212 -0.0015246  0.0053191  1.6589382 -0.0015417
  0.0239858  0.0092562  1.6640618  0.0000698  0.0057022  1.6640813  0.0000502
  0.0247815  0.0098435  1.6579491 -0.0015547  0.0055371  1.6579675 -0.0015732
  0.0252847  0.0098773  1.6581530 -0.0018660  0.0038481  1.6581620 -0.0018749
  0.0248417  0.0093112  1.6631677  0.0000560  0.0058965  1.6631886  0.0000350
  0.0253423  0.0093408  1.6633334 -0.0002694  0.0041947  1.6633440 -0.0002799
  0.0247341  0.0102335  1.6547376 -0.0000992  0.0063457  1.6547619 -0.0001235
  0.0246647  0.0107667  1.6495740 -0.0017090  0.0059318  1.6495953 -0.0017303
  0.0252384  0.0102706  1.6549485 -0.0004745  0.0046668  1.6549617 -0.0004877
  0.0251693  0.0108084  1.6498276 -0.0020702  0.0042594  1.6498386 -0.0020812
  0.0245740  0.0083781  1.6725318 -0.0000892  0.0035881  1.6725395 -0.0000969
  0.0240856  0.0083489  1.6723573  0.0002015  0.0052592  1.6723739  0.0001849
  0.0245204  0.0089026  1.6674080 -0.0016637  0.0032647  1.6674144 -0.0016701
  0.0240296  0.0088718  1.6672209 -0.0013786  0.0049264  1.6672355 -0.0013932
  0.0246114  0.0079954  1.6756818 -0.0014911  0.0028467  1.6756866 -0.0014959
  0.0246600  0.0074744  1.6808269  0.0000821  0.0031368  1.6808327  0.0000763
  0.0241247  0.0079668  1.6754986 -0.0012500  0.0045115  1.6755107 -0.0012622
  0.0241756  0.0074461  1.6806444  0.0003248  0.0048095  1.6806581  0.0003110
  0.0249692  0.0080150  1.6746431 -0.0012655  0.0046892  1.6746562 -0.0012786
  0.0254599  0.0080399  1.6748004 -0.0014803  0.0030121  1.6748058 -0.0014857
  0.0250154  0.0074941  1.6797881  0.0003028  0.0049565  1.6798027  0.0002882
  0.0255019  0.0075197  1.6799556  0.0000889  0.0032656  1.6799620  0.0000826
  0.0249335  0.0083981  1.6715134  0.0001823  0.0054295  1.6715310  0.0001647
  0.0248824  0.0089239  1.6663336 -0.0014034  0.0051275  1.6663494 -0.0014192
  0.0254274  0.0084235  1.6716621 -0.0000826  0.0037266  1.6716704 -0.0000910
  0.0253805  0.0089513  1.6664982 -0.0016608  0.0034409  1.6665053 -0.0016679
  0.0261273  0.0103438  1.6538979 -0.0004467  0.0048575  1.6539122 -0.0004610
  0.0256117  0.0103001  1.6536187 -0.0001159  0.0065624  1.6536447 -0.0001419
  0.0260570  0.0108938  1.6487160 -0.0020570  0.0044588  1.6487280 -0.0020690
  0.0255424  0.0108424  1.6483628 -0.0017491  0.0061580  1.6483858 -0.0017721
  0.0261720  0.0099412  1.6571675 -0.0018626  0.0040263  1.6571772 -0.0018724
  0.0262237  0.0093913  1.6624490 -0.0002455  0.0043334  1.6624603 -0.0002568
  0.0256573  0.0099035  1.6569119 -0.0016120  0.0057552  1.6569319 -0.0016320
  0.0257126  0.0093623  1.6622735  0.0000324  0.0060822  1.6622957  0.0000102
  0.0265565  0.0099682  1.6558338 -0.0016829  0.0060011  1.6558555 -0.0017046
  0.0270921  0.0100041  1.6561014 -0.0018530  0.0041829  1.6561120 -0.0018636
  0.0266054  0.0094091  1.6614940  0.0000389  0.0062787  1.6615177  0.0000152
  0.0271370  0.0094289  1.6616070 -0.0001808  0.0044345  1.6616189 -0.0001926
  0.0265123  0.0103772  1.6524047 -0.0001046  0.0068199  1.6524329 -0.0001328
  0.0264407  0.0109358  1.6469364 -0.0018066  0.0063906  1.6469612 -0.0018314
  0.0270486  0.0104249  1.6527084 -0.0004614  0.0050568  1.6527239 -0.0004769
  0.0269743  0.0109991  1.6473901 -0.0021173  0.0046374  1.6474031 -0.0021303
  0.0262900  0.0084587  1.6708548 -0.0000649  0.0038480  1.6708637 -0.0000737
  0.0257908  0.0084397  1.6707448  0.0001447  0.0055910  1.6707635  0.0001259
  0.0262554  0.0089940  1.6656292 -0.0016489  0.0036320  1.6656371 -0.0016569
  0.0257484  0.0089701  1.6654756 -0.0014565  0.0053453  1.6654927 -0.0014736
  0.0263133  0.0080734  1.6739666 -0.0014460  0.0032060  1.6739728 -0.0014521
  0.0263420  0.0075558  1.6791199  0.0001111  0.0033828  1.6791268  0.0001042
  0.0258200  0.0080555  1.6738542 -0.0012938  0.0048849  1.6738685 -0.0013081
  0.0258574  0.0075362  1.6789848  0.0002596  0.0050901  1.6790003  0.0002441
  0.0266763  0.0080777  1.6733391 -0.0013215  0.0051100  1.6733547 -0.0013371
  0.0271749  0.0080718  1.6732612 -0.0014093  0.0034503  1.6732683 -0.0014164
  0.0266940  0.0075619  1.6784377  0.0002104  0.0051977  1.6784538  0.0001943
  0.0271708  0.0075592  1.6783872  0.0001279  0.0034627  1.6783943  0.0001208
  0.0266600  0.0084647  1.6702908  0.0001309  0.0057276  1.6703104  0.0001112
  0.0266331  0.0090063  1.6647642 -0.0015331  0.0055848  1.6647829 -0.0015518
  0.0271716  0.0084620  1.6702250 -0.0000045  0.0038917  1.6702340 -0.0000136
  0.0271583  0.0090157  1.6648187 -0.0016292  0.0038003  1.6648274 -0.0016379
  0.0280608  0.0100711  1.6550082 -0.0018469  0.0043790  1.6550198 -0.0018584
  0.0280999  0.0094597  1.6607930 -0.0000986  0.0045858  1.6608057 -0.0001113
  0.0274952  0.0100317  1.6546884 -0.0017515  0.0062993  1.6547124 -0.0017754
  0.0275374  0.0094425  1.6606861  0.0000627  0.0065297  1.6607118  0.0000370
  0.0284885  0.0101001  1.6534734 -0.0018409  0.0066214  1.6534999 -0.0018674
  0.0290915  0.0101399  1.6538089 -0.0019078  0.0045577  1.6538215 -0.0019203
  0.0285262  0.0094721  1.6598798  0.0000919  0.0068259  1.6599078  0.0000638
  0.0291285  0.0094886  1.6599873 -0.0000444  0.0047480  1.6600009 -0.0000579
  0.0284463  0.0105598  1.6495632 -0.0000795  0.0074908  1.6495972 -0.0001136
  0.0283686  0.0111880  1.6434062 -0.0019790  0.0070622  1.6434366 -0.0020093
  0.0290501  0.0106173  1.6499775 -0.0003508  0.0055005  1.6499958 -0.0003692
  0.0289742  0.0112700  1.6440438 -0.0021784  0.0051025  1.6440596 -0.0021942
  0.0280180  0.0105184  1.6514024 -0.0004466  0.0052796  1.6514193 -0.0004635
  0.0274520  0.0104627  1.6510233 -0.0001096  0.0071386  1.6510542 -0.0001404
  0.0279404  0.0111293  1.6458222 -0.0021801  0.0048524  1.6458365 -0.0021944
  0.0273761  0.0110509  1.6452307 -0.0019099  0.0066913  1.6452579 -0.0019371
  0.0301821  0.0102182  1.6525752 -0.0019279  0.0047278  1.6525888 -0.0019414
  0.0302201  0.0095344  1.6590957  0.0000350  0.0049019  1.6591102  0.0000206
  0.0295453  0.0101716  1.6521585 -0.0019354  0.0069048  1.6521873 -0.0019643
  0.0295824  0.0095053  1.6588504  0.0000791  0.0070838  1.6588807  0.0000489
  0.0306577  0.0102521  1.6507521 -0.0019609  0.0071862  1.6507834 -0.0019921
  0.0313202  0.0102984  1.6511677 -0.0019382  0.0049386  1.6511825 -0.0019530
  0.0306958  0.0095583  1.6575949  0.0000979  0.0073594  1.6576276  0.0000652
  0.0313576  0.0095948  1.6579162  0.0000919  0.0051055  1.6579319  0.0000762
  0.0306210  0.0107617  1.6465296 -0.0000759  0.0081150  1.6465696 -0.0001159
  0.0305590  0.0114600  1.6397947 -0.0021223  0.0077931  1.6398317 -0.0021593
  0.0312865  0.0108158  1.6469575 -0.0002260  0.0058866  1.6469785 -0.0002470
  0.0312319  0.0115256  1.6403189 -0.0022397  0.0055970  1.6403380 -0.0022588
  0.0301437  0.0107200  1.6484801 -0.0002625  0.0056698  1.6484996 -0.0002820
  0.0295049  0.0106602  1.6480196 -0.0000494  0.0078110  1.6480567 -0.0000864
  0.0300767  0.0114072  1.6420977 -0.0022126  0.0053125  1.6421149 -0.0022298
  0.0294319  0.0113288  1.6414742 -0.0020537  0.0074177  1.6415077 -0.0020872
  0.0277411  0.0121879  1.6369598 -0.0025472  0.0053733  1.6369774 -0.0025648
  0.0278662  0.0115766  1.6420295 -0.0008636  0.0060384  1.6420517 -0.0008857
  0.0271947  0.0120552  1.6360441 -0.0020605  0.0069834  1.6360739 -0.0020903
  0.0273072  0.0114777  1.6414286 -0.0002807  0.0076717  1.6414644 -0.0003165
  0.0281650  0.0122863  1.6330250 -0.0022076  0.0074542  1.6330590 -0.0022416
  0.0287767  0.0124222  1.6340400 -0.0025368  0.0055813  1.6340590 -0.0025558
  0.0282933  0.0116506  1.6391712 -0.0002221  0.0081550  1.6392118 -0.0002627
  0.0289009  0.0117537  1.6399155 -0.0006493  0.0062191  1.6399391 -0.0006729
  0.0280394  0.0127372  1.6285076 -0.0002732  0.0086164  1.6285532 -0.0003188
  0.0278247  0.0133333  1.6234858 -0.0024070  0.0073396  1.6235189 -0.0024401
  0.0286434  0.0129419  1.6294079 -0.0014853  0.0073755  1.6294413 -0.0015186
  0.0284036  0.0136930  1.6253059 -0.0031722  0.0063841  1.6253309 -0.0031972
  0.0276266  0.0126075  1.6329170 -0.0013310  0.0069655  1.6329467 -0.0013607
  0.0271028  0.0124578  1.6322593 -0.0006086  0.0080418  1.6322989 -0.0006482
  0.0274390  0.0131423  1.6292502 -0.0027719  0.0061554  1.6292734 -0.0027951
  0.0269642  0.0129801  1.6283457 -0.0020599  0.0072849  1.6283782 -0.0020925
  0.0299127  0.0126369  1.6317380 -0.0025981  0.0058478  1.6317589 -0.0026190
  0.0300148  0.0119209  1.6378242 -0.0006661  0.0064360  1.6378495 -0.0006914
  0.0292450  0.0125162  1.6309432 -0.0021395  0.0077825  1.6309803 -0.0021765
  0.0293622  0.0118261  1.6372105 -0.0001292  0.0084471  1.6372541 -0.0001728
  0.0304141  0.0127083  1.6284633 -0.0024362  0.0085198  1.6285078 -0.0024808
  0.0311162  0.0127826  1.6290338 -0.0025989  0.0062831  1.6290580 -0.0026230
  0.0305035  0.0119816  1.6353350 -0.0003310  0.0089520  1.6353840 -0.0003800
  0.0311863  0.0120526  1.6359100 -0.0005019  0.0066506  1.6359371 -0.0005289
  0.0303541  0.0132497  1.6239878 -0.0006155  0.0097104  1.6240459 -0.0006736
  0.0302795  0.0140019  1.6169354 -0.0027665  0.0093292  1.6169891 -0.0028202
  0.0310661  0.0133228  1.6245727 -0.0007832  0.0073458  1.6246058 -0.0008164
  0.0309991  0.0140685  1.6174466 -0.0029532  0.0069839  1.6174767 -0.0029833
  0.0298338  0.0131793  1.6265237 -0.0006648  0.0070353  1.6265541 -0.0006952
  0.0291242  0.0130604  1.6255714 -0.0001900  0.0094972  1.6256269 -0.0002454
  0.0297201  0.0139452  1.6192204 -0.0029700  0.0063617  1.6192453 -0.0029950
  0.0289114  0.0138569  1.6187421 -0.0024302  0.0085888  1.6187877 -0.0024758
  0.0322901  0.0134436  1.6227406 -0.0007558  0.0076875  1.6227770 -0.0007922
  0.0315848  0.0133748  1.6221611 -0.0007046  0.0100230  1.6222230 -0.0007665
  0.0322332  0.0141883  1.6157209 -0.0028797  0.0074091  1.6157548 -0.0029136
  0.0315226  0.0141184  1.6151410 -0.0028303  0.0097269  1.6151995 -0.0028888
  0.0323300  0.0129014  1.6271868 -0.0025447  0.0066823  1.6272142 -0.0025721
  0.0323819  0.0121646  1.6341764 -0.0004333  0.0069342  1.6342058 -0.0004627
  0.0316296  0.0128344  1.6266207 -0.0025194  0.0089818  1.6266702 -0.0025689
  0.0316896  0.0121016  1.6336345 -0.0003983  0.0092624  1.6336870 -0.0004508
  0.0328449  0.0129477  1.6248826 -0.0025726  0.0093891  1.6249368 -0.0026267
  0.0335514  0.0130074  1.6254142 -0.0025195  0.0070445  1.6254446 -0.0025500
  0.0328920  0.0122073  1.6320275 -0.0004219  0.0095915  1.6320839 -0.0004783
  0.0335931  0.0122609  1.6325093 -0.0003848  0.0072262  1.6325413 -0.0004168
  0.0328080  0.0134921  1.6204113 -0.0007311  0.0103973  1.6204780 -0.0007978
  0.0327543  0.0142389  1.6133106 -0.0028736  0.0101527  1.6133744 -0.0029374
  0.0335178  0.0135557  1.6209622 -0.0007283  0.0080442  1.6210021 -0.0007682
  0.0334674  0.0143074  1.6139006 -0.0028581  0.0078132  1.6139384 -0.0028959
  0.0326529  0.0155395  1.6017479 -0.0032161  0.0109013  1.6018219 -0.0032901
  0.0333672  0.0156158  1.6023874 -0.0032422  0.0085803  1.6024332 -0.0032880
  0.0327127  0.0147875  1.6088070 -0.0010800  0.0111863  1.6088848 -0.0011578
  0.0334270  0.0148594  1.6094053 -0.0011187  0.0088627  1.6094541 -0.0011675
  0.0326071  0.0160880  1.5972265 -0.0014703  0.0119555  1.5973159 -0.0015597
  0.0325415  0.0168345  1.5902891 -0.0035766  0.0116322  1.5903740 -0.0036615
  0.0333203  0.0161679  1.5978715 -0.0015475  0.0096753  1.5979300 -0.0016061
  0.0332518  0.0169199  1.5909892 -0.0036380  0.0093471  1.5910440 -0.0036928
  0.0320866  0.0160330  1.5997688 -0.0015411  0.0092010  1.5998217 -0.0015940
  0.0313780  0.0159629  1.5991999 -0.0014714  0.0114840  1.5992823 -0.0015538
  0.0320241  0.0167763  1.5928777 -0.0036296  0.0089011  1.5929274 -0.0036793
  0.0313209  0.0167029  1.5922689 -0.0035702  0.0111994  1.5923475 -0.0036488
  0.0321312  0.0154862  1.6042198 -0.0032505  0.0081496  1.6042611 -0.0032918
  0.0321906  0.0147356  1.6112535 -0.0011211  0.0084385  1.6112977 -0.0011652
  0.0314202  0.0154170  1.6036482 -0.0031893  0.0104724  1.6037165 -0.0032575
  0.0314785  0.0146656  1.6106767 -0.0010618  0.0107574  1.6107484 -0.0011336
  0.0296444  0.0152961  1.6069398 -0.0034983  0.0073374  1.6069732 -0.0035318
  0.0296693  0.0145124  1.6150621 -0.0010601  0.0074469  1.6150964 -0.0010945
  0.0289134  0.0152875  1.6068619 -0.0034733  0.0101223  1.6069255 -0.0035370
  0.0288549  0.0144537  1.6145605 -0.0011671  0.0099513  1.6146218 -0.0012284
  0.0301757  0.0153188  1.6053743 -0.0031759  0.0100799  1.6054375 -0.0032391
  0.0308962  0.0153722  1.6057990 -0.0032857  0.0077107  1.6058360 -0.0033226
  0.0302317  0.0145563  1.6124717 -0.0010286  0.0103575  1.6125382 -0.0010951
  0.0309536  0.0146176  1.6129682 -0.0011160  0.0079976  1.6130079 -0.0011556
  0.0301432  0.0158696  1.6010276 -0.0014384  0.0110405  1.6011037 -0.0015145
  0.0301104  0.0166118  1.5939723 -0.0035644  0.0108497  1.5940460 -0.0036381
  0.0308572  0.0159191  1.6014224 -0.0015202  0.0087213  1.6014698 -0.0015676
  0.0308081  0.0166588  1.5943624 -0.0036522  0.0084757  1.5944074 -0.0036972
  0.0296274  0.0158525  1.6022014 -0.0014997  0.0081287  1.6022426 -0.0015409
  0.0289324  0.0158555  1.6021764 -0.0016672  0.0103966  1.6022438 -0.0017346
  0.0296060  0.0165890  1.5953671 -0.0035450  0.0081241  1.5954084 -0.0035863
  0.0289257  0.0165736  1.5951633 -0.0037695  0.0104405  1.5952315 -0.0038377
  0.0277558  0.0154251  1.6070574 -0.0034982  0.0096051  1.6071147 -0.0035555
  0.0284074  0.0153220  1.6063798 -0.0027208  0.0074494  1.6064143 -0.0027553
  0.0276681  0.0147810  1.6145934 -0.0010795  0.0088024  1.6146414 -0.0011274
  0.0283187  0.0145257  1.6125477 -0.0007648  0.0068451  1.6125767 -0.0007938
  0.0277891  0.0159082  1.6028277 -0.0014598  0.0101427  1.6028918 -0.0015239
  0.0277922  0.0165841  1.5959559 -0.0035209  0.0101255  1.5960200 -0.0035850
  0.0284398  0.0158704  1.6024373 -0.0016447  0.0079221  1.6024764 -0.0016838
  0.0284397  0.0165723  1.5958173 -0.0036306  0.0078946  1.5958563 -0.0036696
  0.0273336  0.0159365  1.6023166 -0.0015462  0.0075626  1.6023523 -0.0015818
  0.0267398  0.0159759  1.6026854 -0.0015190  0.0096484  1.6027434 -0.0015770
  0.0273321  0.0165916  1.5962146 -0.0033765  0.0075907  1.5962506 -0.0034125
  0.0267226  0.0166004  1.5962717 -0.0034406  0.0096214  1.5963296 -0.0034985
  0.0273093  0.0154838  1.6055575 -0.0029709  0.0073993  1.6055915 -0.0030049
  0.0272414  0.0149024  1.6108587 -0.0013514  0.0070872  1.6108899 -0.0013826
  0.0267407  0.0155414  1.6059791 -0.0030764  0.0091114  1.6060307 -0.0031280
  0.0267262  0.0149789  1.6115754 -0.0013908  0.0089595  1.6116252 -0.0014405
  0.0277507  0.0177645  1.5852795 -0.0038715  0.0105947  1.5853501 -0.0039421
  0.0283978  0.0177802  1.5853742 -0.0040106  0.0084365  1.5854189 -0.0040553
  0.0277819  0.0170815  1.5919328 -0.0018673  0.0107706  1.5920056 -0.0019401
  0.0284285  0.0170840  1.5919017 -0.0020446  0.0086052  1.5919481 -0.0020910
  0.0277225  0.0182660  1.5812954 -0.0022932  0.0113871  1.5813773 -0.0023751
  0.0276770  0.0189531  1.5748036 -0.0042581  0.0111358  1.5748821 -0.0043366
  0.0283704  0.0182877  1.5814183 -0.0025030  0.0092546  1.5814724 -0.0025571
  0.0283261  0.0189778  1.5749549 -0.0044587  0.0090091  1.5750063 -0.0045101
  0.0272525  0.0182479  1.5823242 -0.0024862  0.0088391  1.5823735 -0.0025355
  0.0266163  0.0182202  1.5821764 -0.0021767  0.0109614  1.5822522 -0.0022525
  0.0272025  0.0189322  1.5759287 -0.0044320  0.0085326  1.5759747 -0.0044781
  0.0265550  0.0189001  1.5757467 -0.0041392  0.0106152  1.5758180 -0.0042105
  0.0272837  0.0177510  1.5862211 -0.0039419  0.0080513  1.5862619 -0.0039827
  0.0273188  0.0170778  1.5925050 -0.0020444  0.0082575  1.5925477 -0.0020871
  0.0266552  0.0177300  1.5860979 -0.0037555  0.0101071  1.5861621 -0.0038198
  0.0267000  0.0170704  1.5925084 -0.0018159  0.0103529  1.5925756 -0.0018831
  0.0257922  0.0155659  1.6058890 -0.0029323  0.0086790  1.6059358 -0.0029791
  0.0263342  0.0155634  1.6057838 -0.0032141  0.0069559  1.6058138 -0.0032442
  0.0258351  0.0150052  1.6112240 -0.0013111  0.0089260  1.6112734 -0.0013605
  0.0263494  0.0150065  1.6111504 -0.0015967  0.0071121  1.6111817 -0.0016281
  0.0257578  0.0159903  1.6026208 -0.0015326  0.0094518  1.6026764 -0.0015883
  0.0257068  0.0165889  1.5967635 -0.0033156  0.0091606  1.5968159 -0.0033681
  0.0263175  0.0159903  1.6025257 -0.0018510  0.0074993  1.6025607 -0.0018861
  0.0262871  0.0165997  1.5967718 -0.0035920  0.0072840  1.5968049 -0.0036252
  0.0253524  0.0159779  1.6032933 -0.0019436  0.0073494  1.6033269 -0.0019772
  0.0248047  0.0159440  1.6031334 -0.0014885  0.0091820  1.6031859 -0.0015410
  0.0252883  0.0165701  1.5977880 -0.0036518  0.0069401  1.5978181 -0.0036819
  0.0247253  0.0165298  1.5975826 -0.0032252  0.0087167  1.5976301 -0.0032727
  0.0253973  0.0155553  1.6066682 -0.0032837  0.0065567  1.6066949 -0.0033104
  0.0254556  0.0149931  1.6119934 -0.0016367  0.0069327  1.6120232 -0.0016665
  0.0248604  0.0155238  1.6065243 -0.0028853  0.0082704  1.6065668 -0.0029278
  0.0249332  0.0149613  1.6118357 -0.0012305  0.0086925  1.6118826 -0.0012774
  0.0251558  0.0176428  1.5885123 -0.0040469  0.0072975  1.5885457 -0.0040803
  0.0252356  0.0170162  1.5942373 -0.0022532  0.0077816  1.5942752 -0.0022912
  0.0245674  0.0175852  1.5881773 -0.0035924  0.0091279  1.5882296 -0.0036447
  0.0246617  0.0169696  1.5939825 -0.0017581  0.0096704  1.5940411 -0.0018167
  0.0255939  0.0176763  1.5870134 -0.0036665  0.0096130  1.5870715 -0.0037246
  0.0262024  0.0177100  1.5872049 -0.0039713  0.0076569  1.5872417 -0.0040081
  0.0256629  0.0170406  1.5931755 -0.0017748  0.0099992  1.5932382 -0.0018375
  0.0262563  0.0170605  1.5932459 -0.0021267  0.0079818  1.5932858 -0.0021666
  0.0255362  0.0181519  1.5831375 -0.0020809  0.0105730  1.5832081 -0.0021514
  0.0254477  0.0188156  1.5768916 -0.0040254  0.0100782  1.5769558 -0.0040897
  0.0261564  0.0181945  1.5833774 -0.0025123  0.0085205  1.5834232 -0.0025580
  0.0260848  0.0188688  1.5772086 -0.0044185  0.0080902  1.5772500 -0.0044599
  0.0250898  0.0181116  1.5847174 -0.0026232  0.0082544  1.5847603 -0.0026661
  0.0244902  0.0180442  1.5843199 -0.0020520  0.0101698  1.5843851 -0.0021171
  0.0249891  0.0187657  1.5789199 -0.0044725  0.0076688  1.5789570 -0.0045097
  0.0243736  0.0186823  1.5784125 -0.0039572  0.0095147  1.5784697 -0.0040144
  0.0235768  0.0174665  1.5896416 -0.0035051  0.0086398  1.5896885 -0.0035520
  0.0241443  0.0175380  1.5900329 -0.0041153  0.0069206  1.5900630 -0.0041453
  0.0236911  0.0168712  1.5951651 -0.0016956  0.0093131  1.5952195 -0.0017499
  0.0242478  0.0169307  1.5954687 -0.0023512  0.0075432  1.5955043 -0.0023868
  0.0234849  0.0179074  1.5858332 -0.0019808  0.0097411  1.5858930 -0.0020406
  0.0233481  0.0185166  1.5802935 -0.0038591  0.0089406  1.5803439 -0.0039096
  0.0240602  0.0179894  1.5862694 -0.0027596  0.0079843  1.5863095 -0.0027998
  0.0239339  0.0186156  1.5808493 -0.0045760  0.0072430  1.5808824 -0.0046091
  0.0230724  0.0178436  1.5879965 -0.0027891  0.0076907  1.5880336 -0.0028263
  0.0225207  0.0177512  1.5875217 -0.0019440  0.0092997  1.5875761 -0.0019984
  0.0229299  0.0184411  1.5829320 -0.0045541  0.0068786  1.5829618 -0.0045839
  0.0223731  0.0183337  1.5823484 -0.0037622  0.0084445  1.5823933 -0.0038071
  0.0231688  0.0174100  1.5917136 -0.0041399  0.0065544  1.5917405 -0.0041668
  0.0232895  0.0168229  1.5968856 -0.0024028  0.0072692  1.5969187 -0.0024358
  0.0226214  0.0173270  1.5912681 -0.0034326  0.0081729  1.5913099 -0.0034745
  0.0227489  0.0167505  1.5965173 -0.0016555  0.0089260  1.5965672 -0.0017054
  0.0216980  0.0171809  1.5929887 -0.0033523  0.0077414  1.5930262 -0.0033898
  0.0222273  0.0172656  1.5934182 -0.0041418  0.0061960  1.5934423 -0.0041659
  0.0218334  0.0166215  1.5980368 -0.0015965  0.0085459  1.5980824 -0.0016421
  0.0223588  0.0166965  1.5983929 -0.0024223  0.0069703  1.5984233 -0.0024527
  0.0215928  0.0175911  1.5893377 -0.0018923  0.0088758  1.5893872 -0.0019418
  0.0214408  0.0181526  1.5844136 -0.0036706  0.0079909  1.5844538 -0.0037108
  0.0221243  0.0176835  1.5897803 -0.0028024  0.0073628  1.5898144 -0.0028364
  0.0219742  0.0182564  1.5849429 -0.0045402  0.0065072  1.5849696 -0.0045668
  0.0212097  0.0175233  1.5915571 -0.0027759  0.0070157  1.5915880 -0.0028067
  0.0206945  0.0174305  1.5911267 -0.0018400  0.0084602  1.5911716 -0.0018849
  0.0210569  0.0180772  1.5868897 -0.0044852  0.0061439  1.5869134 -0.0045089
  0.0205413  0.0179752  1.5863877 -0.0035816  0.0075664  1.5864237 -0.0036177
  0.0213160  0.0171182  1.5951236 -0.0041147  0.0058554  1.5951451 -0.0041361
  0.0214537  0.0165654  1.5999305 -0.0024161  0.0066632  1.5999582 -0.0024438
  0.0208018  0.0170317  1.5946982 -0.0032795  0.0073386  1.5947319 -0.0033132
  0.0209418  0.0164869  1.5995669 -0.0015511  0.0081694  1.5996086 -0.0015927
  0.0211509  0.0191239  1.5758954 -0.0040071  0.0081933  1.5759379 -0.0040496
  0.0216820  0.0192527  1.5765429 -0.0049645  0.0068189  1.5765723 -0.0049939
  0.0213224  0.0185633  1.5806281 -0.0022039  0.0091686  1.5806812 -0.0022570
  0.0218557  0.0186769  1.5811573 -0.0032117  0.0077631  1.5811954 -0.0032497
  0.0210175  0.0195297  1.5719572 -0.0025466  0.0093944  1.5720133 -0.0026026
  0.0208249  0.0200778  1.5676075 -0.0043439  0.0083404  1.5676518 -0.0043882
  0.0215445  0.0196705  1.5725651 -0.0036605  0.0081718  1.5726075 -0.0037028
  0.0213424  0.0202360  1.5683596 -0.0054058  0.0071451  1.5683921 -0.0054383
  0.0206387  0.0194322  1.5749867 -0.0035537  0.0076997  1.5750243 -0.0035912
  0.0201307  0.0193066  1.5744424 -0.0024932  0.0089251  1.5744929 -0.0025437
  0.0204525  0.0199706  1.5708152 -0.0052494  0.0067183  1.5708439 -0.0052781
  0.0199526  0.0198362  1.5701860 -0.0042115  0.0079364  1.5702260 -0.0042515
  0.0207690  0.0190332  1.5787451 -0.0048744  0.0064287  1.5787712 -0.0049005
  0.0209388  0.0184818  1.5832182 -0.0031586  0.0073645  1.5832524 -0.0031928
  0.0202571  0.0189145  1.5781700 -0.0038998  0.0077648  1.5782082 -0.0039379
  0.0204241  0.0183728  1.5827233 -0.0021529  0.0087179  1.5827713 -0.0022008
  0.0199273  0.0168816  1.5963953 -0.0032016  0.0069570  1.5964256 -0.0032319
  0.0204297  0.0169683  1.5968079 -0.0040728  0.0055209  1.5968270 -0.0040918
  0.0200707  0.0163495  1.6011252 -0.0014933  0.0078071  1.6011632 -0.0015314
  0.0205712  0.0164291  1.6014831 -0.0023915  0.0063504  1.6015082 -0.0024166
  0.0198185  0.0172713  1.5928910 -0.0017777  0.0080704  1.5929319 -0.0018185
  0.0196646  0.0178037  1.5882776 -0.0034933  0.0071734  1.5883099 -0.0035257
  0.0203217  0.0173630  1.5933061 -0.0027298  0.0066667  1.5933340 -0.0027577
  0.0201682  0.0179019  1.5887431 -0.0044221  0.0057857  1.5887641 -0.0044431
  0.0194539  0.0172041  1.5950289 -0.0026737  0.0063296  1.5950540 -0.0026988
  0.0189609  0.0171122  1.5946171 -0.0017122  0.0076974  1.5946542 -0.0017493
  0.0192994  0.0177321  1.5905609 -0.0043490  0.0054432  1.5905795 -0.0043675
  0.0188052  0.0176347  1.5901081 -0.0034088  0.0067951  1.5901371 -0.0034377
  0.0195634  0.0168178  1.5984827 -0.0040228  0.0052012  1.5984996 -0.0040396
  0.0197080  0.0162903  1.6030446 -0.0023571  0.0060465  1.6030673 -0.0023798
  0.0190714  0.0167300  1.5980718 -0.0031315  0.0065940  1.5980990 -0.0031586
  0.0192176  0.0162082  1.6026756 -0.0014439  0.0074563  1.6027103 -0.0014785
  0.0193845  0.0187206  1.5802620 -0.0037901  0.0073680  1.5802963 -0.0038244
  0.0198861  0.0188307  1.5807773 -0.0047732  0.0060445  1.5808003 -0.0047962
  0.0195483  0.0181921  1.5847205 -0.0020758  0.0083057  1.5847640 -0.0021192
  0.0200515  0.0182952  1.5851791 -0.0030819  0.0069688  1.5852097 -0.0031125
  0.0192625  0.0191052  1.5766636 -0.0024101  0.0085059  1.5767094 -0.0024559
  0.0190931  0.0196272  1.5723991 -0.0040948  0.0075563  1.5724354 -0.0041310
  0.0197620  0.0192190  1.5771635 -0.0034392  0.0072443  1.5771967 -0.0034724
  0.0195883  0.0197442  1.5729331 -0.0051177  0.0062941  1.5729582 -0.0051428
  0.0188985  0.0190240  1.5791697 -0.0033371  0.0068300  1.5791992 -0.0033666
  0.0184033  0.0189162  1.5786916 -0.0023179  0.0081166  1.5787333 -0.0023596
  0.0187306  0.0195442  1.5749060 -0.0050085  0.0058955  1.5749280 -0.0050305
  0.0182355  0.0194343  1.5744125 -0.0039966  0.0071773  1.5744451 -0.0040292
  0.0190197  0.0186417  1.5827017 -0.0046868  0.0056758  1.5827220 -0.0047071
  0.0191831  0.0181173  1.5870516 -0.0030093  0.0065967  1.5870790 -0.0030367
  0.0185246  0.0185362  1.5822214 -0.0036968  0.0069860  1.5822522 -0.0037276
  0.0186884  0.0180162  1.5866038 -0.0020029  0.0079184  1.5866433 -0.0020423
  0.0188021  0.0205165  1.5647603 -0.0043997  0.0077477  1.5647986 -0.0044379
  0.0192869  0.0206319  1.5652739 -0.0054326  0.0065263  1.5653011 -0.0054597
  0.0189697  0.0200054  1.5688433 -0.0027703  0.0086754  1.5688912 -0.0028182
  0.0194610  0.0201228  1.5693527 -0.0037880  0.0074713  1.5693882 -0.0038235
  0.0186860  0.0208877  1.5613111 -0.0031902  0.0088292  1.5613609 -0.0032400
  0.0185362  0.0213908  1.5572916 -0.0047114  0.0080139  1.5573327 -0.0047525
  0.0191664  0.0209958  1.5618243 -0.0040594  0.0075942  1.5618611 -0.0040962
  0.0190115  0.0214807  1.5576815 -0.0056505  0.0067246  1.5577104 -0.0056794
  0.0183273  0.0208101  1.5637056 -0.0039617  0.0071427  1.5637382 -0.0039942
  0.0178276  0.0207060  1.5632035 -0.0030481  0.0084906  1.5632495 -0.0030941
  0.0181767  0.0213227  1.5593659 -0.0055867  0.0062845  1.5593911 -0.0056119
  0.0176697  0.0212265  1.5589410 -0.0046543  0.0076342  1.5589783 -0.0046916
  0.0184430  0.0204348  1.5671639 -0.0053162  0.0060985  1.5671876 -0.0053399
  0.0186085  0.0199222  1.5713857 -0.0036639  0.0070209  1.5714170 -0.0036952
  0.0179464  0.0203271  1.5666874 -0.0043079  0.0073835  1.5667221 -0.0043426
  0.0181131  0.0198124  1.5708905 -0.0026619  0.0083029  1.5709343 -0.0027057
  0.0176723  0.0183456  1.5841788 -0.0036107  0.0065990  1.5842063 -0.0036381
  0.0181636  0.0184569  1.5846901 -0.0045952  0.0053281  1.5847080 -0.0046131
  0.0178393  0.0178340  1.5884478 -0.0019373  0.0075346  1.5884835 -0.0019730
  0.0183283  0.0179403  1.5889286 -0.0029425  0.0062469  1.5889532 -0.0029670
  0.0175484  0.0187215  1.5806241 -0.0022509  0.0077256  1.5806618 -0.0022886
  0.0173769  0.0192367  1.5764098 -0.0039205  0.0067818  1.5764389 -0.0039496
  0.0180416  0.0188351  1.5811422 -0.0032662  0.0064563  1.5811685 -0.0032925
  0.0178728  0.0193519  1.5769320 -0.0049267  0.0055219  1.5769512 -0.0049460
  0.0171889  0.0186363  1.5831793 -0.0032132  0.0061028  1.5832028 -0.0032367
  0.0166999  0.0185172  1.5826426 -0.0021626  0.0073350  1.5826765 -0.0021965
  0.0170148  0.0191496  1.5790645 -0.0048725  0.0051490  1.5790813 -0.0048893
  0.0165212  0.0190269  1.5785152 -0.0038406  0.0063637  1.5785408 -0.0038662
  0.0173146  0.0182624  1.5867339 -0.0045389  0.0049807  1.5867495 -0.0045545
  0.0174837  0.0177541  1.5908580 -0.0028945  0.0059161  1.5908800 -0.0029164
  0.0168285  0.0181462  1.5862095 -0.0035295  0.0062047  1.5862338 -0.0035537
  0.0170012  0.0176423  1.5903552 -0.0018646  0.0071580  1.5903874 -0.0018968
  0.0170767  0.0201279  1.5686698 -0.0042369  0.0069638  1.5687006 -0.0042677
  0.0175803  0.0202449  1.5691902 -0.0052657  0.0056965  1.5692108 -0.0052863
  0.0172505  0.0196135  1.5728493 -0.0025704  0.0079117  1.5728890 -0.0026101
  0.0177492  0.0197296  1.5733771 -0.0036082  0.0066327  1.5734050 -0.0036361
  0.0169498  0.0205084  1.5650766 -0.0029207  0.0080907  1.5651184 -0.0029624
  0.0167770  0.0210334  1.5607897 -0.0046085  0.0071427  1.5608223 -0.0046410
  0.0174585  0.0206252  1.5656227 -0.0039648  0.0067580  1.5656518 -0.0039939
  0.0172947  0.0211489  1.5613024 -0.0056461  0.0058251  1.5613240 -0.0056678
  0.0165772  0.0204179  1.5677208 -0.0039162  0.0063982  1.5677468 -0.0039422
  0.0160680  0.0202877  1.5671329 -0.0027909  0.0076623  1.5671703 -0.0028283
  0.0163979  0.0209426  1.5635444 -0.0056196  0.0054094  1.5635631 -0.0056382
  0.0158801  0.0208100  1.5629650 -0.0045136  0.0066521  1.5629932 -0.0045418
  0.0167080  0.0200382  1.5713721 -0.0052445  0.0052969  1.5713899 -0.0052622
  0.0168859  0.0195252  1.5754544 -0.0035715  0.0062717  1.5754793 -0.0035964
  0.0162042  0.0199100  1.5708134 -0.0041564  0.0065119  1.5708403 -0.0041833
  0.0163884  0.0194001  1.5748991 -0.0024641  0.0075059  1.5749348 -0.0024998
  0.0158588  0.0182875  1.5847429 -0.0021057  0.0069124  1.5847730 -0.0021358
  0.0156716  0.0187899  1.5808191 -0.0037588  0.0059298  1.5808413 -0.0037809
  0.0163435  0.0184237  1.5853625 -0.0031612  0.0057659  1.5853834 -0.0031821
  0.0161613  0.0189306  1.5814517 -0.0047928  0.0048023  1.5814662 -0.0048074
  0.0155064  0.0181843  1.5877329 -0.0031001  0.0054271  1.5877514 -0.0031186
  0.0150283  0.0180387  1.5871007 -0.0019984  0.0064916  1.5871272 -0.0020249
  0.0153157  0.0186829  1.5840208 -0.0047178  0.0044455  1.5840332 -0.0047302
  0.0148330  0.0185312  1.5833653 -0.0036440  0.0054879  1.5833843 -0.0036630
  0.0156434  0.0178220  1.5914006 -0.0043836  0.0043145  1.5914123 -0.0043953
  0.0158270  0.0173310  1.5951426 -0.0027815  0.0052769  1.5951600 -0.0027989
  0.0151686  0.0176803  1.5907788 -0.0033384  0.0053779  1.5907969 -0.0033565
  0.0153569  0.0171937  1.5945342 -0.0017145  0.0063585  1.5945596 -0.0017399
  0.0159932  0.0179225  1.5884037 -0.0034378  0.0057918  1.5884248 -0.0034589
  0.0164745  0.0180551  1.5890062 -0.0044469  0.0046550  1.5890198 -0.0044605
  0.0161735  0.0174278  1.5923396 -0.0018022  0.0067547  1.5923682 -0.0018308
  0.0166501  0.0175549  1.5929184 -0.0028369  0.0055961  1.5929380 -0.0028566
  0.0153360  0.0196595  1.5732200 -0.0040597  0.0060498  1.5732432 -0.0040829
  0.0158366  0.0198085  1.5738676 -0.0051661  0.0049332  1.5738830 -0.0051816
  0.0155315  0.0191576  1.5770928 -0.0023792  0.0070666  1.5771244 -0.0024109
  0.0160255  0.0193016  1.5777294 -0.0035118  0.0059274  1.5777516 -0.0035340
  0.0151904  0.0200320  1.5693883 -0.0026969  0.0072032  1.5694213 -0.0027299
  0.0149881  0.0205478  1.5654453 -0.0044147  0.0061615  1.5654695 -0.0044389
  0.0156964  0.0201843  1.5700692 -0.0038503  0.0060482  1.5700924 -0.0038736
  0.0155024  0.0207042  1.5661251 -0.0055439  0.0050290  1.5661412 -0.0055600
  0.0148229  0.0199142  1.5726795 -0.0037779  0.0056971  1.5727001 -0.0037985
  0.0143247  0.0197446  1.5719707 -0.0025510  0.0067252  1.5719995 -0.0025797
  0.0146140  0.0204259  1.5690170 -0.0054631  0.0046489  1.5690308 -0.0054768
  0.0141061  0.0202491  1.5682995 -0.0042742  0.0056475  1.5683198 -0.0042945
  0.0149725  0.0195449  1.5765851 -0.0050919  0.0045756  1.5765983 -0.0051051
  0.0151727  0.0190475  1.5802276 -0.0034463  0.0055914  1.5802473 -0.0034661
  0.0144801  0.0193806  1.5758955 -0.0039468  0.0055938  1.5759153 -0.0039666
  0.0146861  0.0188907  1.5795633 -0.0022660  0.0066364  1.5795911 -0.0022938
  0.0142025  0.0177599  1.5896413 -0.0019222  0.0060453  1.5896642 -0.0019452
  0.0140128  0.0182458  1.5861056 -0.0035091  0.0050675  1.5861218 -0.0035252
  0.0146789  0.0179250  1.5903362 -0.0030134  0.0050837  1.5903524 -0.0030297
  0.0144839  0.0184140  1.5868377 -0.0045941  0.0041076  1.5868483 -0.0046047
  0.0138560  0.0176519  1.5929564 -0.0029231  0.0046137  1.5929697 -0.0029365
  0.0133858  0.0175218  1.5923251 -0.0020771  0.0057344  1.5923458 -0.0020977
  0.0136776  0.0181302  1.5892868 -0.0044128  0.0037504  1.5892956 -0.0044217
  0.0132329  0.0179827  1.5884442 -0.0036085  0.0048722  1.5884592 -0.0036234
  0.0139902  0.0172918  1.5965919 -0.0043139  0.0036294  1.5966001 -0.0043221
  0.0141786  0.0167864  1.6008801 -0.0025237  0.0046869  1.6008938 -0.0025374
  0.0134976  0.0171455  1.5958216 -0.0032080  0.0049035  1.5958366 -0.0032231
  0.0136502  0.0165781  1.5998516 -0.0016536  0.0057662  1.5998724 -0.0016743
  0.0143448  0.0174052  1.5933925 -0.0031679  0.0049387  1.5934078 -0.0031832
  0.0148207  0.0175686  1.5940684 -0.0042524  0.0039873  1.5940784 -0.0042623
  0.0145437  0.0169220  1.5968628 -0.0015824  0.0059216  1.5968848 -0.0016043
  0.0150131  0.0170841  1.5975537 -0.0026786  0.0049591  1.5975691 -0.0026940
  0.0136436  0.0190608  1.5789798 -0.0038437  0.0051073  1.5789962 -0.0038601
  0.0141240  0.0192510  1.5797230 -0.0049478  0.0042650  1.5797345 -0.0049592
  0.0138630  0.0185944  1.5822309 -0.0022319  0.0061284  1.5822546 -0.0022556
  0.0143352  0.0187693  1.5829240 -0.0034009  0.0052411  1.5829413 -0.0034182
  0.0134771  0.0194102  1.5748104 -0.0024562  0.0062579  1.5748353 -0.0024811
  0.0132418  0.0198983  1.5714591 -0.0041606  0.0051736  1.5714761 -0.0041776
  0.0139641  0.0196096  1.5756198 -0.0036808  0.0053834  1.5756381 -0.0036992
  0.0137385  0.0201077  1.5722828 -0.0053385  0.0043312  1.5722947 -0.0053504
  0.0131357  0.0192512  1.5786817 -0.0035358  0.0050205  1.5786976 -0.0035517
  0.0126900  0.0190160  1.5780240 -0.0019405  0.0054850  1.5780431 -0.0019595
  0.0128683  0.0197236  1.5761934 -0.0052168  0.0039535  1.5762033 -0.0052267
  0.0123447  0.0194558  1.5756578 -0.0038269  0.0043650  1.5756698 -0.0038389
  0.0133136  0.0189149  1.5832677 -0.0047731  0.0040696  1.5832781 -0.0047836
  0.0135323  0.0184687  1.5856117 -0.0034383  0.0049317  1.5856270 -0.0034536
  0.0128926  0.0187063  1.5826288 -0.0036638  0.0045761  1.5826420 -0.0036770
  0.0131008  0.0183001  1.5851724 -0.0021866  0.0055261  1.5851916 -0.0022058
  0.0126482  0.0170065  1.5976153 -0.0036630  0.0048962  1.5976302 -0.0036780
  0.0131380  0.0170690  1.5981603 -0.0038078  0.0031375  1.5981664 -0.0038140
  0.0127093  0.0165313  1.6029760 -0.0020130  0.0052620  1.6029933 -0.0020303
  0.0132566  0.0165098  1.6026907 -0.0023906  0.0035777  1.6026987 -0.0023985
  0.0125897  0.0173421  1.5942363 -0.0022463  0.0055243  1.5942554 -0.0022654
  0.0124911  0.0177836  1.5903097 -0.0036085  0.0049049  1.5903248 -0.0036236
  0.0130465  0.0174388  1.5947477 -0.0028635  0.0043222  1.5947594 -0.0028752
  0.0129150  0.0178898  1.5909991 -0.0042164  0.0036462  1.5910074 -0.0042248
  0.0122668  0.0172793  1.5963643 -0.0025900  0.0037212  1.5963730 -0.0025986
  0.0118412  0.0172044  1.5958558 -0.0020170  0.0051602  1.5958724 -0.0020337
  0.0121610  0.0177154  1.5923851 -0.0039461  0.0031304  1.5923913 -0.0039523
  0.0116832  0.0176356  1.5919635 -0.0034230  0.0044210  1.5919758 -0.0034353
  0.0123202  0.0169638  1.5992066 -0.0036156  0.0030893  1.5992125 -0.0036216
  0.0123603  0.0165381  1.6025558 -0.0025687  0.0033712  1.6025629 -0.0025758
  0.0119137  0.0169095  1.5988876 -0.0032325  0.0043152  1.5988992 -0.0032441
  0.0119538  0.0165352  1.6026914 -0.0020370  0.0046525  1.6027049 -0.0020505
  0.0120809  0.0183568  1.5854933 -0.0042174  0.0037444  1.5855021 -0.0042263
  0.0121112  0.0180042  1.5901000 -0.0028416  0.0038553  1.5901093 -0.0028510
  0.0117329  0.0184209  1.5862958 -0.0040465  0.0053077  1.5863135 -0.0040642
  0.0116542  0.0179616  1.5897568 -0.0029990  0.0050795  1.5897730 -0.0030152
  0.0123203  0.0183960  1.5847747 -0.0037250  0.0045082  1.5847875 -0.0037378
  0.0126264  0.0185673  1.5858275 -0.0045100  0.0038595  1.5858369 -0.0045194
  0.0124189  0.0180660  1.5877407 -0.0024657  0.0052814  1.5877583 -0.0024833
  0.0128025  0.0181922  1.5881765 -0.0033559  0.0045893  1.5881898 -0.0033692
  0.0121664  0.0185797  1.5827775 -0.0020419  0.0042603  1.5827889 -0.0020533
  0.0118444  0.0187515  1.5828973 -0.0037293  0.0043579  1.5829092 -0.0037413
  0.0124303  0.0188361  1.5813279 -0.0038486  0.0051323  1.5813445 -0.0038653
  0.0120703  0.0191953  1.5817422 -0.0047176  0.0050110  1.5817581 -0.0047334
  0.0113881  0.0168214  1.5992417 -0.0034594  0.0042801  1.5992532 -0.0034708
  0.0116639  0.0168714  1.5998354 -0.0033466  0.0030974  1.5998414 -0.0033526
  0.0113596  0.0165487  1.6027359 -0.0024182  0.0041779  1.6027467 -0.0024291
  0.0116857  0.0165380  1.6026250 -0.0025063  0.0031818  1.6026313 -0.0025126
  0.0113219  0.0169931  1.5974794 -0.0018132  0.0040294  1.5974895 -0.0018233
  0.0111125  0.0171896  1.5964565 -0.0032188  0.0033865  1.5964637 -0.0032260
  0.0115880  0.0171277  1.5974719 -0.0031907  0.0039886  1.5974818 -0.0032007
  0.0114023  0.0174947  1.5967156 -0.0038916  0.0035221  1.5967233 -0.0038993
  0.0111992  0.0168473  1.5989218 -0.0031995  0.0036963  1.5989303 -0.0032081
  0.0111300  0.0165835  1.6017080 -0.0020986  0.0030597  1.6017138 -0.0021044
  0.0109589  0.0169681  1.5998271 -0.0038222  0.0043590  1.5998389 -0.0038341
  0.0108289  0.0166680  1.6020507 -0.0028128  0.0037350  1.6020594 -0.0028215
  0.0105327  0.0174781  1.5949516 -0.0028380  0.0037516  1.5949604 -0.0028468
  0.0107231  0.0178751  1.5921355 -0.0043260  0.0047046  1.5921494 -0.0043399
  0.0109010  0.0173196  1.5942143 -0.0016020  0.0030030  1.5942200 -0.0016077
  0.0111705  0.0176950  1.5915793 -0.0032610  0.0040584  1.5915896 -0.0032713
  0.0102523  0.0175783  1.5926852 -0.0020529  0.0025812  1.5926894 -0.0020571
  0.0098545  0.0176934  1.5932876 -0.0029676  0.0036248  1.5932959 -0.0029758
  0.0104091  0.0179847  1.5892442 -0.0035043  0.0034450  1.5892516 -0.0035118
  0.0099989  0.0181042  1.5898338 -0.0043882  0.0044549  1.5898463 -0.0044007
  0.0101403  0.0172918  1.5956398 -0.0032675  0.0032980  1.5956466 -0.0032743
  0.0099911  0.0169156  1.5988625 -0.0018960  0.0024767  1.5988664 -0.0018998
  0.0097517  0.0174005  1.5961501 -0.0041022  0.0042381  1.5961614 -0.0041134
  0.0096152  0.0170111  1.5993188 -0.0027982  0.0034758  1.5993263 -0.0028057
  0.0104069  0.0172014  1.5983744 -0.0039915  0.0042979  1.5983859 -0.0040031
  0.0107466  0.0170629  1.5978588 -0.0030946  0.0037221  1.5978675 -0.0031033
  0.0102534  0.0168422  1.6006521 -0.0028562  0.0035726  1.6006601 -0.0028641
  0.0105940  0.0167373  1.6003237 -0.0018223  0.0029093  1.6003289 -0.0018276
  0.0106775  0.0187207  1.5826424 -0.0038001  0.0036112  1.5826506 -0.0038084
  0.0105231  0.0182908  1.5861898 -0.0023836  0.0028026  1.5861947 -0.0023886
  0.0102417  0.0188337  1.5832126 -0.0046164  0.0047218  1.5832267 -0.0046304
  0.0101026  0.0184098  1.5868553 -0.0031923  0.0039276  1.5868650 -0.0032020
  0.0109994  0.0186297  1.5854019 -0.0047296  0.0050113  1.5854177 -0.0047454
  0.0114431  0.0184940  1.5847652 -0.0035434  0.0039248  1.5847749 -0.0035531
  0.0108481  0.0181836  1.5890993 -0.0031562  0.0040642  1.5891096 -0.0031666
  0.0113158  0.0180097  1.5883005 -0.0021355  0.0031020  1.5883066 -0.0021416
  0.0110984  0.0189619  1.5817631 -0.0031976  0.0046724  1.5817769 -0.0032114
  0.0112176  0.0194233  1.5770501 -0.0048251  0.0054102  1.5770686 -0.0048436
  0.0115583  0.0188539  1.5809406 -0.0026123  0.0031128  1.5809467 -0.0026184
  0.0117454  0.0193527  1.5767258 -0.0041523  0.0039369  1.5767356 -0.0041622
  0.0107709  0.0190396  1.5797760 -0.0027689  0.0029734  1.5797816 -0.0027744
  0.0103358  0.0191441  1.5804111 -0.0033668  0.0042056  1.5804223 -0.0033779
  0.0108715  0.0194810  1.5758619 -0.0041288  0.0035943  1.5758701 -0.0041370
  0.0104537  0.0195680  1.5764081 -0.0047987  0.0049073  1.5764234 -0.0048139
  0.0096047  0.0193117  1.5789044 -0.0035430  0.0039847  1.5789145 -0.0035530
  0.0097366  0.0197395  1.5752591 -0.0049565  0.0047657  1.5752735 -0.0049708
  0.0100233  0.0192170  1.5784497 -0.0026521  0.0028471  1.5784549 -0.0026572
  0.0101496  0.0196372  1.5747292 -0.0040867  0.0036349  1.5747375 -0.0040950
  0.0092964  0.0193792  1.5772132 -0.0027352  0.0025711  1.5772174 -0.0027394
  0.0088726  0.0194690  1.5776342 -0.0036260  0.0037377  1.5776430 -0.0036349
  0.0094293  0.0198127  1.5734422 -0.0041866  0.0033660  1.5734494 -0.0041938
  0.0090025  0.0199104  1.5739165 -0.0050446  0.0045068  1.5739293 -0.0050575
  0.0092016  0.0190643  1.5800249 -0.0038949  0.0031094  1.5800310 -0.0039010
  0.0090754  0.0186373  1.5838808 -0.0024420  0.0023353  1.5838843 -0.0024455
  0.0087803  0.0191489  1.5804337 -0.0047369  0.0043010  1.5804453 -0.0047486
  0.0086580  0.0187158  1.5842493 -0.0033120  0.0035513  1.5842572 -0.0033199
  0.0095093  0.0189999  1.5816580 -0.0046797  0.0045140  1.5816708 -0.0046926
  0.0099287  0.0189085  1.5812001 -0.0038357  0.0033407  1.5812071 -0.0038428
  0.0093804  0.0185758  1.5854099 -0.0032507  0.0037415  1.5854188 -0.0032595
  0.0097965  0.0184861  1.5849562 -0.0023961  0.0025561  1.5849603 -0.0024002
  0.0096735  0.0205677  1.5665770 -0.0045754  0.0034746  1.5665847 -0.0045831
  0.0095303  0.0201311  1.5703914 -0.0031197  0.0026834  1.5703960 -0.0031243
  0.0092339  0.0206737  1.5671482 -0.0053367  0.0046639  1.5671620 -0.0053505
  0.0090993  0.0202332  1.5709596 -0.0039028  0.0039008  1.5709692 -0.0039124
  0.0099867  0.0204781  1.5694517 -0.0052876  0.0049249  1.5694671 -0.0053030
  0.0104028  0.0203390  1.5688884 -0.0042856  0.0040811  1.5688990 -0.0042962
  0.0098390  0.0200520  1.5724253 -0.0039898  0.0041302  1.5724362 -0.0040006
  0.0102513  0.0199379  1.5720060 -0.0028887  0.0032190  1.5720126 -0.0028953
  0.0100928  0.0208017  1.5657783 -0.0039303  0.0044651  1.5657910 -0.0039430
  0.0102352  0.0212600  1.5613239 -0.0056196  0.0053738  1.5613423 -0.0056380
  0.0105418  0.0206665  1.5648409 -0.0030685  0.0030701  1.5648469 -0.0030745
  0.0107701  0.0211603  1.5609264 -0.0046986  0.0040584  1.5609370 -0.0047091
  0.0097683  0.0208896  1.5636374 -0.0034646  0.0028761  1.5636427 -0.0034699
  0.0093305  0.0209944  1.5642610 -0.0041060  0.0041100  1.5642718 -0.0041167
  0.0098842  0.0213323  1.5596788 -0.0048771  0.0035626  1.5596869 -0.0048852
  0.0094599  0.0214303  1.5602917 -0.0055519  0.0048443  1.5603067 -0.0055669
  0.0085751  0.0211773  1.5627204 -0.0042693  0.0038684  1.5627299 -0.0042788
  0.0087211  0.0216277  1.5590089 -0.0057397  0.0046998  1.5590230 -0.0057538
  0.0090108  0.0210715  1.5622172 -0.0033322  0.0027276  1.5622220 -0.0033370
  0.0091482  0.0215094  1.5583849 -0.0048392  0.0035735  1.5583930 -0.0048474
  0.0082505  0.0212561  1.5607164 -0.0034062  0.0024126  1.5607201 -0.0034099
  0.0077993  0.0213657  1.5612362 -0.0043564  0.0035841  1.5612444 -0.0043646
  0.0084002  0.0217163  1.5567910 -0.0049595  0.0032897  1.5567979 -0.0049665
  0.0079508  0.0218400  1.5574191 -0.0058604  0.0044298  1.5574316 -0.0058730
  0.0081471  0.0209183  1.5637978 -0.0046564  0.0029599  1.5638034 -0.0046620
  0.0080142  0.0204553  1.5679871 -0.0030954  0.0021414  1.5679900 -0.0030983
  0.0076950  0.0210178  1.5643173 -0.0055016  0.0042258  1.5643287 -0.0055129
  0.0075617  0.0205414  1.5683977 -0.0039881  0.0034377  1.5684052 -0.0039956
  0.0084732  0.0208460  1.5656546 -0.0054079  0.0044510  1.5656672 -0.0054205
  0.0089123  0.0207483  1.5651367 -0.0045818  0.0032127  1.5651433 -0.0045883
  0.0083408  0.0203914  1.5696034 -0.0039319  0.0036735  1.5696120 -0.0039405
  0.0087806  0.0203029  1.5691624 -0.0030724  0.0024140  1.5691661 -0.0030762
  0.0081244  0.0196037  1.5764942 -0.0036416  0.0035104  1.5765020 -0.0036494
  0.0082474  0.0200585  1.5724802 -0.0051090  0.0042566  1.5724917 -0.0051205
  0.0085586  0.0195292  1.5761472 -0.0027893  0.0022234  1.5761504 -0.0027924
  0.0086858  0.0199763  1.5720794 -0.0042901  0.0029984  1.5720851 -0.0042958
  0.0078022  0.0196546  1.5752542 -0.0028093  0.0019290  1.5752565 -0.0028117
  0.0073561  0.0197190  1.5755317 -0.0036575  0.0032928  1.5755385 -0.0036643
  0.0079218  0.0201167  1.5709538 -0.0043509  0.0026847  1.5709584 -0.0043554
  0.0074708  0.0201934  1.5713264 -0.0051491  0.0040083  1.5713366 -0.0051593
  0.0077189  0.0193201  1.5781019 -0.0040381  0.0024693  1.5781057 -0.0040419
  0.0076108  0.0188684  1.5823872 -0.0025404  0.0017753  1.5823892 -0.0025424
  0.0072775  0.0193768  1.5783357 -0.0048011  0.0038138  1.5783448 -0.0048103
  0.0071775  0.0189161  1.5825526 -0.0033463  0.0031621  1.5825589 -0.0033526
  0.0080380  0.0192741  1.5792884 -0.0047954  0.0040700  1.5792989 -0.0048058
  0.0084685  0.0192051  1.5789862 -0.0039672  0.0028043  1.5789912 -0.0039722
  0.0079250  0.0188284  1.5832898 -0.0033531  0.0033550  1.5832969 -0.0033602
  0.0083498  0.0187670  1.5830414 -0.0024890  0.0020565  1.5830441 -0.0024917
  0.0065530  0.0198091  1.5747478 -0.0036616  0.0030847  1.5747538 -0.0036676
  0.0066574  0.0203118  1.5702862 -0.0051840  0.0037452  1.5702951 -0.0051929
  0.0070214  0.0197604  1.5745852 -0.0028398  0.0016054  1.5745869 -0.0028415
  0.0071321  0.0202457  1.5699796 -0.0044298  0.0023187  1.5699830 -0.0044332
  0.0062017  0.0198294  1.5743635 -0.0027400  0.0013142  1.5743646 -0.0027411
  0.0057101  0.0198361  1.5742040 -0.0034949  0.0032050  1.5742105 -0.0035015
  0.0062797  0.0203561  1.5688230 -0.0045086  0.0018761  1.5688253 -0.0045108
  0.0057223  0.0204111  1.5690846 -0.0050449  0.0034998  1.5690924 -0.0050526
  0.0061509  0.0194605  1.5775507 -0.0041082  0.0016212  1.5775523 -0.0041098
  0.0060903  0.0189796  1.5820460 -0.0027077  0.0012651  1.5820470 -0.0027087
  0.0056904  0.0194516  1.5773435 -0.0045533  0.0030811  1.5773495 -0.0045593
  0.0056488  0.0189763  1.5818818 -0.0031554  0.0027821  1.5818867 -0.0031602
  0.0064878  0.0194498  1.5775480 -0.0047993  0.0035560  1.5775560 -0.0048073
  0.0069476  0.0194115  1.5774403 -0.0041016  0.0021149  1.5774431 -0.0041045
  0.0064140  0.0189708  1.5820390 -0.0033323  0.0030171  1.5820447 -0.0033381
  0.0068568  0.0189435  1.5820206 -0.0025742  0.0015033  1.5820220 -0.0025757
  0.0065242  0.0212723  1.5609459 -0.0049784  0.0022719  1.5609492 -0.0049817
  0.0063661  0.0207427  1.5659090 -0.0031119  0.0012797  1.5659101 -0.0031129
  0.0060313  0.0213977  1.5617062 -0.0059322  0.0037381  1.5617151 -0.0059411
  0.0058083  0.0208296  1.5662045 -0.0041363  0.0027029  1.5662092 -0.0041409
  0.0068789  0.0211900  1.5629208 -0.0056383  0.0039994  1.5629309 -0.0056485
  0.0073553  0.0210906  1.5623988 -0.0047719  0.0026411  1.5624033 -0.0047764
  0.0067448  0.0206818  1.5672822 -0.0040497  0.0031968  1.5672887 -0.0040562
  0.0072215  0.0206021  1.5669243 -0.0031131  0.0017938  1.5669264 -0.0031152
  0.0069881  0.0215577  1.5596877 -0.0043746  0.0032736  1.5596946 -0.0043815
  0.0071523  0.0220542  1.5555949 -0.0059691  0.0041598  1.5556060 -0.0059802
  0.0074611  0.0214465  1.5591361 -0.0034644  0.0020221  1.5591387 -0.0034670
  0.0076165  0.0219305  1.5549225 -0.0050952  0.0029214  1.5549280 -0.0051006
  0.0066438  0.0216493  1.5570039 -0.0035050  0.0016959  1.5570058 -0.0035068
  0.0061759  0.0217883  1.5576454 -0.0045314  0.0027859  1.5576504 -0.0045363
  0.0068124  0.0221498  1.5530753 -0.0051259  0.0026469  1.5530798 -0.0051304
  0.0063480  0.0222873  1.5537184 -0.0061616  0.0037462  1.5537274 -0.0061706
  0.0077393  0.0180709  1.5899820 -0.0030687  0.0031842  1.5899884 -0.0030751
  0.0078449  0.0185060  1.5859744 -0.0044936  0.0038712  1.5859839 -0.0045030
  0.0081526  0.0180190  1.5897941 -0.0022294  0.0018826  1.5897964 -0.0022316
  0.0082651  0.0184492  1.5857545 -0.0036827  0.0026001  1.5857588 -0.0036869
  0.0074347  0.0181035  1.5893016 -0.0022805  0.0016326  1.5893033 -0.0022822
  0.0070160  0.0181406  1.5893858 -0.0030727  0.0030020  1.5893915 -0.0030784
  0.0075347  0.0185424  1.5851057 -0.0037320  0.0022876  1.5851090 -0.0037353
  0.0071074  0.0185848  1.5852297 -0.0044923  0.0036201  1.5852379 -0.0045006
  0.0073633  0.0177876  1.5918993 -0.0034389  0.0021225  1.5919021 -0.0034417
  0.0072680  0.0173633  1.5959673 -0.0020383  0.0014986  1.5959687 -0.0020397
  0.0069505  0.0178216  1.5919609 -0.0041816  0.0034283  1.5919683 -0.0041890
  0.0068628  0.0173940  1.5960050 -0.0028045  0.0028344  1.5960100 -0.0028095
  0.0076639  0.0177574  1.5925805 -0.0042089  0.0036740  1.5925890 -0.0042173
  0.0080724  0.0177089  1.5924196 -0.0034117  0.0024171  1.5924233 -0.0034153
  0.0075635  0.0173360  1.5965036 -0.0028223  0.0030141  1.5965093 -0.0028280
  0.0079656  0.0172920  1.5963752 -0.0019980  0.0017283  1.5963770 -0.0019999
  0.0062875  0.0181824  1.5890083 -0.0030138  0.0028095  1.5890133 -0.0030188
  0.0063603  0.0186312  1.5847438 -0.0044052  0.0033151  1.5847507 -0.0044121
  0.0067086  0.0181618  1.5890285 -0.0023399  0.0013912  1.5890297 -0.0023411
  0.0067928  0.0186086  1.5847502 -0.0037536  0.0019364  1.5847526 -0.0037559
  0.0059799  0.0181906  1.5890298 -0.0023826  0.0011722  1.5890307 -0.0023835
  0.0055608  0.0181924  1.5888645 -0.0029887  0.0026262  1.5888688 -0.0029930
  0.0060445  0.0186393  1.5846879 -0.0037682  0.0016115  1.5846896 -0.0037698
  0.0056140  0.0186389  1.5845047 -0.0043658  0.0030306  1.5845105 -0.0043716
  0.0059317  0.0178689  1.5915433 -0.0034783  0.0015373  1.5915448 -0.0034797
  0.0058642  0.0174388  1.5957116 -0.0021314  0.0010738  1.5957124 -0.0021321
  0.0055196  0.0178720  1.5913817 -0.0041062  0.0028998  1.5913870 -0.0041115
  0.0054603  0.0174431  1.5955594 -0.0027677  0.0024619  1.5955632 -0.0027715
  0.0062340  0.0178606  1.5915541 -0.0041406  0.0031690  1.5915604 -0.0041469
  0.0066479  0.0178411  1.5915919 -0.0034620  0.0018277  1.5915940 -0.0034641
  0.0061605  0.0174304  1.5956910 -0.0027788  0.0026522  1.5956954 -0.0027832
  0.0065660  0.0174120  1.5957360 -0.0020839  0.0012819  1.5957370 -0.0020849
  0.0073971  0.0166223  1.6028605 -0.0025766  0.0028619  1.6028656 -0.0025817
  0.0074920  0.0170318  1.5990066 -0.0039270  0.0034918  1.5990142 -0.0039346
  0.0077888  0.0165840  1.6027685 -0.0017845  0.0015960  1.6027701 -0.0017861
  0.0078896  0.0169906  1.5988947 -0.0031552  0.0022498  1.5988979 -0.0031584
  0.0071094  0.0166463  1.6024160 -0.0018176  0.0013793  1.6024172 -0.0018188
  0.0067152  0.0166734  1.6024281 -0.0025692  0.0026853  1.6024326 -0.0025736
  0.0072000  0.0170575  1.5984578 -0.0031763  0.0019791  1.5984602 -0.0031787
  0.0067997  0.0170864  1.5984818 -0.0039119  0.0032627  1.5984884 -0.0039185
  0.0070439  0.0163492  1.6048261 -0.0029288  0.0018511  1.6048282 -0.0029309
  0.0069555  0.0159489  1.6086956 -0.0015978  0.0012600  1.6086966 -0.0015988
  0.0066539  0.0163752  1.6048267 -0.0036667  0.0031114  1.6048327 -0.0036727
  0.0065706  0.0159735  1.6086862 -0.0023496  0.0025396  1.6086902 -0.0023536
  0.0073287  0.0163264  1.6052866 -0.0036788  0.0033280  1.6052935 -0.0036857
  0.0077168  0.0162900  1.6052109 -0.0029105  0.0020991  1.6052136 -0.0029132
  0.0072369  0.0159275  1.6090683 -0.0023557  0.0027131  1.6090729 -0.0023603
  0.0076207  0.0158935  1.6090108 -0.0015713  0.0014661  1.6090121 -0.0015727
  0.0060338  0.0167074  1.6021476 -0.0025525  0.0025049  1.6021515 -0.0025564
  0.0061069  0.0171214  1.5981458 -0.0038766  0.0030190  1.5981515 -0.0038823
  0.0064270  0.0166898  1.6021996 -0.0018600  0.0011772  1.6022005 -0.0018609
  0.0065068  0.0171035  1.5981964 -0.0031960  0.0017138  1.5981982 -0.0031979
  0.0057464  0.0167163  1.6021398 -0.0019049  0.0009757  1.6021404 -0.0019055
  0.0053543  0.0167232  1.6020078 -0.0025489  0.0023192  1.6020112 -0.0025523
  0.0058146  0.0171299  1.5981232 -0.0032129  0.0014461  1.5981245 -0.0032142
  0.0054161  0.0171353  1.5979775 -0.0038521  0.0027704  1.5979823 -0.0038569
  0.0056961  0.0164176  1.6044836 -0.0029715  0.0013568  1.6044848 -0.0029726
  0.0056270  0.0160152  1.6084128 -0.0016838  0.0008788  1.6084133 -0.0016843
  0.0053084  0.0164251  1.6043566 -0.0036123  0.0026474  1.6043610 -0.0036166
  0.0052449  0.0160229  1.6082876 -0.0023327  0.0021876  1.6082905 -0.0023356
  0.0059802  0.0164085  1.6045245 -0.0036361  0.0028801  1.6045297 -0.0036413
  0.0063688  0.0163911  1.6045805 -0.0029513  0.0016062  1.6045821 -0.0029529
  0.0059069  0.0160060  1.6084295 -0.0023366  0.0023636  1.6084330 -0.0023401
  0.0062896  0.0159889  1.6084857 -0.0016416  0.0010702  1.6084864 -0.0016423
  0.0057833  0.0153247  1.6145540 -0.0021273  0.0022405  1.6145571 -0.0021304
  0.0058541  0.0157156  1.6107497 -0.0033909  0.0027389  1.6107543 -0.0033955
  0.0061571  0.0153077  1.6146036 -0.0014585  0.0009761  1.6146042 -0.0014591
  0.0062329  0.0156986  1.6108001 -0.0027303  0.0014907  1.6108015 -0.0027317
  0.0055097  0.0153344  1.6145057 -0.0014979  0.0007940  1.6145061 -0.0014983
  0.0051363  0.0153437  1.6144008 -0.0021258  0.0020721  1.6144035 -0.0021284
  0.0055770  0.0157249  1.6106933 -0.0027474  0.0012580  1.6106943 -0.0027483
  0.0051987  0.0157332  1.6105781 -0.0033714  0.0025219  1.6105821 -0.0033753
  0.0054606  0.0150515  1.6167380 -0.0025394  0.0011698  1.6167388 -0.0025403
  0.0053936  0.0146692  1.6204836 -0.0013091  0.0007080  1.6204839 -0.0013094
  0.0050906  0.0150614  1.6166411 -0.0031513  0.0024073  1.6166446 -0.0031549
  0.0050282  0.0146796  1.6203915 -0.0019265  0.0019601  1.6203938 -0.0019289
  0.0057316  0.0150416  1.6168183 -0.0031738  0.0026107  1.6168225 -0.0031780
  0.0061019  0.0150245  1.6168658 -0.0025212  0.0013864  1.6168670 -0.0025224
  0.0056612  0.0146590  1.6205553 -0.0019298  0.0021155  1.6205581 -0.0019325
  0.0060270  0.0146417  1.6205988 -0.0012707  0.0008769  1.6205992 -0.0012712
  0.0067491  0.0149861  1.6170982 -0.0024960  0.0015956  1.6170998 -0.0024975
  0.0066666  0.0146037  1.6208142 -0.0012253  0.0010409  1.6208148 -0.0012260
  0.0063746  0.0150096  1.6170903 -0.0031986  0.0028200  1.6170952 -0.0032035
  0.0062964  0.0146268  1.6208051 -0.0019364  0.0022795  1.6208083 -0.0019396
  0.0070233  0.0149661  1.6174764 -0.0032091  0.0030136  1.6174820 -0.0032147
  0.0073979  0.0149350  1.6174288 -0.0024789  0.0018036  1.6174308 -0.0024809
  0.0069382  0.0145839  1.6211587 -0.0019340  0.0024366  1.6211624 -0.0019376
  0.0073098  0.0145529  1.6211103 -0.0011980  0.0012169  1.6211112 -0.0011989
  0.0070859  0.0152487  1.6151648 -0.0021293  0.0025815  1.6151689 -0.0021334
  0.0071718  0.0156387  1.6114303 -0.0034198  0.0031623  1.6114365 -0.0034260
  0.0074630  0.0152171  1.6151123 -0.0013888  0.0013455  1.6151135 -0.0013899
  0.0075527  0.0156061  1.6113715 -0.0026894  0.0019402  1.6113738 -0.0026917
  0.0068096  0.0152690  1.6148125 -0.0014203  0.0011540  1.6148133 -0.0014211
  0.0064321  0.0152928  1.6148066 -0.0021359  0.0024120  1.6148102 -0.0021395
  0.0068927  0.0156595  1.6110321 -0.0027098  0.0017127  1.6110339 -0.0027117
  0.0065112  0.0156835  1.6110264 -0.0034179  0.0029574  1.6110319 -0.0034233
  0.0065311  0.0139497  1.6267028 -0.0010854  0.0009470  1.6267033 -0.0010859
  0.0061671  0.0139741  1.6267218 -0.0017394  0.0021654  1.6267247 -0.0017423
  0.0066082  0.0143260  1.6230525 -0.0023186  0.0014647  1.6230538 -0.0023199
  0.0062408  0.0143494  1.6230596 -0.0029709  0.0026742  1.6230640 -0.0029752
  0.0064744  0.0136769  1.6289171 -0.0021317  0.0013629  1.6289183 -0.0021329
  0.0063965  0.0133077  1.6325115 -0.0009114  0.0008420  1.6325119 -0.0009119
  0.0061132  0.0137017  1.6289384 -0.0027773  0.0025484  1.6289424 -0.0027813
  0.0060394  0.0133327  1.6325378 -0.0015628  0.0020403  1.6325403 -0.0015653
  0.0067395  0.0136561  1.6293424 -0.0027909  0.0027213  1.6293469 -0.0027955
  0.0071027  0.0136242  1.6292701 -0.0021166  0.0015446  1.6292716 -0.0021180
  0.0066588  0.0132865  1.6329280 -0.0015587  0.0021754  1.6329309 -0.0015616
  0.0070185  0.0132535  1.6328426 -0.0008826  0.0009901  1.6328432 -0.0008832
  0.0067982  0.0139293  1.6270907 -0.0017265  0.0023163  1.6270940 -0.0017298
  0.0068779  0.0143061  1.6234442 -0.0029714  0.0028571  1.6234492 -0.0029764
  0.0071640  0.0138979  1.6270186 -0.0010501  0.0011083  1.6270193 -0.0010509
  0.0072472  0.0142750  1.6233795 -0.0022989  0.0016591  1.6233812 -0.0023005
  0.0054952  0.0137355  1.6286405 -0.0027563  0.0023617  1.6286439 -0.0027597
  0.0058508  0.0137174  1.6286633 -0.0021558  0.0011799  1.6286641 -0.0021566
  0.0054287  0.0133671  1.6322569 -0.0015590  0.0018959  1.6322591 -0.0015612
  0.0057801  0.0133487  1.6322737 -0.0009535  0.0007012  1.6322740 -0.0009538
  0.0055440  0.0140074  1.6264513 -0.0017359  0.0020096  1.6264538 -0.0017383
  0.0056109  0.0143819  1.6227858 -0.0029480  0.0024786  1.6227896 -0.0029517
  0.0059026  0.0139896  1.6264779 -0.0011191  0.0007933  1.6264783 -0.0011195
  0.0059736  0.0143643  1.6228165 -0.0023365  0.0012751  1.6228175 -0.0023375
  0.0052817  0.0140183  1.6263342 -0.0011562  0.0006349  1.6263345 -0.0011565
  0.0049238  0.0140305  1.6262697 -0.0017352  0.0018613  1.6262718 -0.0017373
  0.0053456  0.0143923  1.6226722 -0.0023532  0.0010735  1.6226730 -0.0023539
  0.0049835  0.0144033  1.6225957 -0.0029300  0.0022880  1.6225989 -0.0029332
  0.0052351  0.0137467  1.6284975 -0.0021757  0.0009909  1.6284981 -0.0021763
  0.0051716  0.0133786  1.6321183 -0.0009912  0.0005551  1.6321185 -0.0009914
  0.0048801  0.0137594  1.6284407 -0.0027368  0.0021827  1.6284436 -0.0027397
  0.0048205  0.0133915  1.6320647 -0.0015572  0.0017597  1.6320666 -0.0015591
  0.0053189  0.0127362  1.6380007 -0.0013825  0.0018010  1.6380027 -0.0013844
  0.0053815  0.0130994  1.6344294 -0.0025540  0.0022380  1.6344325 -0.0025571
  0.0056637  0.0127173  1.6379981 -0.0008264  0.0006261  1.6379983 -0.0008266
  0.0057300  0.0130807  1.6344311 -0.0020023  0.0010747  1.6344318 -0.0020030
  0.0050666  0.0127483  1.6378199 -0.0008606  0.0004897  1.6378201 -0.0008607
  0.0047222  0.0127625  1.6377918 -0.0013793  0.0016736  1.6377935 -0.0013810
  0.0051265  0.0131111  1.6342512 -0.0020187  0.0008982  1.6342517 -0.0020192
  0.0047782  0.0131244  1.6342137 -0.0025351  0.0020706  1.6342163 -0.0025377
  0.0050230  0.0124844  1.6399399 -0.0018648  0.0008215  1.6399403 -0.0018652
  0.0049639  0.0121261  1.6434816 -0.0007161  0.0004178  1.6434817 -0.0007162
  0.0046814  0.0124989  1.6399179 -0.0023636  0.0019736  1.6399203 -0.0023659
  0.0046260  0.0121405  1.6434604 -0.0012201  0.0015824  1.6434619 -0.0012216
  0.0052732  0.0124721  1.6401407 -0.0023837  0.0021306  1.6401434 -0.0023865
  0.0056152  0.0124531  1.6401357 -0.0018436  0.0009882  1.6401363 -0.0018442
  0.0052112  0.0121139  1.6436717 -0.0012249  0.0016975  1.6436734 -0.0012267
  0.0055491  0.0120948  1.6436642 -0.0006791  0.0005416  1.6436644 -0.0006792
  0.0051094  0.0114974  1.6493103 -0.0010639  0.0016138  1.6493119 -0.0010655
  0.0051673  0.0118527  1.6458014 -0.0022031  0.0020166  1.6458039 -0.0022055
  0.0054406  0.0114787  1.6492909 -0.0005685  0.0004761  1.6492910 -0.0005687
  0.0055023  0.0118338  1.6457812 -0.0017137  0.0008920  1.6457817 -0.0017142
  0.0048669  0.0115096  1.6490989 -0.0006027  0.0003600  1.6490989 -0.0006028
  0.0045353  0.0115244  1.6490962 -0.0010584  0.0015065  1.6490976 -0.0010598
  0.0049220  0.0118650  1.6455816 -0.0017326  0.0007351  1.6455819 -0.0017329
  0.0045868  0.0118794  1.6455743 -0.0021851  0.0018700  1.6455764 -0.0021872
  0.0048270  0.0112507  1.6511919 -0.0015971  0.0006640  1.6511922 -0.0015974
  0.0047731  0.0108987  1.6546921 -0.0004754  0.0002976  1.6546921 -0.0004754
  0.0044980  0.0112655  1.6511936 -0.0020294  0.0017800  1.6511955 -0.0020313
  0.0044479  0.0109131  1.6546916 -0.0009133  0.0014266  1.6546928 -0.0009145
  0.0050676  0.0112385  1.6514177 -0.0020507  0.0019181  1.6514199 -0.0020529
  0.0053960  0.0112201  1.6513966 -0.0015786  0.0008116  1.6513970 -0.0015790
  0.0050110  0.0108868  1.6549009 -0.0009225  0.0015244  1.6549023 -0.0009239
  0.0053358  0.0108687  1.6548804 -0.0004447  0.0004052  1.6548805 -0.0004448
  0.0059718  0.0111760  1.6516807 -0.0015565  0.0009566  1.6516813 -0.0015571
  0.0059042  0.0108261  1.6551266 -0.0004144  0.0005102  1.6551268 -0.0004145
  0.0056383  0.0112034  1.6517697 -0.0020563  0.0020600  1.6517723 -0.0020589
  0.0055751  0.0108524  1.6552099 -0.0009234  0.0016298  1.6552115 -0.0009250
  0.0062160  0.0111537  1.6522264 -0.0020753  0.0021924  1.6522293 -0.0020782
  0.0065494  0.0111200  1.6520943 -0.0015417  0.0011029  1.6520950 -0.0015424
  0.0061454  0.0108043  1.6556322 -0.0009310  0.0017211  1.6556340 -0.0009328
  0.0064753  0.0107708  1.6554978 -0.0003919  0.0006200  1.6554980 -0.0003922
  0.0062680  0.0114116  1.6500620 -0.0010619  0.0018283  1.6500640 -0.0010639
  0.0063397  0.0117668  1.6466032 -0.0022247  0.0023083  1.6466065 -0.0022279
  0.0066044  0.0113776  1.6499277 -0.0005074  0.0007046  1.6499280 -0.0005077
  0.0066805  0.0117326  1.6464719 -0.0016769  0.0011989  1.6464728 -0.0016777
  0.0060217  0.0114341  1.6495437 -0.0005418  0.0005882  1.6495439 -0.0005420
  0.0056850  0.0114618  1.6496341 -0.0010645  0.0017274  1.6496359 -0.0010663
  0.0060903  0.0117894  1.6460660 -0.0016956  0.0010410  1.6460666 -0.0016963
  0.0057496  0.0118168  1.6461497 -0.0022142  0.0021678  1.6461526 -0.0022170
  0.0057961  0.0102189  1.6606980 -0.0003316  0.0004505  1.6606981 -0.0003317
  0.0054730  0.0102450  1.6608010 -0.0007701  0.0015524  1.6608025 -0.0007716
  0.0058571  0.0105697  1.6572432 -0.0014557  0.0008532  1.6572436 -0.0014562
  0.0055308  0.0105956  1.6573413 -0.0018913  0.0019447  1.6573435 -0.0018936
  0.0057516  0.0099638  1.6628139 -0.0013263  0.0007761  1.6628143 -0.0013266
  0.0056912  0.0096174  1.6662409 -0.0002107  0.0003757  1.6662410 -0.0002108
  0.0054310  0.0099897  1.6629140 -0.0017551  0.0018500  1.6629160 -0.0017572
  0.0053738  0.0096427  1.6663381 -0.0006454  0.0014615  1.6663394 -0.0006467
  0.0059863  0.0099429  1.6633322 -0.0017614  0.0019665  1.6633345 -0.0017637
  0.0063068  0.0099120  1.6631975 -0.0013072  0.0009045  1.6631980 -0.0013077
  0.0059235  0.0095970  1.6667261 -0.0006455  0.0015458  1.6667275 -0.0006470
  0.0062410  0.0095666  1.6665921 -0.0001862  0.0004732  1.6665922 -0.0001863
  0.0060326  0.0101978  1.6612031 -0.0007681  0.0016450  1.6612048 -0.0007698
  0.0060963  0.0105482  1.6577855 -0.0018929  0.0020708  1.6577881 -0.0018955
  0.0063557  0.0101662  1.6610622 -0.0002983  0.0005549  1.6610624 -0.0002985
  0.0064234  0.0105153  1.6576378 -0.0014318  0.0009955  1.6576384 -0.0014324
  0.0048811  0.0100230  1.6625745 -0.0017533  0.0017270  1.6625763 -0.0017550
  0.0051977  0.0100055  1.6625427 -0.0013414  0.0006514  1.6625430 -0.0013416
  0.0048299  0.0096750  1.6660376 -0.0006455  0.0013699  1.6660388 -0.0006466
  0.0051431  0.0096581  1.6660089 -0.0002280  0.0002819  1.6660089 -0.0002280
  0.0049190  0.0102788  1.6604883 -0.0007735  0.0014518  1.6604896 -0.0007747
  0.0049712  0.0106296  1.6570043 -0.0018896  0.0018154  1.6570063 -0.0018916
  0.0052380  0.0102611  1.6604562 -0.0003455  0.0003486  1.6604562 -0.0003456
  0.0052934  0.0106117  1.6569721 -0.0014660  0.0007232  1.6569724 -0.0014663
  0.0046853  0.0102905  1.6602662 -0.0003733  0.0002469  1.6602662 -0.0003734
  0.0043659  0.0103049  1.6602789 -0.0007667  0.0013585  1.6602800 -0.0007678
  0.0047352  0.0106414  1.6567726 -0.0014827  0.0005857  1.6567729 -0.0014829
  0.0044125  0.0106557  1.6567831 -0.0018728  0.0016861  1.6567848 -0.0018745
  0.0046492  0.0100346  1.6623443 -0.0013614  0.0005210  1.6623445 -0.0013615
  0.0046005  0.0096862  1.6658275 -0.0002576  0.0001896  1.6658275 -0.0002576
  0.0043323  0.0100488  1.6623593 -0.0017355  0.0016046  1.6623608 -0.0017371
  0.0042870  0.0097000  1.6658398 -0.0006367  0.0012853  1.6658408 -0.0006377
  0.0047461  0.0090719  1.6716070 -0.0005115  0.0013005  1.6716080 -0.0005125
  0.0047937  0.0094202  1.6681257 -0.0016150  0.0016324  1.6681273 -0.0016166
  0.0050542  0.0090553  1.6715677 -0.0001375  0.0002271  1.6715677 -0.0001375
  0.0051046  0.0094035  1.6680874 -0.0012441  0.0005686  1.6680876 -0.0012443
  0.0045206  0.0090830  1.6713863 -0.0001618  0.0001411  1.6713863 -0.0001619
  0.0042126  0.0090966  1.6714086 -0.0005045  0.0012210  1.6714095 -0.0005054
  0.0045660  0.0094313  1.6678980 -0.0012593  0.0004500  1.6678981 -0.0012594
  0.0042549  0.0094449  1.6679186 -0.0015990  0.0015192  1.6679200 -0.0016003
  0.0044876  0.0088288  1.6734584 -0.0011520  0.0003903  1.6734585 -0.0011521
  0.0044428  0.0084826  1.6769393 -0.0000579  0.0000854  1.6769393 -0.0000580
  0.0041818  0.0088424  1.6734817 -0.0014817  0.0014448  1.6734829 -0.0014829
  0.0041400  0.0084959  1.6769616 -0.0003913  0.0011503  1.6769624 -0.0003920
  0.0047115  0.0088178  1.6736847 -0.0014962  0.0015508  1.6736861 -0.0014977
  0.0050174  0.0088015  1.6736463 -0.0011336  0.0005019  1.6736465 -0.0011338
  0.0046645  0.0084719  1.6771501 -0.0003986  0.0012228  1.6771510 -0.0003995
  0.0049673  0.0084560  1.6771146 -0.0000313  0.0001627  1.6771146 -0.0000313
  0.0043688  0.0078821  1.6825003  0.0000288  0.0000376  1.6825003  0.0000288
  0.0040707  0.0078954  1.6825317 -0.0002748  0.0010886  1.6825324 -0.0002755
  0.0044110  0.0082289  1.6790070 -0.0010631  0.0003245  1.6790071 -0.0010631
  0.0041102  0.0082421  1.6790363 -0.0013645  0.0013663  1.6790375 -0.0013656
  0.0043381  0.0076288  1.6845721 -0.0009701  0.0002682  1.6845721 -0.0009702
  0.0042964  0.0072836  1.6880649  0.0001206 -0.0000155  1.6880649  0.0001206
  0.0040420  0.0076420  1.6846038 -0.0012622  0.0012966  1.6846048 -0.0012632
  0.0040030  0.0072964  1.6880937 -0.0001752  0.0010229  1.6880943 -0.0001759
  0.0045549  0.0076182  1.6848011 -0.0012757  0.0013873  1.6848022 -0.0012769
  0.0048513  0.0076025  1.6847556 -0.0009520  0.0003634  1.6847557 -0.0009521
  0.0045112  0.0072735  1.6882742 -0.0001836  0.0010815  1.6882749 -0.0001843
  0.0048046  0.0072583  1.6882333  0.0001450  0.0000466  1.6882333  0.0001450
  0.0045871  0.0078714  1.6827253 -0.0002805  0.0011559  1.6827261 -0.0002813
  0.0046312  0.0082183  1.6792338 -0.0013783  0.0014630  1.6792351 -0.0013796
  0.0048854  0.0078555  1.6826778  0.0000488  0.0001093  1.6826778  0.0000488
  0.0049320  0.0082025  1.6791895 -0.0010508  0.0004246  1.6791896 -0.0010509
  0.0055524  0.0087619  1.6738994 -0.0011220  0.0006061  1.6738996 -0.0011222
  0.0054971  0.0084175  1.6773333 -0.0000188  0.0002395  1.6773333 -0.0000188
  0.0052427  0.0087865  1.6740062 -0.0014944  0.0016550  1.6740079 -0.0014961
  0.0051904  0.0084414  1.6774375 -0.0003962  0.0012992  1.6774385 -0.0003972
  0.0057793  0.0087423  1.6744005 -0.0014999  0.0017545  1.6744023 -0.0015017
  0.0060895  0.0087131  1.6742607 -0.0011050  0.0007127  1.6742610 -0.0011053
  0.0057219  0.0083982  1.6778085 -0.0003959  0.0013689  1.6778096 -0.0003970
  0.0060292  0.0083695  1.6776690  0.0000033  0.0003171  1.6776691  0.0000032
  0.0058215  0.0089955  1.6722843 -0.0005026  0.0014645  1.6722856 -0.0005038
  0.0058794  0.0093432  1.6688543 -0.0016136  0.0018525  1.6688564 -0.0016157
  0.0061339  0.0089660  1.6721403 -0.0000978  0.0003997  1.6721404 -0.0000979
  0.0061946  0.0093131  1.6687092 -0.0012135  0.0007981  1.6687095 -0.0012139
  0.0055930  0.0090154  1.6717940 -0.0001235  0.0003130  1.6717940 -0.0001236
  0.0052811  0.0090402  1.6719045 -0.0005044  0.0013869  1.6719056 -0.0005055
  0.0056487  0.0093633  1.6683412 -0.0012324  0.0006808  1.6683415 -0.0012327
  0.0053337  0.0093882  1.6684497 -0.0016099  0.0017444  1.6684515 -0.0016118
  0.0054067  0.0078176  1.6828959  0.0000590  0.0001804  1.6828959  0.0000589
  0.0051051  0.0078410  1.6830107 -0.0002723  0.0012286  1.6830116 -0.0002732
  0.0054581  0.0081644  1.6794294 -0.0010426  0.0005191  1.6794296 -0.0010428
  0.0051535  0.0081881  1.6795427 -0.0013709  0.0015575  1.6795441 -0.0013723
  0.0053691  0.0075650  1.6849984 -0.0009452  0.0004511  1.6849985 -0.0009453
  0.0053176  0.0072216  1.6884417  0.0001506  0.0001104  1.6884417  0.0001506
  0.0050695  0.0075882  1.6851086 -0.0012738  0.0014755  1.6851099 -0.0012751
  0.0050207  0.0072445  1.6885509 -0.0001818  0.0011446  1.6885517 -0.0001826
  0.0055888  0.0075461  1.6854928 -0.0012765  0.0015608  1.6854942 -0.0012779
  0.0058896  0.0075179  1.6853463 -0.0009267  0.0005440  1.6853464 -0.0009268
  0.0055353  0.0072032  1.6889055 -0.0001819  0.0012013  1.6889064 -0.0001828
  0.0058330  0.0071757  1.6887617  0.0001728  0.0001736  1.6887617  0.0001728
  0.0056280  0.0077986  1.6833811 -0.0002720  0.0012929  1.6833821 -0.0002730
  0.0056813  0.0081453  1.6799320 -0.0013755  0.0016495  1.6799336 -0.0013771
  0.0059307  0.0077701  1.6832273  0.0000756  0.0002518  1.6832273  0.0000756
  0.0059867  0.0081168  1.6797813 -0.0010302  0.0006170  1.6797816 -0.0010304
  0.0066335  0.0086459  1.6747253 -0.0010958  0.0008077  1.6747257 -0.0010962
  0.0065681  0.0083037  1.6780836  0.0000073  0.0003926  1.6780837  0.0000072
  0.0063184  0.0086873  1.6749733 -0.0014772  0.0018447  1.6749753 -0.0014792
  0.0062560  0.0083442  1.6783288 -0.0003795  0.0014405  1.6783300 -0.0003807
  0.0068642  0.0086136  1.6756417 -0.0014774  0.0019298  1.6756440 -0.0014796
  0.0071792  0.0085668  1.6753522 -0.0010833  0.0009020  1.6753527 -0.0010838
  0.0067968  0.0082719  1.6789707 -0.0003751  0.0015003  1.6789720 -0.0003764
  0.0071094  0.0082256  1.6786804  0.0000227  0.0004640  1.6786805  0.0000225
  0.0069140  0.0088651  1.6734526 -0.0004732  0.0016123  1.6734541 -0.0004747
  0.0069826  0.0092104  1.6701038 -0.0015845  0.0020494  1.6701063 -0.0015870
  0.0072312  0.0088177  1.6731578 -0.0000619  0.0005629  1.6731580 -0.0000621
  0.0073032  0.0091623  1.6698093 -0.0011787  0.0010119  1.6698099 -0.0011794
  0.0066817  0.0088978  1.6725602 -0.0000864  0.0004862  1.6725603 -0.0000866
  0.0063643  0.0089398  1.6728144 -0.0004827  0.0015453  1.6728158 -0.0004842
  0.0067479  0.0092437  1.6691851 -0.0011965  0.0009063  1.6691856 -0.0011970
  0.0064274  0.0092865  1.6694398 -0.0015879  0.0019545  1.6694421 -0.0015902
  0.0064612  0.0077054  1.6836403  0.0000754  0.0003251  1.6836404  0.0000753
  0.0061540  0.0077451  1.6838965 -0.0002553  0.0013623  1.6838976 -0.0002564
  0.0065220  0.0080517  1.6802398 -0.0010246  0.0007073  1.6802401 -0.0010249
  0.0062119  0.0080917  1.6804933 -0.0013524  0.0017352  1.6804951 -0.0013542
  0.0064165  0.0074537  1.6858008 -0.0009211  0.0006306  1.6858010 -0.0009214
  0.0063551  0.0071121  1.6891582  0.0001693  0.0002429  1.6891583  0.0001693
  0.0061113  0.0074931  1.6860470 -0.0012573  0.0016422  1.6860486 -0.0012589
  0.0060527  0.0071513  1.6894072 -0.0001698  0.0012637  1.6894081 -0.0001707
  0.0066406  0.0074224  1.6867041 -0.0012494  0.0017243  1.6867059 -0.0012512
  0.0069476  0.0073764  1.6864121 -0.0008914  0.0007242  1.6864124 -0.0008917
  0.0065772  0.0070810  1.6900234 -0.0001609  0.0013183  1.6900244 -0.0001619
  0.0068817  0.0070350  1.6897256  0.0001990  0.0003104  1.6897257  0.0001990
  0.0066867  0.0076740  1.6845308 -0.0002524  0.0014262  1.6845320 -0.0002536
  0.0067492  0.0080202  1.6811662 -0.0013484  0.0018216  1.6811682 -0.0013504
  0.0069955  0.0076280  1.6842264  0.0000863  0.0004030  1.6842265  0.0000862
  0.0070601  0.0079741  1.6808663 -0.0010111  0.0008049  1.6808667 -0.0010115
  0.0077310  0.0084602  1.6761737 -0.0010910  0.0010324  1.6761743 -0.0010916
  0.0076510  0.0081277  1.6793458 -0.0000181  0.0005747  1.6793460 -0.0000183
  0.0074115  0.0085257  1.6766138 -0.0014247  0.0020091  1.6766162 -0.0014271
  0.0073383  0.0081870  1.6797525 -0.0003752  0.0015823  1.6797539 -0.0003767
  0.0079525  0.0084058  1.6780608 -0.0013794  0.0020522  1.6780633 -0.0013819
  0.0082378  0.0083229  1.6775645 -0.0009781  0.0012971  1.6775655 -0.0009791
  0.0078710  0.0080852  1.6805531 -0.0004854  0.0016133  1.6805546 -0.0004870
  0.0081595  0.0080285  1.6802654 -0.0000018  0.0008106  1.6802658 -0.0000022
  0.0080208  0.0086488  1.6753724 -0.0003848  0.0016630  1.6753740 -0.0003865
  0.0081260  0.0089922  1.6723191 -0.0015283  0.0022680  1.6723222 -0.0015314
  0.0083281  0.0085538  1.6746722  0.0001735  0.0006756  1.6746724  0.0001732
  0.0084964  0.0088899  1.6718112 -0.0010277  0.0014206  1.6718124 -0.0010289
  0.0077897  0.0087083  1.6738633 -0.0000751  0.0006064  1.6738635 -0.0000753
  0.0074658  0.0087758  1.6743440 -0.0004438  0.0016579  1.6743457 -0.0004454
  0.0078700  0.0090539  1.6705572 -0.0011915  0.0010783  1.6705579 -0.0011922
  0.0075410  0.0091203  1.6710124 -0.0015613  0.0021175  1.6710150 -0.0015640
  0.0075398  0.0075330  1.6849459  0.0001284  0.0004949  1.6849460  0.0001283
  0.0072241  0.0075902  1.6853315 -0.0002154  0.0014996  1.6853329 -0.0002167
  0.0075998  0.0078793  1.6816221 -0.0009571  0.0008910  1.6816226 -0.0009576
  0.0072880  0.0079363  1.6820177 -0.0013036  0.0019078  1.6820199 -0.0013058
  0.0074920  0.0072795  1.6871173 -0.0008948  0.0007838  1.6871177 -0.0008952
  0.0074213  0.0069333  1.6903877  0.0001840  0.0003682  1.6903878  0.0001839
  0.0071758  0.0073381  1.6875235 -0.0012124  0.0017929  1.6875254 -0.0012143
  0.0071079  0.0069955  1.6908340 -0.0001232  0.0013791  1.6908352 -0.0001244
  0.0077289  0.0072415  1.6882374 -0.0013133  0.0018426  1.6882394 -0.0013153
  0.0080599  0.0071965  1.6879029 -0.0009425  0.0006078  1.6879031 -0.0009427
  0.0076686  0.0068782  1.6921885 -0.0000427  0.0014169  1.6921897 -0.0000439
  0.0080306  0.0067898  1.6915435  0.0001839  0.0003335  1.6915436  0.0001839
  0.0077701  0.0074999  1.6859146 -0.0002084  0.0016837  1.6859163 -0.0002101
  0.0078222  0.0078425  1.6826256 -0.0012349  0.0019587  1.6826278 -0.0012372
  0.0080833  0.0074669  1.6856816 -0.0000428  0.0006605  1.6856818 -0.0000430
  0.0081181  0.0077991  1.6822537 -0.0010996  0.0008907  1.6822542 -0.0011001
  0.0086984  0.0083306  1.6766183  0.0000679  0.0014657  1.6766196  0.0000666
  0.0085097  0.0084685  1.6763822 -0.0009112  0.0012407  1.6763831 -0.0009121
  0.0088851  0.0084709  1.6762518 -0.0009550  0.0017598  1.6762537 -0.0009568
  0.0086998  0.0087502  1.6761685 -0.0014290  0.0015145  1.6761698 -0.0014304
  0.0086251  0.0081950  1.6780664 -0.0011464  0.0011800  1.6780672 -0.0011472
  0.0086118  0.0079649  1.6810061 -0.0002391  0.0009520  1.6810067 -0.0002396
  0.0084181  0.0082665  1.6788279 -0.0013030  0.0020303  1.6788303 -0.0013054
  0.0083580  0.0079962  1.6811717 -0.0005227  0.0017164  1.6811735 -0.0005245
  0.0087749  0.0081968  1.6780245 -0.0011003  0.0016501  1.6780261 -0.0011019
  0.0089772  0.0082731  1.6787927 -0.0012654  0.0008732  1.6787931 -0.0012659
  0.0087954  0.0079691  1.6807453 -0.0002436  0.0019083  1.6807474 -0.0002458
  0.0090433  0.0080120  1.6809914 -0.0005146  0.0012040  1.6809922 -0.0005155
  0.0086150  0.0074495  1.6860291 -0.0001695  0.0007486  1.6860294 -0.0001698
  0.0083097  0.0074534  1.6860430 -0.0002346  0.0017460  1.6860448 -0.0002364
  0.0086091  0.0077651  1.6827173 -0.0011615  0.0007576  1.6827176 -0.0011618
  0.0083289  0.0077784  1.6828395 -0.0012002  0.0018421  1.6828415 -0.0012022
  0.0086288  0.0072058  1.6882477 -0.0012397  0.0005838  1.6882479 -0.0012399
  0.0086604  0.0068555  1.6922272 -0.0000214  0.0008140  1.6922275 -0.0000218
  0.0083010  0.0071869  1.6881199 -0.0010280  0.0018567  1.6881220 -0.0010301
  0.0082964  0.0067837  1.6916590  0.0000309  0.0019356  1.6916612  0.0000287
  0.0088600  0.0072282  1.6874155 -0.0009516  0.0017117  1.6874173 -0.0009534
  0.0091637  0.0072705  1.6877377 -0.0011295  0.0006905  1.6877380 -0.0011298
  0.0089063  0.0069003  1.6904999  0.0000139  0.0019732  1.6905022  0.0000116
  0.0092140  0.0069509  1.6908882 -0.0001387  0.0009748  1.6908888 -0.0001393
  0.0088345  0.0074618  1.6855148 -0.0001124  0.0020241  1.6855173 -0.0001149
  0.0088114  0.0077721  1.6824255 -0.0010553  0.0018608  1.6824275 -0.0010573
  0.0091289  0.0074993  1.6857995 -0.0002175  0.0010793  1.6858002 -0.0002182
  0.0090840  0.0078047  1.6827097 -0.0011760  0.0008380  1.6827101 -0.0011764
  0.0093735  0.0086478  1.6751532 -0.0004048  0.0014380  1.6751544 -0.0004060
  0.0090660  0.0085558  1.6744914  0.0001193  0.0024078  1.6744949  0.0001159
  0.0092763  0.0089790  1.6722203 -0.0014866  0.0008788  1.6722207 -0.0014871
  0.0089052  0.0088870  1.6717843 -0.0009968  0.0017239  1.6717861 -0.0009986
  0.0094394  0.0084152  1.6778032 -0.0013599  0.0009057  1.6778037 -0.0013604
  0.0095224  0.0081107  1.6800633 -0.0005169  0.0013490  1.6800644 -0.0005180
  0.0091552  0.0083316  1.6773613 -0.0008975  0.0015975  1.6773628 -0.0008990
  0.0092381  0.0080500  1.6797844  0.0000201  0.0020898  1.6797870  0.0000175
  0.0096579  0.0084685  1.6757868 -0.0010611  0.0019329  1.6757890 -0.0010633
  0.0099705  0.0085307  1.6761756 -0.0014244  0.0010070  1.6761762 -0.0014250
  0.0097383  0.0081541  1.6786936 -0.0000612  0.0023817  1.6786970 -0.0000645
  0.0100439  0.0082117  1.6790644 -0.0004433  0.0014280  1.6790656 -0.0004446
  0.0096018  0.0087042  1.6735684 -0.0001560  0.0025342  1.6735722 -0.0001598
  0.0095289  0.0090336  1.6704950 -0.0011827  0.0021168  1.6704977 -0.0011854
  0.0099179  0.0087662  1.6739997 -0.0004905  0.0015266  1.6740011 -0.0004919
  0.0098477  0.0090906  1.6708743 -0.0015323  0.0011073  1.6708750 -0.0015330
  0.0096407  0.0075736  1.6849648 -0.0002952  0.0011913  1.6849656 -0.0002961
  0.0093449  0.0075293  1.6846961  0.0000540  0.0021248  1.6846988  0.0000513
  0.0095764  0.0078852  1.6820457 -0.0012645  0.0008082  1.6820461 -0.0012649
  0.0092890  0.0078350  1.6817022 -0.0009294  0.0017557  1.6817040 -0.0009312
  0.0096853  0.0073435  1.6869520 -0.0011767  0.0007477  1.6869523 -0.0011770
  0.0097428  0.0070266  1.6900106 -0.0001882  0.0010909  1.6900113 -0.0001889
  0.0093849  0.0073014  1.6866665 -0.0008856  0.0017509  1.6866683 -0.0008874
  0.0094381  0.0069848  1.6897366  0.0001014  0.0020812  1.6897391  0.0000988
  0.0099072  0.0073749  1.6859031 -0.0008714  0.0018024  1.6859050 -0.0008734
  0.0102129  0.0074186  1.6861791 -0.0012200  0.0008019  1.6861795 -0.0012204
  0.0099669  0.0070568  1.6889951  0.0001410  0.0021777  1.6889979  0.0001382
  0.0102746  0.0070973  1.6892381 -0.0002166  0.0011775  1.6892389 -0.0002174
  0.0098604  0.0076071  1.6838633  0.0000755  0.0022429  1.6838662  0.0000725
  0.0097926  0.0079233  1.6808812 -0.0009312  0.0018208  1.6808832 -0.0009331
  0.0101650  0.0076543  1.6841317 -0.0003376  0.0012984  1.6841327 -0.0003386
  0.0100960  0.0079769  1.6812086 -0.0013241  0.0008852  1.6812091 -0.0013245
  0.0104652  0.0088512  1.6729746 -0.0005372  0.0016205  1.6729762 -0.0005387
  0.0101493  0.0088056  1.6727102 -0.0001197  0.0026310  1.6727144 -0.0001238
  0.0103946  0.0091745  1.6699010 -0.0015702  0.0011929  1.6699019 -0.0015711
  0.0100797  0.0091283  1.6696297 -0.0011537  0.0022052  1.6696326 -0.0011566
  0.0105166  0.0086144  1.6750540 -0.0014850  0.0010927  1.6750547 -0.0014857
  0.0105867  0.0082907  1.6781317 -0.0004522  0.0015177  1.6781330 -0.0004536
  0.0102006  0.0085698  1.6747971 -0.0010661  0.0021085  1.6747997 -0.0010688
  0.0102712  0.0082483  1.6778937 -0.0000252  0.0025396  1.6778976 -0.0000291
  0.0107487  0.0086466  1.6739796 -0.0010644  0.0022118  1.6739825 -0.0010673
  0.0110665  0.0086900  1.6742205 -0.0015046  0.0011884  1.6742213 -0.0015054
  0.0108187  0.0083213  1.6771095 -0.0000118  0.0026480  1.6771137 -0.0000160
  0.0111372  0.0083623  1.6773277 -0.0004593  0.0016219  1.6773293 -0.0004609
  0.0106968  0.0088843  1.6718887 -0.0001088  0.0027368  1.6718931 -0.0001133
  0.0106253  0.0092084  1.6688048 -0.0011535  0.0022933  1.6688079 -0.0011566
  0.0110138  0.0089291  1.6721329 -0.0005599  0.0017333  1.6721347 -0.0005617
  0.0109405  0.0092548  1.6690671 -0.0016009  0.0012878  1.6690681 -0.0016019
  0.0107055  0.0077242  1.6833227 -0.0003531  0.0013939  1.6833239 -0.0003543
  0.0103914  0.0076857  1.6831199  0.0000801  0.0024134  1.6831234  0.0000766
  0.0106373  0.0080522  1.6802080 -0.0013937  0.0009733  1.6802086 -0.0013943
  0.0103223  0.0080114  1.6799865 -0.0009689  0.0019859  1.6799889 -0.0009712
  0.0107536  0.0074845  1.6853884 -0.0012868  0.0008676  1.6853888 -0.0012873
  0.0108168  0.0071577  1.6885182 -0.0002533  0.0012656  1.6885191 -0.0002542
  0.0104397  0.0074480  1.6851950 -0.0008704  0.0018982  1.6851971 -0.0008725
  0.0105023  0.0071244  1.6883561  0.0001735  0.0023003  1.6883592  0.0001704
  0.0109854  0.0075102  1.6845046 -0.0008917  0.0020142  1.6845070 -0.0008941
  0.0113048  0.0075440  1.6846740 -0.0013140  0.0009557  1.6846746 -0.0013145
  0.0110489  0.0071812  1.6877371  0.0001731  0.0024198  1.6877406  0.0001696
  0.0113687  0.0072122  1.6878797 -0.0002585  0.0013571  1.6878808 -0.0002595
  0.0109372  0.0077515  1.6824195  0.0000885  0.0025400  1.6824234  0.0000846
  0.0108692  0.0080814  1.6792101 -0.0009808  0.0021123  1.6792128 -0.0009835
  0.0112564  0.0077874  1.6825989 -0.0003535  0.0014956  1.6826002 -0.0003548
  0.0111881  0.0081205  1.6794191 -0.0014124  0.0010729  1.6794198 -0.0014131
  0.0115689  0.0089987  1.6713292 -0.0005892  0.0018469  1.6713312 -0.0005912
  0.0112475  0.0089598  1.6711528 -0.0000730  0.0028726  1.6711577 -0.0000780
  0.0114930  0.0093291  1.6682179 -0.0016560  0.0013768  1.6682190 -0.0016572
  0.0111730  0.0092871  1.6680112 -0.0011490  0.0024003  1.6680147 -0.0011524
  0.0116232  0.0087561  1.6734079 -0.0015536  0.0012695  1.6734089 -0.0015546
  0.0116957  0.0084236  1.6765850 -0.0004794  0.0017227  1.6765868 -0.0004811
  0.0113009  0.0087194  1.6732373 -0.0010601  0.0023212  1.6732405 -0.0010633
  0.0113722  0.0083898  1.6764432  0.0000232  0.0027769  1.6764478  0.0000186
  0.0118606  0.0087834  1.6725131 -0.0010688  0.0024285  1.6725166 -0.0010723
  0.0121867  0.0088213  1.6726883 -0.0015751  0.0013712  1.6726894 -0.0015763
  0.0119338  0.0084487  1.6757542  0.0000300  0.0028958  1.6757592  0.0000250
  0.0122609  0.0084836  1.6758999 -0.0004858  0.0018353  1.6759019 -0.0004878
  0.0118056  0.0090276  1.6703930 -0.0000754  0.0030023  1.6703984 -0.0000808
  0.0117286  0.0093602  1.6672175 -0.0011674  0.0025172  1.6672213 -0.0011712
  0.0121309  0.0090677  1.6705741 -0.0006030  0.0019708  1.6705765 -0.0006053
  0.0120524  0.0094033  1.6674279 -0.0016862  0.0014878  1.6674292 -0.0016876
  0.0118159  0.0078420  1.6819197 -0.0003657  0.0015888  1.6819212 -0.0003672
  0.0114919  0.0078117  1.6817984  0.0001169  0.0026622  1.6818026  0.0001127
  0.0117473  0.0081787  1.6786609 -0.0014525  0.0011528  1.6786616 -0.0014533
  0.0114234  0.0081465  1.6785228 -0.0009759  0.0022231  1.6785258 -0.0009788
  0.0118646  0.0075956  1.6839999 -0.0013521  0.0010329  1.6840005 -0.0013527
  0.0119291  0.0072589  1.6872783 -0.0002709  0.0014467  1.6872795 -0.0002721
  0.0115404  0.0075669  1.6838843 -0.0008915  0.0021186  1.6838870 -0.0008942
  0.0116045  0.0072330  1.6871898  0.0001989  0.0025364  1.6871936  0.0001950
  0.0121034  0.0076162  1.6832914 -0.0009010  0.0022218  1.6832943 -0.0009039
  0.0124317  0.0076437  1.6833955 -0.0013689  0.0011191  1.6833962 -0.0013697
  0.0121681  0.0072775  1.6866494  0.0002056  0.0026439  1.6866536  0.0002014
  0.0124967  0.0073025  1.6867278 -0.0002711  0.0015371  1.6867292 -0.0002725
  0.0120546  0.0078640  1.6811874  0.0001228  0.0027749  1.6811919  0.0001182
  0.0119858  0.0082024  1.6778665 -0.0009844  0.0023314  1.6778697 -0.0009876
  0.0123826  0.0078936  1.6812999 -0.0003680  0.0016879  1.6813016 -0.0003697
  0.0123134  0.0082350  1.6780081 -0.0014652  0.0012489  1.6780090 -0.0014661
  0.0126981  0.0091351  1.6698057 -0.0006129  0.0020980  1.6698083 -0.0006155
  0.0123700  0.0090965  1.6696437 -0.0000633  0.0031410  1.6696496 -0.0000692
  0.0126177  0.0094761  1.6666080 -0.0017175  0.0016010  1.6666095 -0.0017190
  0.0122906  0.0094343  1.6664149 -0.0011781  0.0026401  1.6664191 -0.0011823
  0.0127554  0.0088845  1.6719444 -0.0016075  0.0014729  1.6719457 -0.0016088
  0.0128315  0.0085408  1.6752145 -0.0004956  0.0019503  1.6752168 -0.0004979
  0.0124265  0.0088484  1.6717904 -0.0010814  0.0025421  1.6717943 -0.0010853
  0.0125015  0.0085083  1.6750949  0.0000416  0.0030234  1.6751004  0.0000361
  0.0129978  0.0089117  1.6710425 -0.0011001  0.0026583  1.6710468 -0.0011044
  0.0133313  0.0089499  1.6712124 -0.0016300  0.0015803  1.6712139 -0.0016315
  0.0130747  0.0085653  1.6744002  0.0000425  0.0031503  1.6744061  0.0000366
  0.0134091  0.0085994  1.6745313 -0.0005004  0.0020669  1.6745338 -0.0005029
  0.0129398  0.0091642  1.6688500 -0.0000704  0.0032780  1.6688565 -0.0000769
  0.0128582  0.0095078  1.6655828 -0.0012013  0.0027664  1.6655873 -0.0012059
  0.0132721  0.0092053  1.6690296 -0.0006214  0.0022339  1.6690326 -0.0006244
  0.0131884  0.0095527  1.6658003 -0.0017413  0.0017244  1.6658021 -0.0017431
  0.0129544  0.0079426  1.6806872 -0.0003743  0.0017885  1.6806891 -0.0003762
  0.0126237  0.0079147  1.6805932  0.0001294  0.0028883  1.6805981  0.0001244
  0.0128848  0.0082885  1.6773391 -0.0014898  0.0013429  1.6773402 -0.0014909
  0.0125543  0.0082581  1.6772215 -0.0009945  0.0024385  1.6772251 -0.0009980
  0.0130039  0.0076893  1.6828051 -0.0013894  0.0012052  1.6828060 -0.0013902
  0.0130692  0.0073432  1.6861899 -0.0002747  0.0016290  1.6861915 -0.0002763
  0.0126730  0.0076634  1.6827184 -0.0009094  0.0023195  1.6827216 -0.0009126
  0.0127382  0.0073201  1.6861308  0.0002148  0.0027478  1.6861353  0.0002104
  0.0132474  0.0077082  1.6821451 -0.0009229  0.0024237  1.6821486 -0.0009264
  0.0135818  0.0077339  1.6822290 -0.0014012  0.0012976  1.6822300 -0.0014022
  0.0133127  0.0073601  1.6856063  0.0002148  0.0028526  1.6856111  0.0002100
  0.0136469  0.0073829  1.6856635 -0.0002735  0.0017206  1.6856652 -0.0002753
  0.0131980  0.0079631  1.6799921  0.0001277  0.0030027  1.6799975  0.0001223
  0.0131283  0.0083111  1.6765684 -0.0010110  0.0025509  1.6765723 -0.0010149
  0.0135326  0.0079910  1.6800865 -0.0003762  0.0018883  1.6800886 -0.0003784
  0.0134630  0.0083425  1.6766958 -0.0015026  0.0014437  1.6766971 -0.0015039
  0.0138504  0.0092808  1.6681949 -0.0006286  0.0023734  1.6681983 -0.0006320
  0.0135161  0.0092365  1.6679935 -0.0000710  0.0034130  1.6680005 -0.0000779
  0.0137628  0.0096367  1.6649231 -0.0017703  0.0018457  1.6649252 -0.0017724
  0.0134308  0.0095872  1.6646709 -0.0012284  0.0028805  1.6646759 -0.0012334
  0.0139115  0.0090190  1.6704381 -0.0016599  0.0016934  1.6704398 -0.0016616
  0.0139906  0.0086598  1.6738220 -0.0005089  0.0021880  1.6738248 -0.0005118
  0.0135761  0.0089786  1.6702500 -0.0011328  0.0027722  1.6702546 -0.0011374
  0.0136545  0.0086248  1.6736845  0.0000363  0.0032759  1.6736909  0.0000299
  0.0141604  0.0090492  1.6694176 -0.0011747  0.0029086  1.6694227 -0.0011797
  0.0145050  0.0090912  1.6696190 -0.0017031  0.0017999  1.6696209 -0.0017050
  0.0142399  0.0086851  1.6729786  0.0000329  0.0034225  1.6729856  0.0000259
  0.0145850  0.0087192  1.6731067 -0.0005225  0.0022993  1.6731098 -0.0005257
  0.0140984  0.0093147  1.6670741 -0.0000729  0.0035674  1.6670818 -0.0000805
  0.0140085  0.0096760  1.6636359 -0.0012810  0.0030000  1.6636413 -0.0012864
  0.0144415  0.0093630  1.6672970 -0.0006600  0.0025127  1.6673008 -0.0006638
  0.0143479  0.0097337  1.6639489 -0.0018389  0.0019561  1.6639512 -0.0018412
  0.0141138  0.0080389  1.6794793 -0.0003801  0.0019966  1.6794816 -0.0003825
  0.0137780  0.0080113  1.6793849  0.0001141  0.0031161  1.6793907  0.0001083
  0.0140448  0.0083971  1.6760311 -0.0015204  0.0015551  1.6760325 -0.0015218
  0.0137086  0.0083656  1.6758992 -0.0010403  0.0026662  1.6759034 -0.0010445
  0.0141623  0.0077775  1.6816523 -0.0014017  0.0014002  1.6816535 -0.0014029
  0.0142259  0.0074217  1.6851363 -0.0002649  0.0018134  1.6851382 -0.0002668
  0.0138270  0.0077524  1.6815680 -0.0009416  0.0025289  1.6815718 -0.0009454
  0.0138916  0.0073994  1.6850783  0.0002061  0.0029506  1.6850834  0.0002009
  0.0144092  0.0077948  1.6810124 -0.0009544  0.0026493  1.6810165 -0.0009586
  0.0147482  0.0078167  1.6810738 -0.0013972  0.0015072  1.6810751 -0.0013986
  0.0144712  0.0074370  1.6845746  0.0002000  0.0030541  1.6845801  0.0001944
  0.0148073  0.0074566  1.6846147 -0.0002542  0.0018983  1.6846168 -0.0002563
  0.0143617  0.0080580  1.6788073  0.0001124  0.0032409  1.6788136  0.0001062
  0.0142939  0.0084195  1.6752320 -0.0010607  0.0028021  1.6752367 -0.0010654
  0.0147028  0.0080826  1.6788815 -0.0003709  0.0020866  1.6788841 -0.0003735
  0.0146380  0.0084490  1.6753497 -0.0015242  0.0016659  1.6753513 -0.0015259
  0.0150500  0.0094500  1.6663398 -0.0006517  0.0026401  1.6663440 -0.0006558
  0.0146965  0.0093992  1.6660927 -0.0000652  0.0037372  1.6661011 -0.0000735
  0.0149522  0.0098431  1.6628191 -0.0018837  0.0020666  1.6628216 -0.0018863
  0.0146007  0.0097785  1.6624465 -0.0013437  0.0031390  1.6624525 -0.0013496
  0.0151143  0.0091636  1.6687685 -0.0017120  0.0019145  1.6687707 -0.0017142
  0.0151919  0.0087741  1.6724169 -0.0004972  0.0023985  1.6724203 -0.0005006
  0.0147606  0.0091218  1.6685593 -0.0012177  0.0030542  1.6685649 -0.0012233
  0.0148401  0.0087431  1.6723051  0.0000361  0.0035645  1.6723127  0.0000285
  0.0153803  0.0091921  1.6677230 -0.0012507  0.0032251  1.6677292 -0.0012569
  0.0157533  0.0092284  1.6679036 -0.0017009  0.0019972  1.6679060 -0.0017033
  0.0154557  0.0087933  1.6717758  0.0000727  0.0037099  1.6717840  0.0000645
  0.0158247  0.0088147  1.6718178 -0.0004318  0.0024432  1.6718213 -0.0004353
  0.0153167  0.0094861  1.6651357 -0.0000166  0.0039271  1.6651449 -0.0000259
  0.0152183  0.0098905  1.6612236 -0.0013636  0.0033248  1.6612303 -0.0013702
  0.0156915  0.0095341  1.6653689 -0.0005901  0.0027411  1.6653734 -0.0005947
  0.0155941  0.0099555  1.6616044 -0.0018781  0.0021767  1.6616073 -0.0018810
  0.0147397  0.0105194  1.6571066 -0.0020930  0.0022827  1.6571097 -0.0020962
  0.0148690  0.0101296  1.6602089 -0.0008728  0.0029676  1.6602142 -0.0008781
  0.0144041  0.0104206  1.6565553 -0.0014523  0.0031631  1.6565613 -0.0014584
  0.0145224  0.0100521  1.6598505 -0.0001658  0.0038794  1.6598596 -0.0001748
  0.0149999  0.0105931  1.6545199 -0.0015204  0.0033566  1.6545267 -0.0015272
  0.0153752  0.0106955  1.6551422 -0.0021131  0.0023112  1.6551454 -0.0021163
  0.0151335  0.0101871  1.6583461 -0.0000757  0.0041329  1.6583564 -0.0000860
  0.0155094  0.0102667  1.6587863 -0.0007508  0.0030313  1.6587918 -0.0007563
  0.0148838  0.0108799  1.6514092 -0.0001718  0.0041877  1.6514198 -0.0001824
  0.0147000  0.0112575  1.6485509 -0.0017230  0.0031915  1.6485571 -0.0017292
  0.0152475  0.0110267  1.6518846 -0.0011745  0.0036262  1.6518926 -0.0011825
  0.0150328  0.0115028  1.6495585 -0.0023987  0.0028375  1.6495634 -0.0024036
  0.0146336  0.0107861  1.6542643 -0.0010974  0.0033705  1.6542712 -0.0011042
  0.0143139  0.0106768  1.6539001 -0.0004023  0.0039094  1.6539093 -0.0004115
  0.0144731  0.0111250  1.6521095 -0.0021613  0.0026971  1.6521139 -0.0021657
  0.0141857  0.0110083  1.6515974 -0.0014613  0.0032478  1.6516037 -0.0014677
  0.0159772  0.0112069  1.6500159 -0.0008106  0.0033167  1.6500226 -0.0008173
  0.0155405  0.0111144  1.6494613  0.0000287  0.0046987  1.6494746  0.0000153
  0.0158373  0.0117012  1.6455091 -0.0024627  0.0024723  1.6455128 -0.0024664
  0.0153375  0.0116217  1.6452075 -0.0016440  0.0037400  1.6452160 -0.0016525
  0.0160739  0.0108561  1.6536087 -0.0022150  0.0024165  1.6536122 -0.0022185
  0.0161981  0.0103922  1.6574322 -0.0008060  0.0031431  1.6574381 -0.0008119
  0.0156630  0.0107660  1.6531651 -0.0014744  0.0035101  1.6531725 -0.0014818
  0.0157946  0.0103217  1.6571242  0.0000129  0.0042992  1.6571354  0.0000017
  0.0163853  0.0109116  1.6515098 -0.0016218  0.0039433  1.6515192 -0.0016312
  0.0168253  0.0109731  1.6518256 -0.0022358  0.0026055  1.6518297 -0.0022399
  0.0165027  0.0104381  1.6559736 -0.0000861  0.0046299  1.6559866 -0.0000991
  0.0169315  0.0104929  1.6562510 -0.0007341  0.0032465  1.6562574 -0.0007404
  0.0163002  0.0112641  1.6484107 -0.0002032  0.0049005  1.6484253 -0.0002178
  0.0161851  0.0117534  1.6438494 -0.0017717  0.0042031  1.6438602 -0.0017824
  0.0167460  0.0113278  1.6487450 -0.0008874  0.0034927  1.6487524 -0.0008948
  0.0166356  0.0118167  1.6441698 -0.0024528  0.0028076  1.6441746 -0.0024575
  0.0159886  0.0125990  1.6363156 -0.0019636  0.0043848  1.6363274 -0.0019754
  0.0164405  0.0126617  1.6366225 -0.0026554  0.0030014  1.6366280 -0.0026609
  0.0161016  0.0121111  1.6407718 -0.0004310  0.0050659  1.6407875 -0.0004467
  0.0165538  0.0121741  1.6410804 -0.0011217  0.0036837  1.6410886 -0.0011299
  0.0159088  0.0129517  1.6332779 -0.0006570  0.0052883  1.6332950 -0.0006741
  0.0158039  0.0134273  1.6288412 -0.0021784  0.0046187  1.6288542 -0.0021915
  0.0163570  0.0130159  1.6335904 -0.0013513  0.0039332  1.6335999 -0.0013607
  0.0162422  0.0134957  1.6292114 -0.0028685  0.0032448  1.6292178 -0.0028750
  0.0155866  0.0129167  1.6344639 -0.0013773  0.0035908  1.6344717 -0.0013852
  0.0151544  0.0128853  1.6343624 -0.0008519  0.0049473  1.6343774 -0.0008669
  0.0154897  0.0133838  1.6302851 -0.0027526  0.0030647  1.6302909 -0.0027583
  0.0150696  0.0133336  1.6299966 -0.0022776  0.0044250  1.6300086 -0.0022896
  0.0156567  0.0125632  1.6375501 -0.0027636  0.0028056  1.6375549 -0.0027684
  0.0157514  0.0120646  1.6426481 -0.0010880  0.0034373  1.6426553 -0.0010952
  0.0152018  0.0125281  1.6374179 -0.0020541  0.0045033  1.6374302 -0.0020664
  0.0152468  0.0120005  1.6423127 -0.0005224  0.0049344  1.6423275 -0.0005372
  0.0172194  0.0127707  1.6353801 -0.0026952  0.0032273  1.6353864 -0.0027016
  0.0173329  0.0122792  1.6398772 -0.0011476  0.0039162  1.6398865 -0.0011569
  0.0167703  0.0127077  1.6350702 -0.0019989  0.0046084  1.6350832 -0.0020118
  0.0168837  0.0122191  1.6395924 -0.0004416  0.0053028  1.6396095 -0.0004588
  0.0175506  0.0128171  1.6338128 -0.0020429  0.0048493  1.6338272 -0.0020573
  0.0180063  0.0128809  1.6341332 -0.0027256  0.0034484  1.6341405 -0.0027329
  0.0176638  0.0123229  1.6384067 -0.0004688  0.0055416  1.6384254 -0.0004875
  0.0181187  0.0123819  1.6386869 -0.0011684  0.0041289  1.6386973 -0.0011788
  0.0174646  0.0131786  1.6306460 -0.0006721  0.0057801  1.6306665 -0.0006926
  0.0173431  0.0136720  1.6261365 -0.0022500  0.0050462  1.6261522 -0.0022657
  0.0179207  0.0132461  1.6309717 -0.0014134  0.0044033  1.6309836 -0.0014253
  0.0177994  0.0137449  1.6265075 -0.0029729  0.0036812  1.6265158 -0.0029812
  0.0171336  0.0131297  1.6322759 -0.0013867  0.0041692  1.6322865 -0.0013974
  0.0166852  0.0130636  1.6319611 -0.0006486  0.0055207  1.6319798 -0.0006673
  0.0170127  0.0136190  1.6278903 -0.0029244  0.0034507  1.6278976 -0.0029317
  0.0165661  0.0135471  1.6275220 -0.0022044  0.0047945  1.6275361 -0.0022185
  0.0178465  0.0114644  1.6462200 -0.0002959  0.0052873  1.6462370 -0.0003128
  0.0177431  0.0119604  1.6415290 -0.0018651  0.0046500  1.6415422 -0.0018783
  0.0182990  0.0115158  1.6464659 -0.0009286  0.0038417  1.6464749 -0.0009375
  0.0181971  0.0120162  1.6418119 -0.0024816  0.0032173  1.6418181 -0.0024879
  0.0175178  0.0114257  1.6475529 -0.0009164  0.0036587  1.6475610 -0.0009245
  0.0170723  0.0113711  1.6472861 -0.0002667  0.0050750  1.6473017 -0.0002824
  0.0174128  0.0119189  1.6429698 -0.0024610  0.0030148  1.6429753 -0.0024665
  0.0169646  0.0118610  1.6426780 -0.0018252  0.0044168  1.6426898 -0.0018371
  0.0175917  0.0110658  1.6506169 -0.0022477  0.0027934  1.6506216 -0.0022524
  0.0176883  0.0105757  1.6552217 -0.0007206  0.0033921  1.6552286 -0.0007276
  0.0171486  0.0110144  1.6503601 -0.0016577  0.0042039  1.6503708 -0.0016684
  0.0172492  0.0105298  1.6550084 -0.0001084  0.0048247  1.6550225 -0.0001225
  0.0179191  0.0111021  1.6493157 -0.0016984  0.0044304  1.6493276 -0.0017103
  0.0183704  0.0111500  1.6495544 -0.0022673  0.0029732  1.6495597 -0.0022726
  0.0180138  0.0106082  1.6540677 -0.0001365  0.0050198  1.6540829 -0.0001517
  0.0184637  0.0106511  1.6542616 -0.0007234  0.0035494  1.6542692 -0.0007310
  0.0190913  0.0116001  1.6454109 -0.0009446  0.0040356  1.6454208 -0.0009545
  0.0186325  0.0115521  1.6451914 -0.0003163  0.0055094  1.6452098 -0.0003348
  0.0189914  0.0121073  1.6406696 -0.0025164  0.0034202  1.6406767 -0.0025236
  0.0185316  0.0120555  1.6404165 -0.0019019  0.0048840  1.6404310 -0.0019165
  0.0191612  0.0112291  1.6485243 -0.0022863  0.0031577  1.6485303 -0.0022923
  0.0192523  0.0107228  1.6533206 -0.0007230  0.0037233  1.6533290 -0.0007313
  0.0187033  0.0111840  1.6483068 -0.0017235  0.0046446  1.6483198 -0.0017366
  0.0187956  0.0106818  1.6531391 -0.0001458  0.0052208  1.6531556 -0.0001622
  0.0194995  0.0112616  1.6473113 -0.0017488  0.0048695  1.6473257 -0.0017632
  0.0199657  0.0113054  1.6475207 -0.0023053  0.0033502  1.6475275 -0.0023121
  0.0195899  0.0107525  1.6522064 -0.0001591  0.0054337  1.6522242 -0.0001770
  0.0200553  0.0107929  1.6523849 -0.0007275  0.0039063  1.6523941 -0.0007367
  0.0194302  0.0116346  1.6441679 -0.0003322  0.0057411  1.6441880 -0.0003523
  0.0193311  0.0121446  1.6393215 -0.0019314  0.0051272  1.6393376 -0.0019474
  0.0198971  0.0116810  1.6443781 -0.0009520  0.0042338  1.6443890 -0.0009629
  0.0197993  0.0121947  1.6395642 -0.0025375  0.0036304  1.6395722 -0.0025456
  0.0207154  0.0117582  1.6433571 -0.0009615  0.0044389  1.6433691 -0.0009735
  0.0202415  0.0117141  1.6431631 -0.0003488  0.0059767  1.6431848 -0.0003706
  0.0206199  0.0122773  1.6384697 -0.0025615  0.0038472  1.6384787 -0.0025705
  0.0201447  0.0122303  1.6382503 -0.0019598  0.0053758  1.6382680 -0.0019774
  0.0207823  0.0113786  1.6465198 -0.0023203  0.0035509  1.6465274 -0.0023279
  0.0208699  0.0108609  1.6514459 -0.0007298  0.0040966  1.6514561 -0.0007399
  0.0203094  0.0113367  1.6463242 -0.0017692  0.0050957  1.6463399 -0.0017849
  0.0203982  0.0108219  1.6512766 -0.0001679  0.0056502  1.6512960 -0.0001872
  0.0211312  0.0114088  1.6453438 -0.0017937  0.0053317  1.6453611 -0.0018109
  0.0216116  0.0114494  1.6455318 -0.0023322  0.0037582  1.6455403 -0.0023408
  0.0212178  0.0108891  1.6503444 -0.0001854  0.0058709  1.6503653 -0.0002063
  0.0216968  0.0109271  1.6505104 -0.0007331  0.0042892  1.6505216 -0.0007443
  0.0210650  0.0117899  1.6421665 -0.0003667  0.0062158  1.6421900 -0.0003902
  0.0209707  0.0123111  1.6371975 -0.0019857  0.0056310  1.6372168 -0.0020050
  0.0215465  0.0118323  1.6423517 -0.0009661  0.0046458  1.6423648 -0.0009792
  0.0214539  0.0123562  1.6374056 -0.0025747  0.0040708  1.6374157 -0.0025848
  0.0207949  0.0132166  1.6290514 -0.0021926  0.0059177  1.6290729 -0.0022141
  0.0212816  0.0132673  1.6292833 -0.0028405  0.0043731  1.6292950 -0.0028522
  0.0208984  0.0126934  1.6339910 -0.0005566  0.0065560  1.6340173 -0.0005828
  0.0213829  0.0127407  1.6341953 -0.0012177  0.0049990  1.6342106 -0.0012329
  0.0207161  0.0136006  1.6258021 -0.0007684  0.0068864  1.6258312 -0.0007975
  0.0206040  0.0141266  1.6208935 -0.0024208  0.0062000  1.6209172 -0.0024445
  0.0212044  0.0136540  1.6260355 -0.0014820  0.0053442  1.6260530 -0.0014995
  0.0210947  0.0141838  1.6211581 -0.0031190  0.0046721  1.6211715 -0.0031324
  0.0203618  0.0135605  1.6272146 -0.0014733  0.0051058  1.6272306 -0.0014893
  0.0198821  0.0135043  1.6269660 -0.0007408  0.0066062  1.6269928 -0.0007676
  0.0202481  0.0140836  1.6224267 -0.0030983  0.0044124  1.6224387 -0.0031103
  0.0197665  0.0140232  1.6221447 -0.0023820  0.0058990  1.6221661 -0.0024034
  0.0204418  0.0131785  1.6304436 -0.0028243  0.0041316  1.6304540 -0.0028347
  0.0205466  0.0126579  1.6352774 -0.0012124  0.0047776  1.6352913 -0.0012263
  0.0199635  0.0131252  1.6301970 -0.0021591  0.0056392  1.6302164 -0.0021786
  0.0200702  0.0126084  1.6350626 -0.0005325  0.0062978  1.6350869 -0.0005568
  0.0220604  0.0137440  1.6248754 -0.0014824  0.0055860  1.6248946 -0.0015016
  0.0215646  0.0136924  1.6246444 -0.0008016  0.0071647  1.6246760 -0.0008332
  0.0219556  0.0142796  1.6199199 -0.0031256  0.0049425  1.6199350 -0.0031406
  0.0214568  0.0142248  1.6196646 -0.0024583  0.0065065  1.6196907 -0.0024844
  0.0221343  0.0133532  1.6281471 -0.0028434  0.0046249  1.6281602 -0.0028565
  0.0222314  0.0128211  1.6331249 -0.0012151  0.0052245  1.6331416 -0.0012318
  0.0216405  0.0133039  1.6279165 -0.0022269  0.0061998  1.6279401 -0.0022504
  0.0217401  0.0127750  1.6329196 -0.0005861  0.0068123  1.6329480 -0.0006145
  0.0224984  0.0133881  1.6268018 -0.0022563  0.0064877  1.6268276 -0.0022822
  0.0229992  0.0134341  1.6270159 -0.0028435  0.0048781  1.6270305 -0.0028581
  0.0225936  0.0128541  1.6318642 -0.0006126  0.0070708  1.6318948 -0.0006432
  0.0230917  0.0128981  1.6320623 -0.0012090  0.0054493  1.6320804 -0.0012272
  0.0224261  0.0137804  1.6235212 -0.0008307  0.0074458  1.6235554 -0.0008648
  0.0223237  0.0143184  1.6184627 -0.0024915  0.0068224  1.6184914 -0.0025202
  0.0229292  0.0138284  1.6237365 -0.0014730  0.0058259  1.6237574 -0.0014939
  0.0228306  0.0143695  1.6187019 -0.0031202  0.0052190  1.6187187 -0.0031369
  0.0223892  0.0119052  1.6413492 -0.0009656  0.0048582  1.6413635 -0.0009799
  0.0219013  0.0118632  1.6411596 -0.0003922  0.0064540  1.6411850 -0.0004176
  0.0222997  0.0124331  1.6363548 -0.0025784  0.0043041  1.6363661 -0.0025897
  0.0218100  0.0123889  1.6361467 -0.0020139  0.0058906  1.6361679 -0.0020351
  0.0224522  0.0115192  1.6445497 -0.0023326  0.0039742  1.6445593 -0.0023422
  0.0225348  0.0109926  1.6495703 -0.0007294  0.0044860  1.6495825 -0.0007416
  0.0219655  0.0114789  1.6443570 -0.0018183  0.0055704  1.6443758 -0.0018372
  0.0220497  0.0109548  1.6493994 -0.0002059  0.0060909  1.6494218 -0.0002284
  0.0228109  0.0115484  1.6433627 -0.0018414  0.0058146  1.6433832 -0.0018620
  0.0233040  0.0115881  1.6435573 -0.0023343  0.0041943  1.6435680 -0.0023450
  0.0228924  0.0110202  1.6484392 -0.0002268  0.0063158  1.6484634 -0.0002510
  0.0233841  0.0110578  1.6486164 -0.0007271  0.0046881  1.6486297 -0.0007404
  0.0227488  0.0119355  1.6401524 -0.0004148  0.0066944  1.6401797 -0.0004421
  0.0226607  0.0124649  1.6351024 -0.0020374  0.0061535  1.6351255 -0.0020605
  0.0232432  0.0119765  1.6403419 -0.0009631  0.0050716  1.6403576 -0.0009788
  0.0231571  0.0125075  1.6353044 -0.0025790  0.0045393  1.6353170 -0.0025916
  0.0238076  0.0139120  1.6226109 -0.0014485  0.0060667  1.6226336 -0.0014711
  0.0232994  0.0138637  1.6223685 -0.0008788  0.0077142  1.6224051 -0.0009154
  0.0237169  0.0144559  1.6175194 -0.0030893  0.0055101  1.6175381 -0.0031080
  0.0232039  0.0144064  1.6172726 -0.0025273  0.0071410  1.6173041 -0.0025588
  0.0238728  0.0135158  1.6259186 -0.0028184  0.0051458  1.6259349 -0.0028347
  0.0239602  0.0129771  1.6309963 -0.0011903  0.0056806  1.6310161 -0.0012101
  0.0233675  0.0134683  1.6256753 -0.0022885  0.0067727  1.6257035 -0.0023166
  0.0234579  0.0129310  1.6307614 -0.0006539  0.0073187  1.6307942 -0.0006868
  0.0242432  0.0135494  1.6245583 -0.0023122  0.0070567  1.6245890 -0.0023429
  0.0247501  0.0135939  1.6247902 -0.0028046  0.0054120  1.6248082 -0.0028226
  0.0243286  0.0130109  1.6296460 -0.0006912  0.0075673  1.6296812 -0.0007263
  0.0248328  0.0130570  1.6298972 -0.0011800  0.0059167  1.6299187 -0.0012015
  0.0241803  0.0139455  1.6212700 -0.0009188  0.0079803  1.6213092 -0.0009581
  0.0240937  0.0144892  1.6161480 -0.0025513  0.0074648  1.6161824 -0.0025858
  0.0246904  0.0139887  1.6214915 -0.0014265  0.0063007  1.6215159 -0.0014510
  0.0246101  0.0145306  1.6163455 -0.0030600  0.0058025  1.6163663 -0.0030808
  0.0241062  0.0120520  1.6393131 -0.0009518  0.0052972  1.6393302 -0.0009689
  0.0236069  0.0120077  1.6390821 -0.0004523  0.0069310  1.6391114 -0.0004816
  0.0240228  0.0125849  1.6342643 -0.0025610  0.0047898  1.6342784 -0.0025750
  0.0235220  0.0125396  1.6340260 -0.0020657  0.0064177  1.6340512 -0.0020908
  0.0241654  0.0116613  1.6425580 -0.0023170  0.0044265  1.6425699 -0.0023290
  0.0242438  0.0111270  1.6476338 -0.0007128  0.0048994  1.6476484 -0.0007274
  0.0236670  0.0116183  1.6423222 -0.0018685  0.0060609  1.6423445 -0.0018909
  0.0237463  0.0110864  1.6474193 -0.0002563  0.0065398  1.6474453 -0.0002823
  0.0245322  0.0116942  1.6412174 -0.0018867  0.0063091  1.6412416 -0.0019109
  0.0250358  0.0117408  1.6414923 -0.0023078  0.0046621  1.6415055 -0.0023210
  0.0246106  0.0111581  1.6463259 -0.0002755  0.0067761  1.6463538 -0.0003034
  0.0251150  0.0112023  1.6465769 -0.0007037  0.0051285  1.6465929 -0.0007197
  0.0244732  0.0120855  1.6379550 -0.0004817  0.0071749  1.6379865 -0.0005131
  0.0243902  0.0126186  1.6329173 -0.0020830  0.0066796  1.6329446 -0.0021103
  0.0249765  0.0121329  1.6382205 -0.0009487  0.0055391  1.6382392 -0.0009674
  0.0248935  0.0126656  1.6331787 -0.0025514  0.0050430  1.6331943 -0.0025670
  0.0255661  0.0140612  1.6204159 -0.0013838  0.0065262  1.6204422 -0.0014101
  0.0250617  0.0140197  1.6201694 -0.0009904  0.0082150  1.6202110 -0.0010321
  0.0255009  0.0145927  1.6152766 -0.0029859  0.0061172  1.6152997 -0.0030091
  0.0249871  0.0145583  1.6151072 -0.0025761  0.0077846  1.6151446 -0.0026135
  0.0256193  0.0136745  1.6237024 -0.0027665  0.0056941  1.6237223 -0.0027864
  0.0256993  0.0131493  1.6287519 -0.0011679  0.0061733  1.6287753 -0.0011913
  0.0251188  0.0136274  1.6234291 -0.0023327  0.0073251  1.6234621 -0.0023657
  0.0252001  0.0130941  1.6284019 -0.0007584  0.0077971  1.6284392 -0.0007957
  0.0259775  0.0137090  1.6223163 -0.0023223  0.0075523  1.6223514 -0.0023574
  0.0264557  0.0137563  1.6225939 -0.0027692  0.0059732  1.6226158 -0.0027911
  0.0260581  0.0131945  1.6270055 -0.0008308  0.0080160  1.6270450 -0.0008703
  0.0265392  0.0132629  1.6274712 -0.0012108  0.0064766  1.6274970 -0.0012366
  0.0259275  0.0140881  1.6191725 -0.0010828  0.0084072  1.6192161 -0.0011264
  0.0258714  0.0146092  1.6143206 -0.0025734  0.0080994  1.6143612 -0.0026140
  0.0264103  0.0141199  1.6193828 -0.0013438  0.0067310  1.6194108 -0.0013718
  0.0263698  0.0146197  1.6143154 -0.0028916  0.0064566  1.6143411 -0.0029174
  0.0239382  0.0154531  1.6075564 -0.0028379  0.0078826  1.6075950 -0.0028765
  0.0244695  0.0154964  1.6077586 -0.0033652  0.0061976  1.6077825 -0.0033890
  0.0240288  0.0148931  1.6128219 -0.0011560  0.0084220  1.6128659 -0.0012000
  0.0245509  0.0149346  1.6130177 -0.0016960  0.0067057  1.6130455 -0.0017238
  0.0238686  0.0158684  1.6041333 -0.0014195  0.0088712  1.6041823 -0.0014686
  0.0237693  0.0164430  1.5987519 -0.0031540  0.0082809  1.5987947 -0.0031968
  0.0244071  0.0159147  1.6043514 -0.0020124  0.0071206  1.6043830 -0.0020440
  0.0243182  0.0164957  1.5990154 -0.0037186  0.0065716  1.5990424 -0.0037455
  0.0234781  0.0158300  1.6055823 -0.0020559  0.0068643  1.6056116 -0.0020852
  0.0229497  0.0157713  1.6052949 -0.0013780  0.0085313  1.6053402 -0.0014233
  0.0233724  0.0163996  1.6004360 -0.0037487  0.0062246  1.6004601 -0.0037728
  0.0228369  0.0163337  1.6000964 -0.0030999  0.0078587  1.6001349 -0.0031384
  0.0235521  0.0154173  1.6090120 -0.0034010  0.0058739  1.6090334 -0.0034224
  0.0236484  0.0148592  1.6141632 -0.0017299  0.0064628  1.6141891 -0.0017558
  0.0230286  0.0153625  1.6087382 -0.0028053  0.0075106  1.6087732 -0.0028403
  0.0231313  0.0148080  1.6139119 -0.0011178  0.0081244  1.6139528 -0.0011586
  0.0221344  0.0152618  1.6100347 -0.0027588  0.0071492  1.6100664 -0.0027905
  0.0226487  0.0153209  1.6103191 -0.0034304  0.0055564  1.6103382 -0.0034496
  0.0222456  0.0147153  1.6151186 -0.0010670  0.0078224  1.6151565 -0.0011049
  0.0227554  0.0147694  1.6153653 -0.0017592  0.0062075  1.6153891 -0.0017830
  0.0220492  0.0156636  1.6066116 -0.0013264  0.0081911  1.6066533 -0.0013681
  0.0219275  0.0162150  1.6015560 -0.0030412  0.0074602  1.6015907 -0.0030759
  0.0225668  0.0157267  1.6069055 -0.0020826  0.0065887  1.6069325 -0.0021096
  0.0224497  0.0162842  1.6018951 -0.0037727  0.0058824  1.6019166 -0.0037943
  0.0216742  0.0156159  1.6082766 -0.0020809  0.0063062  1.6083013 -0.0021056
  0.0211674  0.0155487  1.6079685 -0.0012829  0.0078494  1.6080068 -0.0013212
  0.0215497  0.0161628  1.6033986 -0.0037590  0.0055604  1.6034178 -0.0037782
  0.0210398  0.0160895  1.6030438 -0.0029848  0.0070828  1.6030750 -0.0030160
  0.0217615  0.0152170  1.6116652 -0.0034312  0.0052546  1.6116823 -0.0034483
  0.0218755  0.0146743  1.6166007 -0.0017682  0.0059470  1.6166225 -0.0017901
  0.0212570  0.0151540  1.6113648 -0.0027144  0.0068019  1.6113935 -0.0027431
  0.0213744  0.0146165  1.6163408 -0.0010306  0.0075138  1.6163757 -0.0010655
  0.0203963  0.0150410  1.6127269 -0.0026648  0.0064675  1.6127528 -0.0026907
  0.0208912  0.0151068  1.6130353 -0.0034201  0.0049637  1.6130506 -0.0034353
  0.0205183  0.0145125  1.6175947 -0.0009920  0.0072091  1.6176268 -0.0010241
  0.0210108  0.0145731  1.6178616 -0.0017679  0.0056877  1.6178815 -0.0017878
  0.0203034  0.0154289  1.6093612 -0.0012388  0.0075164  1.6093963 -0.0012739
  0.0201714  0.0159603  1.6045506 -0.0029278  0.0067246  1.6045787 -0.0029559
  0.0208001  0.0154986  1.6096758 -0.0020682  0.0060219  1.6096983 -0.0020907
  0.0206705  0.0160353  1.6049059 -0.0037363  0.0052475  1.6049230 -0.0037534
  0.0199434  0.0153769  1.6110971 -0.0020437  0.0057422  1.6111175 -0.0020642
  0.0194565  0.0153043  1.6107701 -0.0011945  0.0071895  1.6108021 -0.0012266
  0.0198098  0.0159042  1.6064413 -0.0036961  0.0049487  1.6064565 -0.0037113
  0.0193209  0.0158262  1.6060721 -0.0028686  0.0063783  1.6060973 -0.0028939
  0.0200375  0.0149918  1.6144288 -0.0033922  0.0046840  1.6144424 -0.0034058
  0.0201613  0.0144671  1.6191500 -0.0017538  0.0054299  1.6191682 -0.0017720
  0.0195523  0.0149231  1.6141069 -0.0026159  0.0061440  1.6141302 -0.0026393
  0.0196782  0.0144034  1.6188674 -0.0009579  0.0069063  1.6188969 -0.0009873
  0.0191455  0.0130274  1.6313729 -0.0021240  0.0053687  1.6313905 -0.0021417
  0.0196161  0.0130847  1.6316478 -0.0027967  0.0038979  1.6316571 -0.0028060
  0.0192548  0.0125178  1.6361499 -0.0005133  0.0060415  1.6361722 -0.0005356
  0.0197240  0.0125709  1.6363891 -0.0012017  0.0045583  1.6364018 -0.0012144
  0.0190620  0.0134010  1.6281554 -0.0007182  0.0063276  1.6281799 -0.0007427
  0.0189435  0.0139121  1.6234343 -0.0023414  0.0056067  1.6234536 -0.0023607
  0.0195339  0.0134616  1.6284342 -0.0014557  0.0048688  1.6284488 -0.0014703
  0.0194169  0.0139773  1.6237504 -0.0030615  0.0041620  1.6237611 -0.0030721
  0.0187199  0.0133560  1.6296811 -0.0014391  0.0046358  1.6296943 -0.0014523
  0.0182571  0.0132936  1.6293939 -0.0006888  0.0060537  1.6294164 -0.0007113
  0.0186003  0.0138636  1.6250968 -0.0030275  0.0039156  1.6251062 -0.0030369
  0.0181363  0.0137962  1.6247683 -0.0022957  0.0053198  1.6247857 -0.0023131
  0.0188041  0.0129848  1.6328627 -0.0027684  0.0036685  1.6328709 -0.0027766
  0.0189144  0.0124783  1.6375207 -0.0011879  0.0043423  1.6375322 -0.0011994
  0.0183422  0.0129258  1.6325788 -0.0020845  0.0051029  1.6325947 -0.0021005
  0.0184538  0.0124236  1.6372726 -0.0004882  0.0057890  1.6372930 -0.0005087
  0.0187235  0.0147962  1.6155327 -0.0025663  0.0058296  1.6155537 -0.0025873
  0.0192002  0.0148707  1.6158942 -0.0033465  0.0044177  1.6159063 -0.0033586
  0.0188528  0.0142860  1.6201703 -0.0009301  0.0066056  1.6201972 -0.0009570
  0.0193275  0.0143548  1.6204876 -0.0017319  0.0051765  1.6205041 -0.0017484
  0.0186253  0.0151704  1.6122029 -0.0011608  0.0068659  1.6122321 -0.0011900
  0.0184860  0.0156827  1.6076377 -0.0028110  0.0060432  1.6076603 -0.0028337
  0.0191034  0.0152490  1.6125703 -0.0020118  0.0054696  1.6125888 -0.0020303
  0.0189662  0.0157668  1.6080458 -0.0036404  0.0046644  1.6080593 -0.0036539
  0.0182789  0.0151118  1.6140937 -0.0019823  0.0052040  1.6141105 -0.0019991
  0.0178108  0.0150302  1.6137112 -0.0011202  0.0065526  1.6137378 -0.0011468
  0.0181382  0.0156199  1.6096925 -0.0035910  0.0043861  1.6097044 -0.0036029
  0.0176680  0.0155322  1.6092658 -0.0027527  0.0057157  1.6092860 -0.0027730
  0.0183782  0.0147406  1.6173888 -0.0033063  0.0041547  1.6173995 -0.0033169
  0.0185087  0.0142346  1.6218632 -0.0017115  0.0049276  1.6218782 -0.0017265
  0.0179115  0.0146633  1.6170144 -0.0025121  0.0055205  1.6170332 -0.0025309
  0.0180437  0.0141632  1.6215345 -0.0008949  0.0063107  1.6215591 -0.0009195
  0.0182303  0.0165688  1.5997862 -0.0030616  0.0062387  1.5998105 -0.0030859
  0.0187142  0.0166633  1.6002391 -0.0039494  0.0048991  1.6002541 -0.0039644
  0.0183802  0.0160574  1.6042489 -0.0013998  0.0071094  1.6042804 -0.0014313
  0.0188619  0.0161458  1.6046582 -0.0023121  0.0057503  1.6046788 -0.0023327
  0.0181173  0.0169442  1.5963262 -0.0016640  0.0073307  1.5963598 -0.0016976
  0.0179585  0.0174585  1.5919460 -0.0033348  0.0064256  1.5919719 -0.0033606
  0.0186027  0.0170426  1.5967819 -0.0026169  0.0060087  1.5968044 -0.0026395
  0.0184460  0.0175614  1.5924309 -0.0042692  0.0051189  1.5924473 -0.0042856
  0.0177651  0.0168704  1.5985990 -0.0025651  0.0056998  1.5986193 -0.0025854
  0.0172881  0.0167671  1.5981200 -0.0015982  0.0069735  1.5981504 -0.0016286
  0.0176044  0.0173812  1.5943693 -0.0042017  0.0047979  1.5943837 -0.0042161
  0.0171243  0.0172728  1.5938605 -0.0032570  0.0060525  1.5938834 -0.0032799
  0.0178794  0.0164980  1.6020437 -0.0038932  0.0046011  1.6020569 -0.0039064
  0.0180311  0.0159913  1.6063242 -0.0022751  0.0054672  1.6063428 -0.0022937
  0.0174046  0.0163990  1.6015728 -0.0029876  0.0058873  1.6015944 -0.0030092
  0.0175592  0.0158990  1.6058979 -0.0013420  0.0067759  1.6059265 -0.0013706
  0.0170133  0.0148768  1.6152525 -0.0011025  0.0062293  1.6152765 -0.0011265
  0.0168669  0.0153662  1.6109888 -0.0026966  0.0053888  1.6110068 -0.0027146
  0.0174717  0.0149672  1.6156935 -0.0019517  0.0049465  1.6157087 -0.0019668
  0.0173274  0.0154642  1.6114841 -0.0035165  0.0041288  1.6114947 -0.0035271
  0.0166828  0.0148096  1.6173559 -0.0019406  0.0046884  1.6173695 -0.0019542
  0.0162383  0.0147163  1.6169101 -0.0010817  0.0058975  1.6169316 -0.0011032
  0.0165348  0.0152923  1.6133727 -0.0034558  0.0038705  1.6133819 -0.0034651
  0.0160881  0.0151885  1.6128533 -0.0026366  0.0050496  1.6128691 -0.0026524
  0.0167858  0.0144565  1.6205898 -0.0031850  0.0036586  1.6205980 -0.0031933
  0.0169195  0.0139746  1.6247451 -0.0016644  0.0044333  1.6247572 -0.0016765
  0.0163416  0.0143703  1.6201563 -0.0023897  0.0049215  1.6201712 -0.0024046
  0.0164740  0.0138972  1.6243868 -0.0008391  0.0057136  1.6244069 -0.0008592
  0.0171158  0.0145191  1.6185566 -0.0024594  0.0052187  1.6185734 -0.0024762
  0.0175732  0.0146040  1.6189859 -0.0032417  0.0039078  1.6189953 -0.0032511
  0.0172497  0.0140312  1.6229240 -0.0008773  0.0060107  1.6229463 -0.0008996
  0.0177063  0.0141087  1.6232945 -0.0016863  0.0046811  1.6233080 -0.0016998
  0.0162570  0.0161260  1.6061240 -0.0037546  0.0040699  1.6061343 -0.0037649
  0.0164207  0.0156451  1.6099857 -0.0022087  0.0049526  1.6100009 -0.0022239
  0.0158021  0.0160046  1.6055372 -0.0028560  0.0051938  1.6055540 -0.0028728
  0.0159713  0.0155337  1.6094537 -0.0012672  0.0061122  1.6094769 -0.0012904
  0.0165941  0.0162111  1.6034676 -0.0029216  0.0055400  1.6034867 -0.0029407
  0.0170602  0.0163221  1.6040094 -0.0038156  0.0043289  1.6040210 -0.0038272
  0.0167546  0.0157237  1.6075948 -0.0013108  0.0064368  1.6076205 -0.0013366
  0.0172171  0.0158273  1.6080912 -0.0022357  0.0051999  1.6081080 -0.0022525
  0.0164728  0.0165707  1.5999736 -0.0015445  0.0066092  1.6000009 -0.0015718
  0.0163020  0.0170656  1.5959032 -0.0031763  0.0056761  1.5959234 -0.0031964
  0.0169419  0.0166868  1.6005267 -0.0025094  0.0054081  1.6005449 -0.0025277
  0.0167754  0.0171883  1.5964897 -0.0041129  0.0044995  1.5965024 -0.0041255
  0.0161330  0.0164815  1.6025992 -0.0024534  0.0051394  1.6026156 -0.0024698
  0.0156737  0.0163542  1.6020018 -0.0014452  0.0062611  1.6020262 -0.0014697
  0.0159582  0.0169718  1.5987419 -0.0040511  0.0042008  1.5987529 -0.0040621
  0.0154923  0.0168384  1.5981242 -0.0030731  0.0052957  1.5981417 -0.0030906
  0.0148891  0.0160977  1.6041921 -0.0013947  0.0059623  1.6042142 -0.0014169
  0.0146896  0.0165717  1.6005213 -0.0030151  0.0049723  1.6005367 -0.0030305
  0.0153404  0.0162514  1.6049568 -0.0023672  0.0049261  1.6049719 -0.0023823
  0.0151523  0.0167311  1.6012788 -0.0039566  0.0039666  1.6012886 -0.0039664
  0.0145715  0.0159688  1.6074296 -0.0023174  0.0046599  1.6074431 -0.0023309
  0.0141551  0.0157700  1.6067404 -0.0009124  0.0052591  1.6067576 -0.0009296
  0.0143343  0.0164319  1.6047156 -0.0039232  0.0036257  1.6047238 -0.0039314
  0.0138264  0.0162096  1.6042145 -0.0027005  0.0041570  1.6042253 -0.0027112
  0.0147290  0.0156440  1.6117842 -0.0035446  0.0037116  1.6117927 -0.0035531
  0.0149222  0.0152199  1.6141149 -0.0022902  0.0045228  1.6141276 -0.0023029
  0.0143456  0.0154688  1.6112355 -0.0025550  0.0042206  1.6112465 -0.0025661
  0.0145374  0.0150855  1.6137566 -0.0011441  0.0051275  1.6137728 -0.0011604
  0.0150312  0.0157614  1.6080147 -0.0027598  0.0047713  1.6080288 -0.0027739
  0.0154736  0.0159069  1.6086525 -0.0036635  0.0038473  1.6086617 -0.0036727
  0.0152202  0.0153164  1.6114338 -0.0012357  0.0057065  1.6114540 -0.0012559
  0.0156496  0.0154457  1.6120149 -0.0022123  0.0047229  1.6120288 -0.0022261
  0.0154946  0.0145470  1.6185989 -0.0010409  0.0055253  1.6186177 -0.0010597
  0.0153443  0.0149910  1.6148759 -0.0025288  0.0046771  1.6148894 -0.0025423
  0.0159199  0.0146459  1.6190439 -0.0019318  0.0044394  1.6190561 -0.0019439
  0.0157691  0.0151078  1.6154486 -0.0033563  0.0036340  1.6154568 -0.0033644
  0.0151929  0.0144774  1.6206859 -0.0018808  0.0042110  1.6206968 -0.0018917
  0.0147939  0.0143862  1.6202775 -0.0010243  0.0052448  1.6202944 -0.0010412
  0.0150465  0.0149073  1.6172734 -0.0032484  0.0034294  1.6172806 -0.0032557
  0.0146575  0.0147954  1.6166823 -0.0024576  0.0044296  1.6166944 -0.0024697
  0.0152904  0.0141583  1.6235908 -0.0030084  0.0032859  1.6235974 -0.0030150
  0.0154103  0.0137165  1.6274436 -0.0016292  0.0039615  1.6274532 -0.0016388
  0.0148850  0.0140803  1.6231535 -0.0023500  0.0044963  1.6231660 -0.0023624
  0.0149974  0.0136538  1.6271524 -0.0009250  0.0051871  1.6271690 -0.0009416
  0.0155952  0.0142190  1.6216971 -0.0023679  0.0046688  1.6217105 -0.0023813
  0.0160226  0.0143067  1.6221709 -0.0030883  0.0034433  1.6221782 -0.0030955
  0.0157198  0.0137669  1.6257910 -0.0008819  0.0054153  1.6258090 -0.0008999
  0.0161526  0.0138416  1.6261466 -0.0016418  0.0041733  1.6261573 -0.0016525
  0.0142068  0.0139499  1.6245835 -0.0023240  0.0042733  1.6245947 -0.0023353
  0.0145947  0.0140245  1.6249979 -0.0029097  0.0031453  1.6250040 -0.0029158
  0.0143162  0.0135535  1.6282910 -0.0010006  0.0049190  1.6283058 -0.0010154
  0.0147043  0.0136101  1.6285555 -0.0016480  0.0037515  1.6285641 -0.0016566
  0.0141253  0.0142382  1.6218174 -0.0011978  0.0050949  1.6218334 -0.0012138
  0.0140118  0.0146292  1.6182458 -0.0025009  0.0044328  1.6182579 -0.0025130
  0.0145079  0.0143221  1.6222838 -0.0017969  0.0040248  1.6222938 -0.0018069
  0.0143803  0.0147209  1.6188189 -0.0030835  0.0033487  1.6188259 -0.0030905
  0.0138511  0.0141722  1.6237029 -0.0017532  0.0037374  1.6237115 -0.0017618
  0.0134844  0.0140761  1.6231444 -0.0009308  0.0048188  1.6231586 -0.0009451
  0.0137204  0.0145639  1.6202590 -0.0031128  0.0029715  1.6202645 -0.0031182
  0.0132929  0.0144771  1.6199377 -0.0023222  0.0039606  1.6199474 -0.0023319
  0.0139385  0.0138906  1.6267965 -0.0028261  0.0029411  1.6268018 -0.0028314
  0.0140469  0.0135129  1.6295665 -0.0017550  0.0035333  1.6295742 -0.0017626
  0.0135933  0.0138032  1.6264000 -0.0021263  0.0037823  1.6264088 -0.0021350
  0.0136992  0.0134586  1.6294187 -0.0009408  0.0044473  1.6294309 -0.0009530
  0.0136077  0.0151612  1.6135343 -0.0032452  0.0034189  1.6135415 -0.0032525
  0.0136552  0.0148289  1.6180776 -0.0018505  0.0037313  1.6180862 -0.0018591
  0.0132792  0.0152207  1.6143878 -0.0027772  0.0049465  1.6144029 -0.0027924
  0.0132379  0.0147838  1.6177697 -0.0017784  0.0048982  1.6177845 -0.0017932
  0.0138288  0.0151955  1.6130480 -0.0026249  0.0041192  1.6130586 -0.0026354
  0.0141044  0.0153486  1.6139669 -0.0033665  0.0035471  1.6139747 -0.0033743
  0.0139324  0.0148857  1.6158523 -0.0013809  0.0048952  1.6158671 -0.0013957
  0.0142722  0.0149959  1.6162290 -0.0022347  0.0042653  1.6162403 -0.0022459
  0.0136775  0.0153704  1.6110749 -0.0010660  0.0040049  1.6110848 -0.0010759
  0.0133675  0.0155386  1.6112633 -0.0026427  0.0041326  1.6112739 -0.0026533
  0.0139155  0.0156097  1.6096425 -0.0027371  0.0048411  1.6096570 -0.0027517
  0.0135673  0.0159702  1.6101269 -0.0035246  0.0047373  1.6101408 -0.0035385
  0.0131164  0.0136660  1.6272165 -0.0022393  0.0037844  1.6272253 -0.0022481
  0.0133730  0.0137430  1.6278706 -0.0026444  0.0028594  1.6278756 -0.0026494
  0.0131512  0.0133928  1.6303599 -0.0012124  0.0041768  1.6303706 -0.0012231
  0.0134592  0.0134264  1.6304600 -0.0017212  0.0033083  1.6304667 -0.0017279
  0.0130210  0.0138371  1.6251778 -0.0008855  0.0038032  1.6251867 -0.0008944
  0.0127952  0.0140313  1.6244643 -0.0022285  0.0032909  1.6244710 -0.0022351
  0.0132620  0.0139863  1.6250421 -0.0021380  0.0039426  1.6250517 -0.0021476
  0.0130450  0.0143344  1.6245282 -0.0028673  0.0035171  1.6245358 -0.0028749
  0.0129248  0.0136794  1.6268977 -0.0025872  0.0031833  1.6269040 -0.0025934
  0.0129031  0.0133979  1.6305113 -0.0014649  0.0028953  1.6305164 -0.0014700
  0.0126581  0.0137930  1.6281740 -0.0026660  0.0042816  1.6281852 -0.0026772
  0.0125333  0.0134453  1.6307373 -0.0017724  0.0038313  1.6307463 -0.0017814
  0.0121062  0.0140769  1.6263534 -0.0029179  0.0040059  1.6263632 -0.0029277
  0.0124388  0.0138995  1.6257358 -0.0020031  0.0035883  1.6257437 -0.0020110
  0.0119500  0.0137581  1.6284136 -0.0017488  0.0032512  1.6284201 -0.0017553
  0.0122779  0.0135418  1.6276285 -0.0009675  0.0029145  1.6276337 -0.0009727
  0.0122203  0.0143295  1.6230874 -0.0017027  0.0037310  1.6230960 -0.0017113
  0.0123758  0.0147007  1.6201441 -0.0030129  0.0045341  1.6201567 -0.0030255
  0.0125807  0.0141632  1.6220535 -0.0009106  0.0028668  1.6220586 -0.0009157
  0.0128075  0.0145258  1.6193882 -0.0022747  0.0037567  1.6193969 -0.0022834
  0.0119549  0.0144370  1.6202755 -0.0012622  0.0026678  1.6202799 -0.0012666
  0.0115902  0.0145644  1.6210744 -0.0018760  0.0036355  1.6210825 -0.0018842
  0.0120786  0.0148082  1.6172394 -0.0024438  0.0033241  1.6172462 -0.0024506
  0.0116981  0.0149268  1.6179085 -0.0030791  0.0042839  1.6179198 -0.0030904
  0.0118579  0.0141881  1.6230098 -0.0021835  0.0033667  1.6230167 -0.0021905
  0.0117166  0.0138793  1.6253299 -0.0011374  0.0027193  1.6253345 -0.0011420
  0.0115121  0.0143145  1.6235699 -0.0027883  0.0040379  1.6235799 -0.0027984
  0.0114068  0.0139944  1.6259673 -0.0018055  0.0034637  1.6259747 -0.0018129
  0.0122708  0.0154896  1.6111118 -0.0027509  0.0033669  1.6111188 -0.0027580
  0.0121632  0.0150902  1.6144989 -0.0015652  0.0028106  1.6145038 -0.0015701
  0.0118612  0.0155801  1.6116676 -0.0032462  0.0045365  1.6116803 -0.0032590
  0.0117707  0.0151990  1.6152634 -0.0020085  0.0039844  1.6152732 -0.0020183
  0.0125767  0.0154113  1.6136888 -0.0032886  0.0047614  1.6137028 -0.0033027
  0.0130030  0.0152877  1.6129409 -0.0025688  0.0035874  1.6129489 -0.0025768
  0.0124713  0.0149906  1.6173767 -0.0019485  0.0040859  1.6173870 -0.0019589
  0.0129207  0.0148272  1.6164391 -0.0013603  0.0030295  1.6164448 -0.0013660
  0.0126399  0.0157326  1.6102429 -0.0017732  0.0046500  1.6102564 -0.0017866
  0.0127071  0.0161900  1.6054285 -0.0032753  0.0050479  1.6054444 -0.0032911
  0.0130895  0.0156357  1.6092994 -0.0016460  0.0029330  1.6093047 -0.0016513
  0.0132436  0.0161257  1.6050226 -0.0030383  0.0035334  1.6050304 -0.0030461
  0.0123239  0.0157936  1.6086440 -0.0019206  0.0029793  1.6086495 -0.0019261
  0.0119100  0.0158630  1.6092077 -0.0020437  0.0043366  1.6092194 -0.0020554
  0.0123613  0.0162246  1.6048194 -0.0030926  0.0032043  1.6048258 -0.0030990
  0.0119528  0.0162548  1.6050203 -0.0033338  0.0046157  1.6050336 -0.0033470
  0.0112597  0.0159682  1.6082074 -0.0023599  0.0040128  1.6082174 -0.0023699
  0.0113252  0.0163201  1.6046884 -0.0035123  0.0044398  1.6047007 -0.0035245
  0.0116249  0.0159098  1.6078425 -0.0019789  0.0028908  1.6078477 -0.0019841
  0.0116752  0.0162804  1.6044644 -0.0030602  0.0032426  1.6044709 -0.0030668
  0.0109983  0.0160155  1.6068690 -0.0019481  0.0026918  1.6068735 -0.0019526
  0.0106495  0.0160860  1.6072872 -0.0024054  0.0037025  1.6072957 -0.0024140
  0.0110762  0.0163606  1.6036406 -0.0030553  0.0031796  1.6036469 -0.0030616
  0.0107460  0.0164316  1.6041203 -0.0035233  0.0042378  1.6041315 -0.0035345
  0.0109380  0.0157582  1.6091132 -0.0028377  0.0030180  1.6091188 -0.0028434
  0.0108510  0.0154005  1.6124079 -0.0016862  0.0024841  1.6124117 -0.0016900
  0.0105803  0.0158287  1.6095364 -0.0033903  0.0041154  1.6095469 -0.0034008
  0.0104878  0.0154714  1.6128188 -0.0022328  0.0035663  1.6128266 -0.0022407
  0.0112047  0.0157072  1.6104715 -0.0033451  0.0043006  1.6104829 -0.0033565
  0.0115756  0.0156384  1.6100615 -0.0028013  0.0031596  1.6100677 -0.0028075
  0.0111198  0.0153459  1.6138910 -0.0021640  0.0037695  1.6138998 -0.0021728
  0.0114912  0.0152675  1.6134003 -0.0016527  0.0026491  1.6134046 -0.0016570
  0.0109669  0.0147215  1.6195172 -0.0019787  0.0035728  1.6195250 -0.0019866
  0.0110561  0.0150818  1.6162511 -0.0031280  0.0041142  1.6162615 -0.0031384
  0.0113254  0.0146406  1.6190099 -0.0014353  0.0024907  1.6190138 -0.0014392
  0.0114242  0.0150001  1.6157683 -0.0025939  0.0030569  1.6157741 -0.0025997
  0.0107019  0.0147753  1.6180988 -0.0015009  0.0023104  1.6181021 -0.0015042
  0.0103363  0.0148414  1.6184893 -0.0020290  0.0034338  1.6184966 -0.0020363
  0.0107877  0.0151371  1.6147172 -0.0026681  0.0028347  1.6147222 -0.0026731
  0.0104225  0.0152068  1.6151398 -0.0031842  0.0039514  1.6151495 -0.0031938
  0.0106435  0.0145131  1.6204156 -0.0024923  0.0026255  1.6204198 -0.0024965
  0.0105699  0.0141586  1.6238713 -0.0013339  0.0021518  1.6238741 -0.0013367
  0.0102774  0.0145739  1.6207895 -0.0029663  0.0037833  1.6207983 -0.0029752
  0.0102026  0.0142086  1.6241460 -0.0018428  0.0033266  1.6241528 -0.0018496
  0.0109060  0.0144634  1.6218084 -0.0028658  0.0039185  1.6218178 -0.0028752
  0.0112570  0.0143883  1.6213498 -0.0024246  0.0029033  1.6213550 -0.0024298
  0.0108288  0.0141183  1.6248455 -0.0018270  0.0034645  1.6248529 -0.0018343
  0.0111689  0.0140585  1.6244846 -0.0013272  0.0023891  1.6244881 -0.0013307
  0.0096975  0.0149400  1.6176520 -0.0020558  0.0032754  1.6176587 -0.0020624
  0.0097873  0.0153129  1.6141930 -0.0032594  0.0038275  1.6142020 -0.0032685
  0.0100672  0.0148855  1.6173777 -0.0014490  0.0021231  1.6173804 -0.0014517
  0.0101544  0.0152540  1.6138728 -0.0026657  0.0026776  1.6138772 -0.0026702
  0.0094244  0.0149798  1.6166703 -0.0014119  0.0019428  1.6166727 -0.0014142
  0.0090480  0.0150341  1.6169234 -0.0020787  0.0031092  1.6169294 -0.0020846
  0.0095161  0.0153558  1.6131125 -0.0026628  0.0025309  1.6131165 -0.0026668
  0.0091422  0.0154138  1.6134037 -0.0033193  0.0036960  1.6134121 -0.0033278
  0.0093596  0.0147038  1.6190313 -0.0024808  0.0023244  1.6190346 -0.0024841
  0.0092742  0.0143257  1.6226292 -0.0012427  0.0017739  1.6226312 -0.0012447
  0.0089809  0.0147560  1.6192900 -0.0031082  0.0035324  1.6192977 -0.0031159
  0.0088919  0.0143761  1.6228639 -0.0018726  0.0029755  1.6228694 -0.0018781
  0.0096345  0.0146659  1.6199819 -0.0030669  0.0036674  1.6199902 -0.0030752
  0.0100070  0.0146148  1.6197049 -0.0025149  0.0024598  1.6197086 -0.0025187
  0.0095523  0.0142903  1.6235152 -0.0018702  0.0031599  1.6235213 -0.0018764
  0.0099300  0.0142439  1.6232908 -0.0013074  0.0019582  1.6232932 -0.0013097
  0.0096913  0.0159990  1.6072975 -0.0028246  0.0027861  1.6073023 -0.0028294
  0.0095876  0.0156289  1.6107454 -0.0015512  0.0021276  1.6107482 -0.0015540
  0.0093208  0.0160674  1.6076328 -0.0035630  0.0038861  1.6076422 -0.0035724
  0.0092153  0.0156907  1.6110203 -0.0023121  0.0032394  1.6110268 -0.0023186
  0.0099585  0.0159487  1.6085615 -0.0034735  0.0040042  1.6085714 -0.0034834
  0.0103179  0.0158798  1.6081887 -0.0028146  0.0029170  1.6081939 -0.0028198
  0.0098572  0.0155832  1.6118667 -0.0022706  0.0033970  1.6118738 -0.0022777
  0.0102216  0.0155204  1.6115578 -0.0015952  0.0023081  1.6115611 -0.0015985
  0.0100382  0.0162152  1.6062251 -0.0024933  0.0035339  1.6062329 -0.0025011
  0.0101546  0.0165780  1.6031248 -0.0037042  0.0042082  1.6031358 -0.0037152
  0.0103923  0.0161395  1.6058709 -0.0017259  0.0025542  1.6058749 -0.0017299
  0.0104991  0.0164899  1.6026430 -0.0029724  0.0032397  1.6026495 -0.0029789
  0.0097731  0.0162704  1.6048704 -0.0017150  0.0023447  1.6048738 -0.0017184
  0.0094029  0.0163455  1.6051994 -0.0025564  0.0033743  1.6052065 -0.0025634
  0.0098927  0.0166419  1.6015526 -0.0030193  0.0030762  1.6015585 -0.0030252
  0.0095217  0.0167284  1.6019689 -0.0038158  0.0040746  1.6019792 -0.0038261
  0.0087465  0.0164575  1.6042594 -0.0025766  0.0032075  1.6042658 -0.0025830
  0.0088590  0.0168528  1.6007232 -0.0038983  0.0039038  1.6007327 -0.0039078
  0.0091278  0.0163956  1.6040036 -0.0017439  0.0020662  1.6040062 -0.0017466
  0.0092448  0.0167849  1.6004261 -0.0030953  0.0027888  1.6004310 -0.0031002
  0.0084643  0.0164991  1.6032891 -0.0017679  0.0018231  1.6032911 -0.0017699
  0.0080748  0.0165510  1.6034804 -0.0025803  0.0030353  1.6034861 -0.0025860
  0.0085736  0.0168983  1.5995466 -0.0031333  0.0025151  1.5995506 -0.0031373
  0.0081794  0.0169548  1.5997709 -0.0039212  0.0037034  1.5997794 -0.0039297
  0.0083871  0.0162100  1.6057617 -0.0028905  0.0023397  1.6057651 -0.0028939
  0.0082854  0.0158194  1.6094585 -0.0015604  0.0016829  1.6094602 -0.0015621
  0.0080004  0.0162589  1.6059345 -0.0036641  0.0035328  1.6059423 -0.0036719
  0.0079017  0.0158646  1.6096031 -0.0023524  0.0028931  1.6096083 -0.0023576
  0.0086674  0.0161711  1.6067174 -0.0036334  0.0037271  1.6067260 -0.0036420
  0.0090464  0.0161135  1.6064828 -0.0028499  0.0025874  1.6064869 -0.0028540
  0.0085638  0.0157839  1.6102478 -0.0023422  0.0030700  1.6102537 -0.0023481
  0.0089410  0.0157322  1.6100612 -0.0015334  0.0019108  1.6100634 -0.0015356
  0.0087737  0.0176024  1.5931766 -0.0033821  0.0026900  1.5931812 -0.0033867
  0.0086565  0.0171940  1.5969743 -0.0019765  0.0019604  1.5969767 -0.0019789
  0.0083697  0.0176674  1.5934565 -0.0041915  0.0038848  1.5934659 -0.0042010
  0.0082584  0.0172540  1.5972234 -0.0028133  0.0031831  1.5972297 -0.0028197
  0.0090669  0.0175494  1.5945782 -0.0041728  0.0040810  1.5945886 -0.0041832
  0.0094641  0.0174695  1.5942097 -0.0033360  0.0029697  1.5942152 -0.0033415
  0.0089449  0.0171454  1.5981492 -0.0028077  0.0033397  1.5981562 -0.0028147
  0.0093349  0.0170726  1.5978216 -0.0019329  0.0021926  1.5978246 -0.0019359
  0.0091585  0.0178501  1.5918703 -0.0030150  0.0035134  1.5918781 -0.0030228
  0.0092864  0.0182677  1.5881692 -0.0044349  0.0042879  1.5881807 -0.0044464
  0.0095614  0.0177662  1.5914575 -0.0021375  0.0023447  1.5914610 -0.0021410
  0.0096980  0.0181800  1.5877497 -0.0035832  0.0031488  1.5877560 -0.0035895
  0.0088616  0.0179060  1.5905033 -0.0021955  0.0021236  1.5905061 -0.0021984
  0.0084533  0.0179748  1.5908149 -0.0030435  0.0033547  1.5908220 -0.0030506
  0.0089843  0.0183269  1.5866286 -0.0036391  0.0028805  1.5866338 -0.0036443
  0.0085704  0.0184012  1.5869738 -0.0044587  0.0040838  1.5869843 -0.0044692
  0.0083961  0.0151170  1.6162318 -0.0021043  0.0029297  1.6162371 -0.0021096
  0.0084912  0.0155015  1.6126300 -0.0033822  0.0035428  1.6126378 -0.0033900
  0.0087725  0.0150709  1.6160636 -0.0013667  0.0017454  1.6160655 -0.0013686
  0.0088676  0.0154528  1.6124396 -0.0026540  0.0023646  1.6124430 -0.0026575
  0.0081195  0.0151491  1.6155252 -0.0013688  0.0015411  1.6155266 -0.0013702
  0.0077400  0.0151904  1.6156529 -0.0021205  0.0027544  1.6156576 -0.0021252
  0.0082137  0.0155351  1.6118488 -0.0026671  0.0021576  1.6118517 -0.0026700
  0.0078319  0.0155783  1.6119902 -0.0034086  0.0033603  1.6119972 -0.0034156
  0.0080517  0.0148682  1.6178719 -0.0024643  0.0019930  1.6178743 -0.0024667
  0.0079605  0.0144869  1.6215184 -0.0011844  0.0013939  1.6215196 -0.0011856
  0.0076735  0.0149087  1.6179980 -0.0031941  0.0031999  1.6180043 -0.0032004
  0.0075838  0.0145269  1.6216418 -0.0019183  0.0026061  1.6216460 -0.0019225
  0.0083279  0.0148368  1.6185893 -0.0031690  0.0033726  1.6185963 -0.0031760
  0.0087045  0.0147917  1.6184198 -0.0024485  0.0021715  1.6184228 -0.0024514
  0.0082365  0.0144558  1.6222166 -0.0018941  0.0027738  1.6222213 -0.0018989
  0.0086138  0.0144109  1.6220507 -0.0011738  0.0015744  1.6220522 -0.0011753
  0.0091347  0.0136505  1.6287214 -0.0010282  0.0015790  1.6287229 -0.0010298
  0.0087418  0.0137088  1.6290294 -0.0016357  0.0028104  1.6290342 -0.0016406
  0.0092139  0.0140435  1.6250160 -0.0022819  0.0021082  1.6250187 -0.0022846
  0.0088278  0.0140955  1.6252801 -0.0029189  0.0033721  1.6252871 -0.0029259
  0.0090691  0.0133639  1.6311344 -0.0020726  0.0020377  1.6311370 -0.0020751
  0.0089692  0.0129739  1.6346719 -0.0008189  0.0014372  1.6346732 -0.0008201
  0.0086750  0.0134271  1.6314515 -0.0027483  0.0032377  1.6314579 -0.0027547
  0.0085784  0.0130441  1.6350579 -0.0014731  0.0026301  1.6350621 -0.0014774
  0.0093651  0.0133216  1.6322411 -0.0028534  0.0033970  1.6322482 -0.0028605
  0.0097794  0.0132691  1.6319586 -0.0021304  0.0019205  1.6319608 -0.0021326
  0.0092775  0.0129122  1.6365286 -0.0013983  0.0027765  1.6365333 -0.0014030
  0.0097288  0.0128139  1.6359251 -0.0008588  0.0014847  1.6359265 -0.0008602
  0.0094236  0.0136154  1.6296185 -0.0016248  0.0031168  1.6296244 -0.0016308
  0.0094958  0.0140088  1.6258952 -0.0028257  0.0035301  1.6259028 -0.0028334
  0.0098198  0.0135778  1.6294193 -0.0012299  0.0018468  1.6294214 -0.0012320
  0.0098798  0.0139660  1.6256288 -0.0024390  0.0022297  1.6256319 -0.0024420
  0.0080164  0.0135193  1.6305873 -0.0027814  0.0030603  1.6305930 -0.0027871
  0.0083929  0.0134687  1.6303720 -0.0020788  0.0018797  1.6303741 -0.0020810
  0.0079242  0.0131442  1.6341736 -0.0015149  0.0024589  1.6341773 -0.0015186
  0.0082984  0.0130897  1.6339186 -0.0008236  0.0012807  1.6339196 -0.0008246
  0.0080825  0.0137960  1.6282288 -0.0016856  0.0026314  1.6282331 -0.0016898
  0.0081708  0.0141769  1.6245764 -0.0029527  0.0032076  1.6245828 -0.0029590
  0.0084599  0.0137478  1.6280170 -0.0010217  0.0014297  1.6280182 -0.0010229
  0.0085483  0.0141312  1.6243876 -0.0022800  0.0020008  1.6243901 -0.0022824
  0.0078077  0.0138290  1.6274425 -0.0010309  0.0012667  1.6274435 -0.0010319
  0.0074345  0.0138710  1.6276000 -0.0017122  0.0024718  1.6276037 -0.0017160
  0.0078951  0.0142085  1.6238280 -0.0022843  0.0018358  1.6238301 -0.0022863
  0.0075197  0.0142489  1.6239679 -0.0029682  0.0030380  1.6239736 -0.0029739
  0.0077427  0.0135536  1.6297470 -0.0020987  0.0017150  1.6297488 -0.0021005
  0.0076526  0.0131805  1.6332940 -0.0008561  0.0011359  1.6332948 -0.0008569
  0.0073715  0.0135967  1.6299074 -0.0027836  0.0028935  1.6299125 -0.0027887
  0.0072848  0.0132251  1.6334735 -0.0015403  0.0023211  1.6334768 -0.0015436
  0.0077647  0.0125000  1.6400763 -0.0013334  0.0022989  1.6400795 -0.0013366
  0.0078568  0.0128711  1.6365467 -0.0025804  0.0028916  1.6365518 -0.0025855
  0.0081295  0.0124399  1.6397588 -0.0006808  0.0011489  1.6397596 -0.0006816
  0.0082278  0.0128141  1.6362703 -0.0019239  0.0017515  1.6362722 -0.0019258
  0.0074994  0.0125395  1.6390820 -0.0007314  0.0010259  1.6390827 -0.0007321
  0.0071395  0.0125871  1.6393073 -0.0013553  0.0021898  1.6393102 -0.0013582
  0.0075874  0.0129088  1.6355762 -0.0019492  0.0015817  1.6355777 -0.0019507
  0.0072226  0.0129546  1.6357765 -0.0025733  0.0027352  1.6357811 -0.0025779
  0.0074341  0.0122729  1.6413665 -0.0017867  0.0014777  1.6413678 -0.0017881
  0.0073439  0.0119140  1.6447783 -0.0005857  0.0009110  1.6447788 -0.0005862
  0.0070779  0.0123214  1.6415862 -0.0024145  0.0025946  1.6415903 -0.0024186
  0.0069927  0.0119631  1.6450127 -0.0012179  0.0020413  1.6450152 -0.0012204
  0.0076962  0.0122327  1.6424359 -0.0024177  0.0027338  1.6424404 -0.0024222
  0.0080559  0.0121713  1.6421315 -0.0017624  0.0016539  1.6421331 -0.0017641
  0.0076012  0.0118735  1.6458057 -0.0012046  0.0021341  1.6458085 -0.0012074
  0.0079531  0.0118118  1.6454801 -0.0005411  0.0010343  1.6454807 -0.0005417
  0.0065260  0.0126515  1.6387230 -0.0013710  0.0020628  1.6387256 -0.0013736
  0.0066016  0.0130173  1.6351702 -0.0025742  0.0025723  1.6351743 -0.0025782
  0.0068787  0.0126171  1.6386034 -0.0007608  0.0008941  1.6386039 -0.0007613
  0.0069585  0.0129837  1.6350633 -0.0019669  0.0014149  1.6350646 -0.0019681
  0.0062687  0.0126739  1.6382453 -0.0007970  0.0007583  1.6382456 -0.0007973
  0.0059182  0.0127006  1.6383064 -0.0013817  0.0019366  1.6383087 -0.0013839
  0.0063414  0.0130390  1.6346934 -0.0019859  0.0012414  1.6346943 -0.0019868
  0.0059872  0.0130645  1.6347404 -0.0025694  0.0024100  1.6347440 -0.0025730
  0.0062153  0.0124091  1.6404174 -0.0018258  0.0011477  1.6404182 -0.0018266
  0.0061421  0.0120506  1.6439198 -0.0006491  0.0006629  1.6439200 -0.0006494
  0.0058676  0.0124362  1.6404812 -0.0023999  0.0022928  1.6404844 -0.0024031
  0.0057985  0.0120779  1.6439887 -0.0012282  0.0018205  1.6439908 -0.0012302
  0.0064704  0.0123865  1.6409305 -0.0024092  0.0024451  1.6409341 -0.0024129
  0.0068196  0.0123518  1.6408163 -0.0017996  0.0013171  1.6408173 -0.0018007
  0.0063939  0.0120280  1.6444087 -0.0012227  0.0019309  1.6444110 -0.0012250
  0.0067381  0.0119936  1.6442901 -0.0006052  0.0007871  1.6442905 -0.0006056
  0.0074445  0.0112593  1.6514351 -0.0010488  0.0020171  1.6514376 -0.0010513
  0.0075338  0.0116127  1.6481378 -0.0022174  0.0025767  1.6481418 -0.0022215
  0.0077837  0.0112009  1.6511166 -0.0004450  0.0009477  1.6511172 -0.0004456
  0.0078802  0.0115518  1.6478154 -0.0016306  0.0015324  1.6478169 -0.0016320
  0.0071951  0.0112985  1.6504137 -0.0004881  0.0008219  1.6504141 -0.0004885
  0.0068528  0.0113474  1.6506688 -0.0010530  0.0019316  1.6506711 -0.0010553
  0.0072798  0.0116529  1.6470285 -0.0016599  0.0013523  1.6470296 -0.0016610
  0.0069324  0.0117021  1.6472760 -0.0022180  0.0024465  1.6472796 -0.0022217
  0.0071343  0.0110418  1.6526484 -0.0015229  0.0012481  1.6526493 -0.0015239
  0.0070530  0.0106946  1.6559817 -0.0003754  0.0007365  1.6559820 -0.0003757
  0.0067954  0.0110900  1.6528979 -0.0020539  0.0023199  1.6529011 -0.0020571
  0.0067185  0.0107415  1.6562275 -0.0009158  0.0018237  1.6562295 -0.0009178
  0.0073810  0.0110034  1.6537087 -0.0020514  0.0024396  1.6537123 -0.0020550
  0.0077161  0.0109470  1.6534066 -0.0014890  0.0014073  1.6534078 -0.0014902
  0.0072967  0.0106578  1.6569528 -0.0009127  0.0019064  1.6569550 -0.0009149
  0.0076278  0.0106043  1.6566672 -0.0003354  0.0008566  1.6566677 -0.0003359
  0.0069226  0.0100928  1.6615200 -0.0002916  0.0006655  1.6615203 -0.0002918
  0.0065942  0.0101381  1.6617752 -0.0007601  0.0017397  1.6617770 -0.0007619
  0.0069963  0.0104403  1.6581760 -0.0014159  0.0011305  1.6581768 -0.0014167
  0.0066645  0.0104864  1.6584314 -0.0018787  0.0021932  1.6584343 -0.0018816
  0.0068695  0.0098398  1.6636992 -0.0012907  0.0010285  1.6636998 -0.0012914
  0.0067982  0.0094961  1.6670247 -0.0001781  0.0005766  1.6670249 -0.0001783
  0.0065435  0.0098844  1.6639495 -0.0017350  0.0020795  1.6639521 -0.0017376
  0.0064754  0.0095396  1.6672709 -0.0006292  0.0016393  1.6672725 -0.0006308
  0.0071080  0.0098050  1.6646593 -0.0017256  0.0021901  1.6646622 -0.0017285
  0.0074335  0.0097548  1.6643748 -0.0012505  0.0011591  1.6643756 -0.0012513
  0.0070345  0.0094623  1.6679231 -0.0006193  0.0017201  1.6679249 -0.0006211
  0.0073574  0.0094133  1.6676445 -0.0001372  0.0006790  1.6676447 -0.0001375
  0.0071625  0.0100575  1.6624736 -0.0007506  0.0018296  1.6624756 -0.0007526
  0.0072381  0.0104044  1.6591847 -0.0018678  0.0023076  1.6591879 -0.0018710
  0.0074897  0.0100064  1.6621794 -0.0002691  0.0007837  1.6621798 -0.0002695
  0.0075671  0.0103523  1.6588856 -0.0013916  0.0012692  1.6588866 -0.0013926
  0.0082943  0.0108217  1.6543843 -0.0014732  0.0015905  1.6543858 -0.0014748
  0.0081963  0.0104931  1.6574326 -0.0003578  0.0010199  1.6574332 -0.0003584
  0.0079608  0.0108983  1.6548317 -0.0019904  0.0025422  1.6548356 -0.0019943
  0.0078689  0.0105601  1.6578205 -0.0009138  0.0020089  1.6578229 -0.0009163
  0.0085229  0.0107605  1.6563423 -0.0019232  0.0025731  1.6563463 -0.0019272
  0.0088138  0.0106700  1.6558508 -0.0013838  0.0018483  1.6558529 -0.0013859
  0.0084249  0.0104457  1.6587098 -0.0010000  0.0020597  1.6587123 -0.0010026
  0.0087220  0.0103831  1.6584407 -0.0003677  0.0012796  1.6584417 -0.0003687
  0.0086081  0.0109980  1.6536563 -0.0009697  0.0020936  1.6536589 -0.0009723
  0.0087431  0.0113320  1.6510032 -0.0021482  0.0028152  1.6510080 -0.0021530
  0.0089171  0.0108905  1.6530398 -0.0001243  0.0012695  1.6530408 -0.0001253
  0.0091078  0.0112063  1.6504870 -0.0014280  0.0021142  1.6504897 -0.0014307
  0.0083710  0.0110674  1.6519948 -0.0003941  0.0010798  1.6519956 -0.0003948
  0.0080320  0.0111494  1.6524741 -0.0010384  0.0020753  1.6524767 -0.0010410
  0.0084822  0.0114100  1.6488855 -0.0015804  0.0017240  1.6488873 -0.0015822
  0.0081344  0.0114975  1.6493776 -0.0021966  0.0026862  1.6493820 -0.0022010
  0.0080632  0.0099034  1.6629581 -0.0002306  0.0009108  1.6629586 -0.0002311
  0.0077310  0.0099651  1.6633291 -0.0007052  0.0019319  1.6633314 -0.0007075
  0.0081343  0.0102470  1.6597086 -0.0013335  0.0013811  1.6597097 -0.0013346
  0.0078073  0.0103101  1.6601060 -0.0018077  0.0024138  1.6601096 -0.0018112
  0.0080081  0.0096514  1.6651338 -0.0012398  0.0012495  1.6651348 -0.0012407
  0.0079285  0.0093066  1.6683372 -0.0001459  0.0007727  1.6683376 -0.0001462
  0.0076746  0.0097136  1.6655226 -0.0016832  0.0022842  1.6655257 -0.0016863
  0.0075970  0.0093716  1.6687556 -0.0005813  0.0018070  1.6687576 -0.0005832
  0.0082569  0.0096113  1.6662579 -0.0017655  0.0023503  1.6662612 -0.0017688
  0.0086033  0.0095639  1.6659335 -0.0012979  0.0010731  1.6659341 -0.0012986
  0.0081893  0.0092500  1.6701238 -0.0004973  0.0018764  1.6701259 -0.0004994
  0.0085701  0.0091606  1.6695113 -0.0001803  0.0007633  1.6695117 -0.0001806
  0.0083043  0.0098675  1.6639634 -0.0006919  0.0021457  1.6639661 -0.0006947
  0.0083663  0.0102064  1.6607854 -0.0017081  0.0024800  1.6607891 -0.0017118
  0.0086308  0.0098312  1.6637375 -0.0004331  0.0011089  1.6637383 -0.0004338
  0.0086730  0.0101583  1.6604047 -0.0014794  0.0013974  1.6604059 -0.0014806
  0.0092821  0.0106648  1.6551153 -0.0003329  0.0019890  1.6551177 -0.0003353
  0.0090977  0.0108012  1.6547560 -0.0013476  0.0017023  1.6547577 -0.0013493
  0.0094731  0.0107953  1.6548529 -0.0013903  0.0022156  1.6548559 -0.0013933
  0.0093034  0.0110625  1.6546459 -0.0018915  0.0019358  1.6546482 -0.0018938
  0.0092049  0.0105356  1.6564644 -0.0015325  0.0017274  1.6564662 -0.0015343
  0.0091849  0.0103133  1.6592465 -0.0006502  0.0014368  1.6592478 -0.0006515
  0.0089965  0.0106097  1.6572034 -0.0017932  0.0025453  1.6572073 -0.0017971
  0.0089257  0.0103476  1.6593989 -0.0010231  0.0021825  1.6594017 -0.0010260
  0.0093554  0.0105347  1.6564925 -0.0014983  0.0021903  1.6564954 -0.0015012
  0.0095583  0.0106062  1.6571956 -0.0016938  0.0014145  1.6571968 -0.0016950
  0.0093713  0.0103157  1.6590516 -0.0006989  0.0024228  1.6590551 -0.0007025
  0.0096216  0.0103566  1.6592702 -0.0009827  0.0017307  1.6592720 -0.0009845
  0.0091817  0.0098105  1.6641155 -0.0005863  0.0012357  1.6641164 -0.0005872
  0.0088659  0.0098160  1.6641299 -0.0006913  0.0022496  1.6641329 -0.0006944
  0.0091787  0.0101190  1.6608987 -0.0015501  0.0012711  1.6608997 -0.0015510
  0.0088907  0.0101349  1.6610350 -0.0016288  0.0023784  1.6610384 -0.0016322
  0.0091951  0.0095713  1.6662760 -0.0016500  0.0010745  1.6662767 -0.0016507
  0.0092285  0.0092265  1.6701707 -0.0004537  0.0013172  1.6701718 -0.0004547
  0.0088547  0.0095532  1.6661675 -0.0014027  0.0023888  1.6661709 -0.0014061
  0.0088486  0.0091543  1.6696173 -0.0003717  0.0024689  1.6696209 -0.0003753
  0.0094340  0.0095939  1.6654651 -0.0013052  0.0022383  1.6654681 -0.0013082
  0.0097461  0.0096374  1.6657702 -0.0015558  0.0012073  1.6657710 -0.0015566
  0.0094839  0.0092719  1.6684368 -0.0003614  0.0025283  1.6684406 -0.0003652
  0.0098017  0.0093240  1.6688055 -0.0005841  0.0015269  1.6688069 -0.0005855
  0.0094075  0.0098224  1.6636157 -0.0005393  0.0025620  1.6636196 -0.0005432
  0.0093853  0.0101248  1.6606539 -0.0014453  0.0023944  1.6606573 -0.0014487
  0.0097086  0.0098605  1.6638888 -0.0006769  0.0016177  1.6638903 -0.0006785
  0.0096619  0.0101568  1.6609193 -0.0016052  0.0013630  1.6609204 -0.0016063
  0.0099511  0.0109617  1.6537513 -0.0009449  0.0020026  1.6537537 -0.0009473
  0.0096523  0.0108749  1.6531484 -0.0004255  0.0029291  1.6531536 -0.0004307
  0.0098598  0.0112633  1.6509834 -0.0019747  0.0014629  1.6509847 -0.0019760
  0.0095076  0.0111863  1.6506292 -0.0014565  0.0023063  1.6506324 -0.0014597
  0.0100156  0.0107457  1.6562278 -0.0018394  0.0014797  1.6562291 -0.0018407
  0.0101008  0.0104573  1.6583360 -0.0010223  0.0019318  1.6583383 -0.0010245
  0.0097352  0.0106628  1.6558150 -0.0013167  0.0021468  1.6558178 -0.0013195
  0.0098171  0.0103946  1.6580735 -0.0004349  0.0026383  1.6580777 -0.0004391
  0.0102295  0.0108021  1.6541694 -0.0014777  0.0024834  1.6541731 -0.0014814
  0.0105333  0.0108733  1.6546048 -0.0018798  0.0016186  1.6546064 -0.0018814
  0.0103150  0.0105045  1.6568384 -0.0005232  0.0029526  1.6568437 -0.0005285
  0.0106168  0.0105708  1.6572411 -0.0009430  0.0020719  1.6572437 -0.0009456
  0.0101707  0.0110198  1.6520428 -0.0006755  0.0030658  1.6520485 -0.0006812
  0.0100958  0.0113171  1.6493156 -0.0016126  0.0026472  1.6493199 -0.0016168
  0.0104721  0.0110920  1.6525232 -0.0009957  0.0021824  1.6525261 -0.0009985
  0.0103883  0.0113869  1.6498087 -0.0019432  0.0017365  1.6498105 -0.0019450
  0.0102283  0.0099404  1.6630137 -0.0007810  0.0017828  1.6630156 -0.0007829
  0.0099285  0.0098921  1.6627459 -0.0003663  0.0026887  1.6627503 -0.0003706
  0.0101577  0.0102415  1.6602619 -0.0017241  0.0013674  1.6602630 -0.0017252
  0.0098689  0.0101881  1.6599210 -0.0013178  0.0022933  1.6599241 -0.0013210
  0.0102783  0.0097166  1.6649611 -0.0016249  0.0012957  1.6649621 -0.0016259
  0.0103446  0.0094064  1.6678856 -0.0006490  0.0016892  1.6678874 -0.0006507
  0.0099723  0.0096703  1.6646724 -0.0012460  0.0022898  1.6646755 -0.0012491
  0.0100323  0.0093600  1.6676114 -0.0002746  0.0026652  1.6676156 -0.0002788
  0.0105035  0.0097525  1.6638127 -0.0012373  0.0023551  1.6638160 -0.0012407
  0.0108127  0.0098042  1.6641159 -0.0016817  0.0013849  1.6641171 -0.0016829
  0.0105735  0.0094410  1.6667528 -0.0002338  0.0027911  1.6667575 -0.0002385
  0.0108866  0.0094892  1.6670169 -0.0006863  0.0018248  1.6670189 -0.0006883
  0.0104501  0.0099783  1.6617857 -0.0003440  0.0028374  1.6617905 -0.0003489
  0.0103742  0.0102838  1.6589922 -0.0013278  0.0023730  1.6589956 -0.0013312
  0.0107564  0.0100337  1.6620804 -0.0008264  0.0019417  1.6620827 -0.0008287
  0.0106766  0.0103458  1.6593523 -0.0017913  0.0014816  1.6593536 -0.0017926
  0.0110018  0.0112127  1.6512459 -0.0010781  0.0022818  1.6512491 -0.0010813
  0.0106948  0.0111436  1.6508907 -0.0004997  0.0031270  1.6508966 -0.0005057
  0.0109078  0.0115201  1.6486608 -0.0020578  0.0017556  1.6486627 -0.0020596
  0.0106058  0.0114413  1.6482138 -0.0015094  0.0025882  1.6482179 -0.0015135
  0.0110677  0.0109861  1.6533334 -0.0019541  0.0016931  1.6533351 -0.0019558
  0.0111539  0.0106746  1.6561247 -0.0009519  0.0021873  1.6561275 -0.0009548
  0.0107579  0.0109226  1.6529628 -0.0014600  0.0026182  1.6529670 -0.0014642
  0.0108416  0.0106163  1.6558048 -0.0004417  0.0031181  1.6558107 -0.0004475
  0.0112967  0.0110335  1.6518693 -0.0014758  0.0027140  1.6518738 -0.0014803
  0.0116126  0.0110995  1.6522328 -0.0020181  0.0017978  1.6522348 -0.0020200
  0.0113842  0.0107182  1.6547419 -0.0004304  0.0032416  1.6547483 -0.0004368
  0.0117012  0.0107789  1.6550586 -0.0009905  0.0023157  1.6550618 -0.0009937
  0.0112298  0.0112638  1.6496956 -0.0005470  0.0032869  1.6497021 -0.0005536
  0.0111343  0.0115774  1.6469790 -0.0015780  0.0027321  1.6469836 -0.0015825
  0.0115456  0.0113343  1.6500513 -0.0011474  0.0024252  1.6500549 -0.0011510
  0.0114513  0.0116551  1.6473859 -0.0021521  0.0018896  1.6473881 -0.0021543
  0.0112987  0.0101243  1.6611102 -0.0008412  0.0020756  1.6611128 -0.0008438
  0.0109838  0.0100728  1.6608429 -0.0003244  0.0030311  1.6608485 -0.0003300
  0.0112158  0.0104437  1.6582109 -0.0018666  0.0015863  1.6582124 -0.0018682
  0.0109021  0.0103886  1.6579101 -0.0013611  0.0025370  1.6579140 -0.0013650
  0.0113578  0.0098896  1.6631927 -0.0017571  0.0014821  1.6631941 -0.0017584
  0.0114364  0.0095678  1.6661528 -0.0007249  0.0019581  1.6661551 -0.0007272
  0.0110416  0.0098409  1.6629388 -0.0012427  0.0024667  1.6629425 -0.0012463
  0.0111178  0.0095232  1.6659400 -0.0001988  0.0029449  1.6659452 -0.0002040
  0.0115910  0.0099255  1.6620336 -0.0012693  0.0025971  1.6620377 -0.0012734
  0.0119118  0.0099749  1.6622887 -0.0017962  0.0016005  1.6622902 -0.0017977
  0.0116711  0.0096008  1.6650979 -0.0001979  0.0030945  1.6651036 -0.0002037
  0.0119937  0.0096463  1.6653153 -0.0007364  0.0020944  1.6653180 -0.0007390
  0.0115309  0.0101624  1.6598970 -0.0003149  0.0031793  1.6599031 -0.0003210
  0.0114470  0.0104848  1.6568968 -0.0013803  0.0026666  1.6569011 -0.0013846
  0.0118505  0.0102148  1.6601648 -0.0008541  0.0022121  1.6601678 -0.0008570
  0.0117649  0.0105418  1.6572075 -0.0019050  0.0017056  1.6572092 -0.0019067
  0.0121024  0.0114445  1.6488877 -0.0011551  0.0025711  1.6488917 -0.0011591
  0.0117794  0.0113828  1.6485599 -0.0005945  0.0035201  1.6485674 -0.0006021
  0.0120117  0.0117741  1.6459841 -0.0022069  0.0020445  1.6459867 -0.0022094
  0.0116864  0.0117078  1.6456256 -0.0016649  0.0029770  1.6456310 -0.0016703
  0.0121681  0.0112039  1.6510870 -0.0020827  0.0019255  1.6510893 -0.0020849
  0.0122571  0.0108760  1.6540257 -0.0010212  0.0024540  1.6540293 -0.0010248
  0.0118461  0.0111452  1.6507839 -0.0015172  0.0028773  1.6507889 -0.0015222
  0.0119351  0.0108211  1.6537547 -0.0004420  0.0034148  1.6537618 -0.0004490
  0.0124042  0.0112461  1.6497202 -0.0015546  0.0030398  1.6497258 -0.0015602
  0.0127269  0.0113029  1.6500167 -0.0021046  0.0020739  1.6500193 -0.0021072
  0.0124930  0.0109165  1.6527376 -0.0004727  0.0035711  1.6527453 -0.0004804
  0.0128153  0.0109722  1.6530264 -0.0010268  0.0026016  1.6530305 -0.0010309
  0.0123392  0.0114883  1.6474857 -0.0006180  0.0036861  1.6474940 -0.0006263
  0.0122504  0.0118201  1.6444584 -0.0016935  0.0031674  1.6444645 -0.0016996
  0.0126631  0.0115460  1.6478037 -0.0011372  0.0027063  1.6478081 -0.0011416
  0.0125773  0.0118795  1.6447830 -0.0022042  0.0021986  1.6447859 -0.0022071
  0.0124088  0.0103025  1.6592226 -0.0008794  0.0023482  1.6592259 -0.0008827
  0.0120857  0.0102524  1.6589819 -0.0003081  0.0033318  1.6589886 -0.0003148
  0.0123216  0.0106345  1.6561865 -0.0019626  0.0018218  1.6561885 -0.0019646
  0.0119993  0.0105819  1.6559230 -0.0013993  0.0028018  1.6559277 -0.0014040
  0.0124719  0.0100584  1.6613801 -0.0018442  0.0017178  1.6613819 -0.0018459
  0.0125571  0.0097235  1.6644670 -0.0007547  0.0022349  1.6644700 -0.0007577
  0.0121478  0.0100105  1.6611483 -0.0012829  0.0027238  1.6611527 -0.0012874
  0.0122311  0.0096792  1.6642706 -0.0001828  0.0032438  1.6642770 -0.0001891
  0.0127098  0.0100944  1.6602380 -0.0013043  0.0028559  1.6602429 -0.0013092
  0.0130356  0.0101452  1.6604888 -0.0018697  0.0018552  1.6604908 -0.0018718
  0.0127966  0.0097571  1.6633844 -0.0001888  0.0033906  1.6633913 -0.0001957
  0.0131250  0.0098045  1.6636018 -0.0007627  0.0023896  1.6636052 -0.0007662
  0.0126458  0.0103401  1.6580271 -0.0003296  0.0034798  1.6580344 -0.0003369
  0.0125577  0.0106737  1.6549544 -0.0014270  0.0029453  1.6549597 -0.0014322
  0.0129701  0.0103927  1.6582868 -0.0008922  0.0025039  1.6582906 -0.0008960
  0.0128804  0.0107283  1.6552349 -0.0019842  0.0019699  1.6552373 -0.0019865
  0.0132167  0.0116333  1.6468052 -0.0011514  0.0028204  1.6468101 -0.0011563
  0.0128983  0.0115849  1.6465510 -0.0006280  0.0038257  1.6465599 -0.0006369
  0.0131395  0.0119628  1.6436877 -0.0022319  0.0023303  1.6436910 -0.0022352
  0.0128155  0.0119178  1.6434743 -0.0017028  0.0033274  1.6434810 -0.0017096
  0.0132773  0.0113932  1.6489951 -0.0021300  0.0022171  1.6489981 -0.0021330
  0.0133654  0.0110669  1.6520349 -0.0010400  0.0027526  1.6520395 -0.0010446
  0.0129609  0.0113423  1.6487427 -0.0015713  0.0031820  1.6487488 -0.0015774
  0.0130491  0.0110125  1.6517524 -0.0004938  0.0037095  1.6517608 -0.0005021
  0.0135031  0.0114302  1.6478250 -0.0015762  0.0032998  1.6478316 -0.0015828
  0.0138036  0.0114805  1.6480747 -0.0021389  0.0023776  1.6480781 -0.0021423
  0.0135918  0.0111100  1.6506565 -0.0005487  0.0038159  1.6506653 -0.0005575
  0.0138940  0.0111734  1.6510129 -0.0010612  0.0029300  1.6510181 -0.0010664
  0.0134443  0.0116660  1.6457130 -0.0007095  0.0039359  1.6457224 -0.0007189
  0.0133726  0.0119898  1.6427589 -0.0017099  0.0035115  1.6427664 -0.0017174
  0.0137477  0.0117068  1.6459356 -0.0011569  0.0029439  1.6459409 -0.0011621
  0.0136854  0.0120183  1.6428533 -0.0021892  0.0025237  1.6428571 -0.0021930
  0.0135280  0.0104898  1.6572857 -0.0009106  0.0026879  1.6572900 -0.0009149
  0.0132065  0.0104328  1.6570007 -0.0003507  0.0036260  1.6570086 -0.0003586
  0.0134326  0.0108249  1.6542594 -0.0020124  0.0021307  1.6542621 -0.0020152
  0.0131149  0.0107688  1.6539738 -0.0014447  0.0030807  1.6539796 -0.0014504
  0.0135984  0.0102404  1.6595526 -0.0018904  0.0020035  1.6595550 -0.0018928
  0.0136952  0.0098938  1.6626562 -0.0007682  0.0025639  1.6626601 -0.0007722
  0.0132737  0.0101843  1.6592648 -0.0013213  0.0029799  1.6592701 -0.0013266
  0.0133658  0.0098412  1.6624082 -0.0001922  0.0035361  1.6624157 -0.0001997
  0.0138364  0.0102870  1.6581093 -0.0013554  0.0030824  1.6581150 -0.0013611
  0.0141620  0.0103583  1.6584950 -0.0019515  0.0021509  1.6584978 -0.0019542
  0.0139383  0.0099365  1.6612485 -0.0001897  0.0036906  1.6612567 -0.0001979
  0.0142730  0.0100004  1.6615511 -0.0008026  0.0027621  1.6615557 -0.0008072
  0.0137622  0.0105374  1.6557313 -0.0003800  0.0037619  1.6557399 -0.0003886
  0.0136613  0.0108708  1.6529288 -0.0014300  0.0032064  1.6529350 -0.0014362
  0.0140803  0.0106102  1.6560978 -0.0009076  0.0029358  1.6561030 -0.0009128
  0.0139682  0.0109402  1.6533024 -0.0019798  0.0023481  1.6533058 -0.0019831
  0.0141907  0.0117460  1.6451360 -0.0011995  0.0029472  1.6451413 -0.0012048
  0.0139477  0.0117283  1.6450477 -0.0008403  0.0039700  1.6450573 -0.0008498
  0.0142032  0.0119995  1.6421970 -0.0020622  0.0028500  1.6422020 -0.0020672
  0.0139080  0.0120209  1.6424814 -0.0016553  0.0037208  1.6424898 -0.0016637
  0.0142344  0.0115678  1.6474341 -0.0019219  0.0026371  1.6474383 -0.0019261
  0.0143661  0.0113344  1.6496365 -0.0009717  0.0032507  1.6496429 -0.0009781
  0.0139995  0.0115173  1.6471355 -0.0014719  0.0033680  1.6471424 -0.0014788
  0.0141015  0.0112335  1.6491187 -0.0007083  0.0037910  1.6491275 -0.0007170
  0.0143543  0.0116771  1.6462969 -0.0009678  0.0035891  1.6463047 -0.0009756
  0.0144471  0.0119252  1.6445647 -0.0018154  0.0041389  1.6445751 -0.0018258
  0.0145582  0.0114711  1.6451875 -0.0005817  0.0034023  1.6451946 -0.0005887
  0.0148183  0.0117436  1.6442092 -0.0013061  0.0038554  1.6442183 -0.0013151
  0.0132603  0.0125718  1.6375029 -0.0019399  0.0037789  1.6375116 -0.0019486
  0.0135975  0.0125879  1.6375137 -0.0023565  0.0026976  1.6375181 -0.0023609
  0.0133233  0.0122325  1.6407355 -0.0008899  0.0041534  1.6407460 -0.0009004
  0.0136452  0.0122544  1.6408115 -0.0013040  0.0030315  1.6408171 -0.0013096
  0.0132218  0.0128221  1.6355865 -0.0010617  0.0042532  1.6355976 -0.0010727
  0.0131794  0.0131667  1.6321662 -0.0021331  0.0039646  1.6321759 -0.0021428
  0.0135612  0.0128369  1.6356125 -0.0014055  0.0031240  1.6356184 -0.0014115
  0.0135096  0.0131836  1.6322181 -0.0024783  0.0028074  1.6322229 -0.0024831
  0.0129675  0.0128053  1.6360097 -0.0013041  0.0029214  1.6360150 -0.0013093
  0.0126122  0.0127743  1.6358280 -0.0009151  0.0042230  1.6358389 -0.0009260
  0.0129145  0.0131636  1.6320943 -0.0025466  0.0025433  1.6320983 -0.0025506
  0.0125210  0.0131723  1.6323100 -0.0020647  0.0037851  1.6323188 -0.0020735
  0.0130132  0.0125493  1.6384363 -0.0024172  0.0024301  1.6384399 -0.0024208
  0.0130849  0.0122083  1.6415366 -0.0013446  0.0029155  1.6415418 -0.0013498
  0.0126751  0.0125042  1.6382583 -0.0018169  0.0034278  1.6382655 -0.0018241
  0.0127557  0.0121641  1.6413519 -0.0007290  0.0039394  1.6413613 -0.0007385
  0.0141727  0.0128463  1.6353171 -0.0013462  0.0031577  1.6353232 -0.0013523
  0.0138160  0.0128434  1.6354334 -0.0008732  0.0043678  1.6354450 -0.0008849
  0.0141096  0.0132330  1.6318075 -0.0024710  0.0027890  1.6318123 -0.0024757
  0.0137589  0.0132014  1.6316413 -0.0020869  0.0039741  1.6316509 -0.0020965
  0.0141983  0.0125753  1.6371725 -0.0022473  0.0028417  1.6371774 -0.0022522
  0.0142053  0.0122217  1.6404959 -0.0012454  0.0029597  1.6405013 -0.0012508
  0.0138489  0.0125889  1.6373749 -0.0019483  0.0039629  1.6373845 -0.0019579
  0.0138815  0.0122515  1.6409002 -0.0008653  0.0041829  1.6409109 -0.0008760
  0.0144761  0.0125587  1.6377842 -0.0021473  0.0042535  1.6377952 -0.0021584
  0.0148855  0.0125269  1.6374856 -0.0021497  0.0027822  1.6374904 -0.0021544
  0.0144798  0.0121614  1.6427267 -0.0006656  0.0042301  1.6427375 -0.0006764
  0.0149060  0.0120265  1.6414587 -0.0009612  0.0028076  1.6414635 -0.0009660
  0.0144497  0.0128530  1.6351073 -0.0007368  0.0047371  1.6351211 -0.0007505
  0.0143813  0.0132595  1.6309869 -0.0020937  0.0042208  1.6309978 -0.0021046
  0.0148498  0.0128682  1.6350334 -0.0014155  0.0034394  1.6350407 -0.0014227
  0.0147726  0.0133003  1.6311595 -0.0026980  0.0029406  1.6311647 -0.0027032
  0.0120941  0.0123975  1.6390639 -0.0018485  0.0033159  1.6390706 -0.0018552
  0.0124288  0.0124635  1.6394652 -0.0022920  0.0023166  1.6394685 -0.0022953
  0.0121848  0.0120638  1.6421667 -0.0007608  0.0038282  1.6421756 -0.0007697
  0.0125145  0.0121254  1.6425447 -0.0012228  0.0028062  1.6425495 -0.0012276
  0.0120204  0.0126401  1.6366623 -0.0007780  0.0039042  1.6366716 -0.0007873
  0.0119096  0.0129693  1.6335414 -0.0020245  0.0031940  1.6335477 -0.0020308
  0.0123584  0.0127301  1.6371311 -0.0015028  0.0030009  1.6371366 -0.0015083
  0.0122517  0.0131202  1.6344073 -0.0025413  0.0024358  1.6344109 -0.0025449
  0.0117795  0.0125774  1.6386780 -0.0014829  0.0029412  1.6386833 -0.0014881
  0.0114593  0.0124962  1.6382909 -0.0009516  0.0037063  1.6382993 -0.0009600
  0.0116741  0.0128848  1.6362230 -0.0024427  0.0024049  1.6362265 -0.0024462
  0.0113730  0.0128049  1.6357852 -0.0018902  0.0032100  1.6357915 -0.0018965
  0.0118520  0.0123445  1.6409071 -0.0023592  0.0021769  1.6409099 -0.0023621
  0.0119446  0.0120153  1.6437402 -0.0013188  0.0027101  1.6437447 -0.0013233
  0.0115250  0.0122656  1.6404587 -0.0018118  0.0030908  1.6404645 -0.0018176
  0.0116182  0.0119444  1.6433532 -0.0007431  0.0036437  1.6433613 -0.0007511
  0.0109572  0.0121199  1.6420062 -0.0017363  0.0028935  1.6420113 -0.0017414
  0.0112852  0.0122055  1.6424745 -0.0022354  0.0020462  1.6424770 -0.0022379
  0.0110612  0.0118068  1.6446390 -0.0007372  0.0034339  1.6446462 -0.0007444
  0.0113815  0.0118885  1.6451056 -0.0012546  0.0025617  1.6451096 -0.0012586
  0.0108899  0.0123557  1.6396808 -0.0009512  0.0035943  1.6396887 -0.0009591
  0.0108101  0.0126868  1.6368583 -0.0019095  0.0031813  1.6368645 -0.0019157
  0.0112209  0.0124368  1.6402304 -0.0012667  0.0026279  1.6402346 -0.0012709
  0.0111415  0.0127518  1.6372765 -0.0022750  0.0021845  1.6372794 -0.0022779
  0.0106447  0.0122833  1.6416991 -0.0011382  0.0024309  1.6417027 -0.0011418
  0.0103061  0.0121666  1.6409101 -0.0004899  0.0034108  1.6409172 -0.0004970
  0.0105350  0.0126235  1.6387521 -0.0022827  0.0017973  1.6387541 -0.0022847
  0.0101150  0.0125157  1.6383099 -0.0016522  0.0026682  1.6383142 -0.0016565
  0.0107247  0.0120476  1.6445620 -0.0021689  0.0019066  1.6445642 -0.0021711
  0.0108335  0.0117438  1.6465063 -0.0013172  0.0024274  1.6465099 -0.0013207
  0.0104178  0.0119355  1.6441174 -0.0015282  0.0024688  1.6441211 -0.0015319
  0.0105316  0.0116535  1.6461679 -0.0005959  0.0030459  1.6461736 -0.0006015
  0.0107434  0.0132683  1.6319147 -0.0021632  0.0034349  1.6319219 -0.0021704
  0.0110783  0.0132825  1.6320083 -0.0022617  0.0023145  1.6320116 -0.0022650
  0.0107708  0.0129313  1.6348277 -0.0012800  0.0035619  1.6348354 -0.0012877
  0.0111032  0.0129784  1.6352370 -0.0012827  0.0024562  1.6352407 -0.0012864
  0.0107476  0.0135186  1.6300828 -0.0015358  0.0035239  1.6300904 -0.0015434
  0.0107864  0.0138652  1.6269734 -0.0024965  0.0037411  1.6269820 -0.0025051
  0.0110834  0.0135087  1.6300733 -0.0012695  0.0023538  1.6300767 -0.0012729
  0.0111224  0.0138228  1.6266471 -0.0023314  0.0026077  1.6266513 -0.0023356
  0.0104852  0.0135310  1.6298515 -0.0011995  0.0020153  1.6298540 -0.0012020
  0.0101043  0.0135552  1.6299291 -0.0016342  0.0032656  1.6299356 -0.0016407
  0.0105275  0.0138954  1.6261537 -0.0023630  0.0023444  1.6261571 -0.0023664
  0.0101563  0.0139357  1.6263970 -0.0027547  0.0036050  1.6264050 -0.0027626
  0.0104751  0.0132603  1.6323270 -0.0024528  0.0020477  1.6323296 -0.0024553
  0.0104896  0.0128853  1.6366395 -0.0011537  0.0021593  1.6366423 -0.0011565
  0.0100768  0.0132527  1.6322901 -0.0023274  0.0035335  1.6322977 -0.0023351
  0.0100536  0.0128067  1.6359798 -0.0012267  0.0035118  1.6359873 -0.0012343
  0.0115393  0.0134647  1.6299515 -0.0012857  0.0025779  1.6299556 -0.0012897
  0.0112956  0.0134943  1.6301366 -0.0016598  0.0034993  1.6301441 -0.0016673
  0.0116312  0.0136855  1.6274837 -0.0021865  0.0030779  1.6274895 -0.0021923
  0.0113488  0.0137746  1.6280310 -0.0023547  0.0037659  1.6280397 -0.0023634
  0.0115332  0.0133021  1.6318558 -0.0022605  0.0025114  1.6318597 -0.0022644
  0.0116081  0.0130790  1.6343500 -0.0014394  0.0028852  1.6343551 -0.0014445
  0.0112899  0.0132915  1.6318161 -0.0020352  0.0034530  1.6318234 -0.0020425
  0.0113276  0.0130180  1.6339422 -0.0013717  0.0036267  1.6339503 -0.0013798
  0.0116794  0.0133769  1.6309477 -0.0018369  0.0032293  1.6309541 -0.0018433
  0.0118356  0.0135705  1.6308490 -0.0026164  0.0035447  1.6308567 -0.0026241
  0.0118182  0.0131667  1.6313379 -0.0010373  0.0036649  1.6313461 -0.0010456
  0.0121117  0.0133454  1.6311644 -0.0018361  0.0037981  1.6311732 -0.0018449
  0.0099933  0.0117474  1.6452600 -0.0016555  0.0024237  1.6452636 -0.0016590
  0.0102218  0.0118551  1.6460429 -0.0020925  0.0017994  1.6460449 -0.0020944
  0.0100482  0.0115121  1.6475864 -0.0007905  0.0028846  1.6475914 -0.0007955
  0.0103212  0.0115914  1.6479538 -0.0013007  0.0022650  1.6479569 -0.0013038
  0.0098883  0.0118859  1.6437600 -0.0002867  0.0022566  1.6437631 -0.0002898
  0.0096566  0.0120290  1.6435261 -0.0016615  0.0020582  1.6435287 -0.0016641
  0.0101035  0.0120601  1.6430904 -0.0017584  0.0027607  1.6430950 -0.0017631
  0.0098797  0.0123564  1.6430856 -0.0024345  0.0024747  1.6430894 -0.0024382
  0.0098131  0.0117274  1.6456165 -0.0020384  0.0019032  1.6456187 -0.0020406
  0.0098228  0.0114685  1.6493258 -0.0009317  0.0018903  1.6493279 -0.0009338
  0.0095495  0.0117805  1.6462698 -0.0019931  0.0031149  1.6462757 -0.0019990
  0.0094801  0.0114289  1.6489590 -0.0011635  0.0028851  1.6489640 -0.0011686
  0.0090617  0.0122293  1.6424452 -0.0012023  0.0025346  1.6424491 -0.0012062
  0.0091962  0.0126195  1.6390355 -0.0025486  0.0032939  1.6390421 -0.0025552
  0.0094351  0.0121210  1.6417438 -0.0003993  0.0013988  1.6417449 -0.0004005
  0.0096366  0.0125063  1.6385281 -0.0018192  0.0022948  1.6385313 -0.0018225
  0.0087851  0.0123005  1.6406817 -0.0006326  0.0012260  1.6406826 -0.0006335
  0.0084029  0.0123864  1.6412078 -0.0012807  0.0023887  1.6412113 -0.0012841
  0.0088931  0.0126889  1.6371479 -0.0019129  0.0018674  1.6371501 -0.0019150
  0.0085055  0.0127652  1.6375759 -0.0025908  0.0030392  1.6375815 -0.0025964
  0.0086986  0.0120267  1.6432808 -0.0017099  0.0018967  1.6432830 -0.0017121
  0.0085700  0.0116671  1.6463795 -0.0004852  0.0012036  1.6463803 -0.0004861
  0.0083245  0.0121161  1.6437297 -0.0024068  0.0028785  1.6437348 -0.0024118
  0.0082127  0.0117565  1.6468813 -0.0011994  0.0022209  1.6468843 -0.0012024
  0.0089660  0.0119529  1.6455699 -0.0024742  0.0029720  1.6455753 -0.0024796
  0.0093225  0.0118409  1.6450009 -0.0015799  0.0020759  1.6450035 -0.0015826
  0.0088390  0.0115879  1.6485595 -0.0012141  0.0022210  1.6485625 -0.0012171
  0.0092165  0.0114609  1.6479685 -0.0003981  0.0013936  1.6479696 -0.0003993
  0.0258500  0.0122336  1.6370015 -0.0009529  0.0058351  1.6370223 -0.0009737
  0.0253454  0.0121726  1.6366201 -0.0005318  0.0074253  1.6366537 -0.0005655
  0.0257611  0.0127632  1.6320685 -0.0025282  0.0053285  1.6320859 -0.0025456
  0.0252608  0.0127043  1.6316983 -0.0020986  0.0069346  1.6317278 -0.0021280
  0.0259140  0.0118402  1.6403460 -0.0022747  0.0049168  1.6403607 -0.0022894
  0.0259998  0.0112948  1.6453861 -0.0006813  0.0053921  1.6454038 -0.0006989
  0.0254061  0.0117800  1.6399449 -0.0019053  0.0065558  1.6399711 -0.0019314
  0.0254873  0.0112389  1.6450327 -0.0003006  0.0070226  1.6450627 -0.0003305
  0.0262890  0.0118927  1.6383492 -0.0019284  0.0067744  1.6383772 -0.0019564
  0.0268056  0.0119761  1.6389243 -0.0023341  0.0051506  1.6389405 -0.0023502
  0.0263808  0.0113419  1.6434554 -0.0002935  0.0073083  1.6434879 -0.0003259
  0.0269092  0.0114148  1.6439122 -0.0007264  0.0057025  1.6439320 -0.0007461
  0.0262199  0.0122870  1.6349208 -0.0005723  0.0077040  1.6349571 -0.0006086
  0.0261231  0.0128135  1.6303131 -0.0020636  0.0071817  1.6303447 -0.0020952
  0.0267259  0.0123720  1.6354543 -0.0009653  0.0062472  1.6354782 -0.0009892
  0.0266116  0.0128920  1.6308353 -0.0024814  0.0056671  1.6308550 -0.0025010
  0.0271186  0.0141415  1.6183369 -0.0013756  0.0068191  1.6183657 -0.0014043
  0.0267294  0.0141342  1.6182805 -0.0012965  0.0084579  1.6183247 -0.0013407
  0.0271903  0.0145428  1.6137551 -0.0027333  0.0070700  1.6137860 -0.0027643
  0.0267232  0.0146019  1.6142631 -0.0025028  0.0084075  1.6143068 -0.0025465
  0.0271511  0.0138559  1.6218962 -0.0024811  0.0063306  1.6219209 -0.0025057
  0.0273116  0.0134768  1.6257079 -0.0011572  0.0070506  1.6257385 -0.0011878
  0.0267701  0.0137957  1.6214233 -0.0021778  0.0076760  1.6214596 -0.0022141
  0.0268751  0.0133386  1.6248393 -0.0010648  0.0080961  1.6248797 -0.0011051
  0.0273635  0.0140190  1.6199803 -0.0014868  0.0078594  1.6200184 -0.0015249
  0.0275630  0.0144042  1.6180057 -0.0028834  0.0087666  1.6180531 -0.0029308
  0.0276436  0.0136768  1.6188312 -0.0006991  0.0079553  1.6188702 -0.0007382
  0.0281141  0.0140848  1.6176841 -0.0019365  0.0085973  1.6177298 -0.0019821
  0.0111327  0.0203234  1.5674288 -0.0026345  0.0043952  1.5674411 -0.0026468
  0.0108204  0.0205384  1.5673494 -0.0044244  0.0041832  1.5673605 -0.0044356
  0.0114399  0.0205618  1.5663783 -0.0045645  0.0051109  1.5663949 -0.0045812
  0.0110929  0.0209732  1.5665347 -0.0054919  0.0048077  1.5665494 -0.0055066
  0.0109966  0.0201107  1.5700397 -0.0043975  0.0041033  1.5700504 -0.0044082
  0.0109320  0.0197680  1.5735199 -0.0031684  0.0035000  1.5735277 -0.0031761
  0.0106734  0.0202406  1.5710281 -0.0050257  0.0050870  1.5710445 -0.0050421
  0.0105442  0.0198618  1.5739466 -0.0038731  0.0044370  1.5739591 -0.0038856
  0.0112500  0.0201068  1.5697724 -0.0049926  0.0049252  1.5697878 -0.0050080
  0.0116191  0.0202261  1.5711566 -0.0049029  0.0033499  1.5711637 -0.0049100
  0.0112582  0.0197301  1.5748365 -0.0034656  0.0051012  1.5748530 -0.0034821
  0.0117617  0.0197204  1.5746775 -0.0037771  0.0037899  1.5746866 -0.0037862
  0.0324583  0.0109065  1.6454479 -0.0001434  0.0061473  1.6454708 -0.0001664
  0.0317787  0.0108546  1.6449852 -0.0001551  0.0084542  1.6450287 -0.0001985
  0.0324163  0.0116301  1.6385550 -0.0022189  0.0059564  1.6385766 -0.0022405
  0.0317295  0.0115712  1.6380363 -0.0022489  0.0082358  1.6380777 -0.0022902
  0.0324855  0.0103800  1.6497363 -0.0019399  0.0052234  1.6497528 -0.0019564
  0.0325178  0.0096652  1.6566421  0.0001360  0.0053681  1.6566595  0.0001186
  0.0318099  0.0103327  1.6493070 -0.0019814  0.0075088  1.6493412 -0.0020156
  0.0318458  0.0096234  1.6562619  0.0001097  0.0076677  1.6562974  0.0000742
  0.0329832  0.0104119  1.6478704 -0.0020448  0.0078367  1.6479076 -0.0020820
  0.0336674  0.0104515  1.6482534 -0.0019318  0.0055209  1.6482719 -0.0019502
  0.0330116  0.0096932  1.6549389  0.0000758  0.0079352  1.6549770  0.0000378
  0.0336886  0.0097280  1.6552821  0.0001769  0.0055939  1.6553010  0.0001580
  0.0329594  0.0109415  1.6435420 -0.0001611  0.0087625  1.6435887 -0.0002078
  0.0329226  0.0116697  1.6364320 -0.0022962  0.0086207  1.6364773 -0.0023415
  0.0336488  0.0109850  1.6439552 -0.0000774  0.0063999  1.6439802 -0.0001023
  0.0336191  0.0117190  1.6368912 -0.0021983  0.0062839  1.6369153 -0.0022224
  0.0364483  0.0215764  1.5491562 -0.0052169  0.0132835  1.5492697 -0.0053304
  0.0365883  0.0208038  1.5554629 -0.0031969  0.0139525  1.5555878 -0.0033218
  0.0357256  0.0214037  1.5479562 -0.0049068  0.0153031  1.5481069 -0.0050576
  0.0358598  0.0206363  1.5543222 -0.0028724  0.0159646  1.5544859 -0.0030360
  0.0369809  0.0217123  1.5444678 -0.0050372  0.0158961  1.5446309 -0.0052003
  0.0377135  0.0219109  1.5457872 -0.0054788  0.0139240  1.5459122 -0.0056038
  0.0371284  0.0209342  1.5507769 -0.0029758  0.0166533  1.5509554 -0.0031543
  0.0378756  0.0211228  1.5519713 -0.0034443  0.0147002  1.5521102 -0.0035832
  0.0368712  0.0222727  1.5393138 -0.0035181  0.0172829  1.5395073 -0.0037116
  0.0367191  0.0230255  1.5335171 -0.0054265  0.0165544  1.5336951 -0.0056045
  0.0375917  0.0224697  1.5405311 -0.0039417  0.0154752  1.5406862 -0.0040967
  0.0374210  0.0232082  1.5346997 -0.0058857  0.0146848  1.5348397 -0.0060257
  0.0363440  0.0221368  1.5440708 -0.0037326  0.0146770  1.5442100 -0.0038718
  0.0356239  0.0219625  1.5429034 -0.0033428  0.0166490  1.5430827 -0.0035220
  0.0361991  0.0228952  1.5378624 -0.0057444  0.0139645  1.5379887 -0.0058708
  0.0354804  0.0227218  1.5366969 -0.0053524  0.0159412  1.5368616 -0.0055172
  0.0370220  0.0061052  1.6859734  0.0001812  0.0047408  1.6859867  0.0001679
  0.0372965  0.0065750  1.6837700 -0.0014971  0.0057925  1.6837899 -0.0015170
  0.0373206  0.0056782  1.6846437  0.0008857  0.0049334  1.6846582  0.0008712
  0.0379133  0.0061736  1.6833707 -0.0005340  0.0056568  1.6833897 -0.0005530
  0.0367431  0.0062612  1.6840847  0.0007064  0.0036295  1.6840925  0.0006986
  0.0362796  0.0062603  1.6839558  0.0003091  0.0056043  1.6839745  0.0002904
  0.0368709  0.0067523  1.6783377 -0.0011123  0.0042902  1.6783487 -0.0011232
  0.0363250  0.0068354  1.6789350 -0.0012223  0.0058655  1.6789555 -0.0012428
  0.0367528  0.0059089  1.6885873 -0.0007375  0.0029014  1.6885923 -0.0007424
  0.0369072  0.0054376  1.6936648  0.0007859  0.0034838  1.6936719  0.0007787
  0.0362918  0.0058424  1.6878398 -0.0009612  0.0047137  1.6878530 -0.0009744
  0.0363706  0.0052755  1.6924116  0.0004103  0.0049363  1.6924260  0.0003959
  0.0004212  0.0017551  1.7405722 -0.0005021  0.0005111  1.7405723 -0.0005023
  0.0006474  0.0017030  1.7401784 -0.0003588 -0.0001953  1.7401784 -0.0003588
  0.0003755  0.0014738  1.7437833  0.0005262  0.0001757  1.7437833  0.0005262
  0.0005936  0.0013512  1.7427632  0.0004659 -0.0004568  1.7427633  0.0004658
  0.0004424  0.0019682  1.7385588  0.0004593  0.0004048  1.7385589  0.0004592
  0.0004547  0.0022691  1.7351974 -0.0005513  0.0004739  1.7351975 -0.0005514
  0.0006719  0.0019479  1.7383561  0.0004382 -0.0004459  1.7383563  0.0004381
  0.0006851  0.0022650  1.7351670 -0.0005207 -0.0003795  1.7351670 -0.0005208
  0.0002827  0.0019811  1.7380045  0.0004090 -0.0004283  1.7380046  0.0004089
  0.0000757  0.0019961  1.7381461  0.0003897  0.0003555  1.7381462  0.0003896
  0.0002921  0.0022718  1.7350738 -0.0004728 -0.0003640  1.7350739 -0.0004729
  0.0000783  0.0022752  1.7350885 -0.0005283  0.0003976  1.7350886 -0.0005284
  0.0002669  0.0017825  1.7395145 -0.0003862 -0.0002237  1.7395145 -0.0003863
  0.0002332  0.0015307  1.7418317  0.0003274 -0.0003852  1.7418317  0.0003273
  0.0000715  0.0018054  1.7396762 -0.0004373  0.0003548  1.7396763 -0.0004374
  0.0000625  0.0015635  1.7421563  0.0003122  0.0002654  1.7421563  0.0003122
  0.0002484  0.0011451  1.7459974  0.0000247  0.0001316  1.7459974  0.0000247
  0.0003292  0.0013104  1.7457962 -0.0002190  0.0002999  1.7457962 -0.0002190
  0.0003296  0.0009924  1.7459268  0.0001909  0.0002425  1.7459268  0.0001909
  0.0005084  0.0011608  1.7457992 -0.0000341  0.0003347  1.7457992 -0.0000342
  0.0001724  0.0012036  1.7452084  0.0001547 -0.0002972  1.7452084  0.0001546
  0.0000462  0.0012108  1.7453139  0.0002307  0.0002611  1.7453139  0.0002307
  0.0002079  0.0013756  1.7432587 -0.0004190 -0.0001773  1.7432587 -0.0004190
  0.0000557  0.0014042  1.7435109 -0.0003077  0.0002727  1.7435110 -0.0003077
  0.0001726  0.0010789  1.7469681 -0.0001442 -0.0003066  1.7469681 -0.0001443
  0.0002083  0.0009099  1.7490198  0.0004348 -0.0002200  1.7490198  0.0004348
  0.0000462  0.0010632  1.7467243 -0.0003515  0.0002623  1.7467244 -0.0003516
  0.0000558  0.0008531  1.7485188  0.0001800  0.0002332  1.7485189  0.0001799
  0.0006090  0.0280399  1.5013863 -0.0085902  0.0005640  1.5013865 -0.0085904
  0.0010006  0.0280860  1.5019007 -0.0085560 -0.0010775  1.5019015 -0.0085568
  0.0006176  0.0276215  1.5083089 -0.0065098  0.0006815  1.5083092 -0.0065101
  0.0010397  0.0274741  1.5066854 -0.0071128 -0.0009236  1.5066859 -0.0071134
  0.0004778  0.0282773  1.4998352 -0.0060820  0.0007429  1.4998355 -0.0060824
  0.0001280  0.0285076  1.5000681 -0.0092074  0.0006178  1.5000683 -0.0092077
  0.0007778  0.0285874  1.4978025 -0.0088054  0.0020354  1.4978053 -0.0088082
  0.0002084  0.0293453  1.4984438 -0.0099370  0.0016410  1.4984456 -0.0099388
  0.0003673  0.0280368  1.5022999 -0.0079059 -0.0010034  1.5023006 -0.0079065
  0.0003652  0.0276896  1.5051800 -0.0070477 -0.0006340  1.5051802 -0.0070479
  0.0000984  0.0280743  1.5028599 -0.0069833 -0.0001829  1.5028600 -0.0069833
  0.0000979  0.0277283  1.5057547 -0.0061164  0.0001926  1.5057547 -0.0061165
  0.0121132  0.5121132 -0.9180930  0.3922170  0.1803029  0.4165745 -0.9424505
  0.0121132  0.5178868  0.0270237  0.6757237 -0.1088561  0.6935031  0.0092443
  0.0178868  0.5121132 -1.1659908 -0.4340062  0.5111077 -0.1713639 -1.4286331
  0.0178868  0.5178868 -0.2208741 -0.1504995  0.2219531  0.0390382 -0.4104118
  0.0078868  0.5121132 -0.2779669 -4.8329097  3.3495613  1.4950477 -6.6059242
  0.0021132  0.5121132 -5.4056966-21.9215560  5.2600225 -3.8727510-23.4545010
  0.0078868  0.5178868 -5.7371200 -6.4683759  9.3308924  3.2353052-15.4408010
  0.0021132  0.5178868-10.8648500-23.5570220 11.2404470 -4.3027813-30.1190910
  0.0078868  0.5078868  0.4990450 -6.4680790  4.0000657  2.3197953 -8.2888294
  0.0078868  0.5021132 -1.1561436 -6.9648518  2.4652257 -0.2509556 -7.8700398
  0.0021132  0.5078868 -0.8166088-10.8528000  3.4207482  0.2384169-11.9078260
  0.0021132  0.5021132 -2.4717974-11.3495730  1.8859702 -2.0877599-11.7336100
  0.0121132  0.5078868 -3.2572502 -5.7124438  4.3902810  0.0738328 -9.0435268
  0.0178868  0.5078868 -2.8770687 -4.4453659  4.5930083  0.9982477 -8.3206823
  0.0121132  0.5021132 -3.8364168 -5.8862824  3.9467907 -0.7836487 -8.9390504
  0.0178868  0.5021132 -3.4562353 -4.6192044  4.1495125  0.1523373 -8.2277770
  0.0492142  0.0709994  1.1522779 -0.0418313  0.0606678  1.1553522 -0.0449056
  0.0521250  0.0708827  1.1513318 -0.0429911  0.0549183  1.1538517 -0.0455111
  0.0498387  0.0666075  1.1800271 -0.0332963  0.0626144  1.1832498 -0.0365190
  0.0523867  0.0665763  1.1794705 -0.0344584  0.0560938  1.1820570 -0.0370449
  0.0489748  0.0745329  1.1222678 -0.0436902  0.0687899  1.1263123 -0.0477347
  0.0489451  0.0797948  1.0798574 -0.0563795  0.0709998  1.0842767 -0.0607989
  0.0525082  0.0743647  1.1222182 -0.0381930  0.0551669  1.1248350 -0.0408098
  0.0538167  0.0795714  1.0798712 -0.0523756  0.0611118  1.0831601 -0.0556645
  0.0463204  0.0743291  1.1274331 -0.0457896  0.0517559  1.1297119 -0.0480684
  0.0426020  0.0736038  1.1262794 -0.0312268  0.0615280  1.1295408 -0.0344881
  0.0451854  0.0793422  1.1002807 -0.0567790  0.0448475  1.1020164 -0.0585147
  0.0397853  0.0778825  1.0980116 -0.0477837  0.0509095  1.1002691 -0.0500412
  0.0470662  0.0709104  1.1547626 -0.0475214  0.0452960  1.1564667 -0.0492255
  0.0479688  0.0665837  1.1820027 -0.0373850  0.0508596  1.1841203 -0.0395027
  0.0441087  0.0705505  1.1546821 -0.0417888  0.0507162  1.1568280 -0.0439347
  0.0454083  0.0664873  1.1835535 -0.0299751  0.0576228  1.1862835 -0.0327051
  0.0570134  0.0714138  1.1265179 -0.0359044  0.0667131  1.1303341 -0.0397206
  0.0546622  0.0735289  1.1296206 -0.0465206  0.0654062  1.1332467 -0.0501468
  0.0588856  0.0734853  1.1160780 -0.0488332  0.0731630  1.1206551 -0.0534102
  0.0564802  0.0778808  1.1214119 -0.0532544  0.0703328  1.1256081 -0.0574505
  0.0564317  0.0694605  1.1411473 -0.0455645  0.0583442  1.1440088 -0.0484261
  0.0567146  0.0661952  1.1776168 -0.0345774  0.0596559  1.1805455 -0.0375062
  0.0540590  0.0704703  1.1509726 -0.0422812  0.0663880  1.1546548 -0.0459634
  0.0542291  0.0664658  1.1799933 -0.0335571  0.0669835  1.1836793 -0.0372431
  0.0580418  0.0694479  1.1439552 -0.0419375  0.0673416  1.1477670 -0.0457493
  0.0600679  0.0704233  1.1512912 -0.0426465  0.0618494  1.1544866 -0.0458419
  0.0585001  0.0661918  1.1751731 -0.0318360  0.0708795  1.1793212 -0.0359840
  0.0608928  0.0664532  1.1760572 -0.0343579  0.0652199  1.1795613 -0.0378619
  0.0448743  0.0887610  1.0319439 -0.0660743  0.0517483  1.0343774 -0.0685078
  0.0447979  0.0832093  1.0758115 -0.0528968  0.0510481  1.0781156 -0.0552008
  0.0392206  0.0882003  1.0275285 -0.0685759  0.0660038  1.0314887 -0.0725361
  0.0388792  0.0817936  1.0660723 -0.0569535  0.0648557  1.0698054 -0.0606865
  0.0489469  0.0891484  1.0142885 -0.0685352  0.0779373  1.0198693 -0.0741161
  0.0544199  0.0896459  1.0192874 -0.0624327  0.0643708  1.0231045 -0.0662498
  0.0489376  0.0837110  1.0567161 -0.0557985  0.0759512  1.0618774 -0.0609597
  0.0543289  0.0836660  1.0579299 -0.0507696  0.0623802  1.0614286 -0.0542683
  0.0490240  0.0932320  0.9863613 -0.0689452  0.0832883  0.9928943 -0.0754781
  0.0492255  0.0989511  0.9492430 -0.0801717  0.0847415  0.9561723 -0.0871010
  0.0545399  0.0938715  0.9915125 -0.0648116  0.0701989  0.9961572 -0.0694563
  0.0547770  0.0994363  0.9533007 -0.0763885  0.0717931  0.9582822 -0.0813701
  0.0449768  0.0928865  1.0040022 -0.0637797  0.0545748  1.0067843 -0.0665618
  0.0394356  0.0925822  0.9995973 -0.0720027  0.0682935  1.0039322 -0.0763375
  0.0451807  0.0986057  0.9646539 -0.0758331  0.0577522  0.9678496 -0.0790288
  0.0396815  0.0981472  0.9590905 -0.0844722  0.0716838  0.9639915 -0.0893733
  0.0640599  0.0899042  1.0074044 -0.0645168  0.0770012  1.0129075 -0.0700199
  0.0640132  0.0844675  1.0491861 -0.0519702  0.0763255  1.0544514 -0.0572355
  0.0584694  0.0898484  1.0065660 -0.0661176  0.0907992  1.0141976 -0.0737492
  0.0583684  0.0838687  1.0445940 -0.0546874  0.0900738  1.0519257 -0.0620190
  0.0680924  0.0899005  0.9981497 -0.0648838  0.1021576  1.0078781 -0.0746121
  0.0735190  0.0898346  0.9995248 -0.0588891  0.0887807  1.0069201 -0.0662844
  0.0680258  0.0844650  1.0411582 -0.0519046  0.0995634  1.0501531 -0.0608995
  0.0733436  0.0838596  1.0385978 -0.0470004  0.0861922  1.0453985 -0.0538011
  0.0681853  0.0939746  0.9710475 -0.0647418  0.1094908  0.9824950 -0.0761893
  0.0683723  0.0996695  0.9330332 -0.0762539  0.1111921  0.9451379 -0.0883587
  0.0736706  0.0940576  0.9727004 -0.0609694  0.0962276  0.9815822 -0.0698512
  0.0739093  0.0996199  0.9337663 -0.0727939  0.0981066  0.9432393 -0.0822669
  0.0641449  0.0939783  0.9813709 -0.0622828  0.0823315  0.9878260 -0.0687378
  0.0585916  0.0940715  0.9799207 -0.0690901  0.0958576  0.9886081 -0.0777776
  0.0643303  0.0996721  0.9421346 -0.0742632  0.0852543  0.9492361 -0.0813646
  0.0588243  0.0996294  0.9397087 -0.0814297  0.0989823  0.9492149 -0.0909359
  0.0647892  0.0749919  1.1104402 -0.0412742  0.0729360  1.1150408 -0.0458748
  0.0609691  0.0744440  1.1075826 -0.0359248  0.0845592  1.1138017 -0.0421439
  0.0642086  0.0804717  1.0738971 -0.0529355  0.0690538  1.0781130 -0.0571514
  0.0590382  0.0797411  1.0718373 -0.0489633  0.0776533  1.0771918 -0.0543179
  0.0651507  0.0712985  1.1407267 -0.0422018  0.0655529  1.1443483 -0.0458234
  0.0655578  0.0666877  1.1685821 -0.0334084  0.0683125  1.1724520 -0.0372784
  0.0619728  0.0709191  1.1396733 -0.0394092  0.0715029  1.1439936 -0.0437295
  0.0627839  0.0665860  1.1690353 -0.0296299  0.0754004  1.1737597 -0.0343542
  0.0674390  0.0713159  1.1355766 -0.0412134  0.0814508  1.1411874 -0.0468242
  0.0705129  0.0709838  1.1342801 -0.0395524  0.0751455  1.1390712 -0.0443435
  0.0675782  0.0666923  1.1648346 -0.0325352  0.0804946  1.1702217 -0.0379223
  0.0703242  0.0666034  1.1649290 -0.0302100  0.0733629  1.1694155 -0.0346965
  0.0675177  0.0750089  1.1070686 -0.0407532  0.0892485  1.1139666 -0.0476512
  0.0678718  0.0804748  1.0636759 -0.0543293  0.0935446  1.0714489 -0.0621022
  0.0711520  0.0745072  1.1042757 -0.0338783  0.0761308  1.1093455 -0.0389480
  0.0727093  0.0797526  1.0612607 -0.0492822  0.0837532  1.0675415 -0.0555630
  0.0830992  0.0932339  0.9666416 -0.0568898  0.1067454  0.9776556 -0.0679039
  0.0776668  0.0938591  0.9690043 -0.0625618  0.1200455  0.9827900 -0.0763476
  0.0833855  0.0988410  0.9271055 -0.0690814  0.1099432  0.9390950 -0.0810709
  0.0779320  0.0993980  0.9289601 -0.0748894  0.1232407  0.9438687 -0.0897980
  0.0829378  0.0892852  0.9920537 -0.0587267  0.1002516  1.0015329 -0.0682059
  0.0827832  0.0841043  1.0342020 -0.0459927  0.0986544  1.0431382 -0.0549289
  0.0774968  0.0896697  0.9938888 -0.0609588  0.1138078  1.0060279 -0.0730979
  0.0772978  0.0837629  1.0308595 -0.0497789  0.1123571  1.0424179 -0.0613374
  0.0868753  0.0888384  0.9918821 -0.0579352  0.1231578  1.0061367 -0.0721897
  0.0921917  0.0880023  0.9878186 -0.0535286  0.1103271  0.9993790 -0.0650890
  0.0866578  0.0839219  1.0285035 -0.0467073  0.1204910  1.0418406 -0.0600444
  0.0917580  0.0830820  1.0239816 -0.0422054  0.1071459  1.0346426 -0.0528663
  0.0870709  0.0926829  0.9694682 -0.0561680  0.1308986  0.9859108 -0.0726106
  0.0873878  0.0982695  0.9295271 -0.0684964  0.1340371  0.9472151 -0.0861845
  0.0924894  0.0918026  0.9649995 -0.0513887  0.1173060  0.9783626 -0.0647518
  0.0928690  0.0972650  0.9243011 -0.0640299  0.1206831  0.9388241 -0.0785529
  0.0836511  0.0747715  1.0939577 -0.0375413  0.0940154  1.1017161 -0.0452997
  0.0797835  0.0742346  1.0912733 -0.0329193  0.1050022  1.1009967 -0.0426426
  0.0829743  0.0802154  1.0582594 -0.0489930  0.0901757  1.0655553 -0.0562889
  0.0779105  0.0796271  1.0567515 -0.0452572  0.0986905  1.0655199 -0.0540257
  0.0839849  0.0711351  1.1244533 -0.0382177  0.0841805  1.1305166 -0.0442810
  0.0842200  0.0666439  1.1539800 -0.0291122  0.0865393  1.1602765 -0.0354088
  0.0807064  0.0707264  1.1230346 -0.0354656  0.0909524  1.1301317 -0.0425627
  0.0813549  0.0665344  1.1543194 -0.0253093  0.0945495  1.1618496 -0.0328395
  0.0866578  0.0711059  1.1118114 -0.0391460  0.1018402  1.1207530 -0.0480877
  0.0906821  0.0706175  1.1119758 -0.0306323  0.0946620  1.1197651 -0.0384217
  0.0863906  0.0666361  1.1420494 -0.0293731  0.0966978  1.1499779 -0.0373016
  0.0894556  0.0665052  1.1445688 -0.0171929  0.0866636  1.1509980 -0.0236221
  0.0867181  0.0747243  1.0931373 -0.0358358  0.1120481  1.1041504 -0.0468489
  0.0866157  0.0801400  1.0509757 -0.0484307  0.1128538  1.0624406 -0.0598955
  0.0912299  0.0740581  1.0882949 -0.0347099  0.0987009  1.0969038 -0.0433188
  0.0915003  0.0793457  1.0459723 -0.0475511  0.1005448  1.0551401 -0.0567188
  0.0765078  0.0693801  1.1272934 -0.0388269  0.0865302  1.1336793 -0.0452127
  0.0787030  0.0702561  1.1341409 -0.0386181  0.0802747  1.1396101 -0.0440874
  0.0767942  0.0661736  1.1570189 -0.0296479  0.0885829  1.1635950 -0.0362240
  0.0793652  0.0664084  1.1580317 -0.0310472  0.0826083  1.1637432 -0.0367587
  0.0755744  0.0713504  1.1109059 -0.0319919  0.0874677  1.1175612 -0.0386472
  0.0733108  0.0735269  1.1130169 -0.0422330  0.0855196  1.1193133 -0.0485295
  0.0776194  0.0733179  1.1022937 -0.0446626  0.0931237  1.1098054 -0.0521743
  0.0753212  0.0778349  1.1062345 -0.0487983  0.0901175  1.1132233 -0.0557871
  0.0748450  0.0694404  1.1257478 -0.0414757  0.0783584  1.1309847 -0.0467126
  0.0748972  0.0661898  1.1620004 -0.0306549  0.0772506  1.1669833 -0.0356377
  0.0724973  0.0704813  1.1352444 -0.0407918  0.0860492  1.1415071 -0.0470546
  0.0722853  0.0664687  1.1635883 -0.0321483  0.0845028  1.1695306 -0.0380905
  0.1017569  0.0895982  0.9660668 -0.0463320  0.1253363  0.9813528 -0.0616180
  0.0964245  0.0909761  0.9743243 -0.0502006  0.1387235  0.9927755 -0.0686518
  0.1021755  0.0946744  0.9261930 -0.0588127  0.1289018  0.9427822 -0.0754019
  0.0968313  0.0963017  0.9362017 -0.0620968  0.1420526  0.9560216 -0.0819166
  0.1014017  0.0857835  0.9883665 -0.0494955  0.1172693  1.0014519 -0.0625810
  0.1008500  0.0804377  1.0264883 -0.0373493  0.1132552  1.0384117 -0.0492727
  0.0960840  0.0871837  0.9965118 -0.0543198  0.1305440  1.0124864 -0.0702944
  0.0955608  0.0821484  1.0369689 -0.0414243  0.1262740  1.0515575 -0.0560130
  0.1053407  0.0848594  0.9989755 -0.0493988  0.1375092  1.0167117 -0.0671350
  0.1107847  0.0837350  0.9927431 -0.0440874  0.1235060  1.0072520 -0.0585962
  0.1047643  0.0794060  1.0411847 -0.0359715  0.1331741  1.0574054 -0.0521922
  0.1101693  0.0782979  1.0349691 -0.0306008  0.1190608  1.0481102 -0.0437419
  0.1057116  0.0886767  0.9761999 -0.0449567  0.1451407  0.9964286 -0.0651853
  0.1061484  0.0936525  0.9393951 -0.0565609  0.1487324  0.9611319 -0.0782976
  0.1111837  0.0875371  0.9700742 -0.0396665  0.1314669  0.9869102 -0.0565026
  0.1116581  0.0924877  0.9331872 -0.0513481  0.1351683  0.9514075 -0.0695684
  0.0993734  0.0721065  1.0886293 -0.0245366  0.1017016  1.0978447 -0.0337520
  0.0946209  0.0733567  1.0955824 -0.0331217  0.1145537  1.1070912 -0.0446305
  0.1003065  0.0767730  1.0499041 -0.0381936  0.1082881  1.0605763 -0.0488659
  0.0951687  0.0784435  1.0584643 -0.0453183  0.1197305  1.0713025 -0.0581565
  0.0985313  0.0689925  1.1117150 -0.0349005  0.0980571  1.1200402 -0.0432257
  0.0971638  0.0651514  1.1408446 -0.0227296  0.0908605  1.1478969 -0.0297819
  0.0938636  0.0700512  1.1155331 -0.0453569  0.1088388  1.1256491 -0.0554729
  0.0923422  0.0661074  1.1436646 -0.0333382  0.1016311  1.1523757 -0.0420493
  0.1021915  0.0679493  1.1238517 -0.0418333  0.1136509  1.1348290 -0.0528106
  0.1075234  0.0661579  1.1176841 -0.0241638  0.1030444  1.1269087 -0.0333883
  0.1006698  0.0636767  1.1664238 -0.0216264  0.1006199  1.1748854 -0.0300880
  0.1054270  0.0606035  1.1499750 -0.0085203  0.0929683  1.1573882 -0.0159335
  0.1031299  0.0711819  1.1007069 -0.0318691  0.1199943  1.1132805 -0.0444427
  0.1041719  0.0757411  1.0640292 -0.0448067  0.1261326  1.0781961 -0.0589736
  0.1086402  0.0699062  1.0942732 -0.0239934  0.1062537  1.1042795 -0.0339997
  0.1095946  0.0745925  1.0582807 -0.0364858  0.1119802  1.0696174 -0.0478225
  0.1203667  0.0830975  0.9927902 -0.0382503  0.1298598  1.0088945 -0.0543547
  0.1198043  0.0778109  1.0329545 -0.0252514  0.1249416  1.0475062 -0.0398030
  0.1148109  0.0832629  0.9909676 -0.0480582  0.1442191  1.0106140 -0.0677046
  0.1141992  0.0778705  1.0303531 -0.0352499  0.1393022  1.0482626 -0.0531594
  0.1244695  0.0830792  0.9767817 -0.0447733  0.1520035  0.9989195 -0.0669111
  0.1301228  0.0831945  0.9807784 -0.0340176  0.1374193  0.9990579 -0.0522971
  0.1239373  0.0778211  1.0155963 -0.0322305  0.1472238  1.0358888 -0.0525231
  0.1296240  0.0779088  1.0193604 -0.0216098  0.1327574  1.0360245 -0.0382739
  0.1248239  0.0868261  0.9533841 -0.0392868  0.1605797  0.9787140 -0.0646167
  0.1252601  0.0918047  0.9176154 -0.0507024  0.1646775  0.9448551 -0.0779421
  0.1304613  0.0869835  0.9573449 -0.0294243  0.1466890  0.9786893 -0.0507688
  0.1308872  0.0920495  0.9222103 -0.0406105  0.1506719  0.9452382 -0.0636384
  0.1207373  0.0868427  0.9694999 -0.0334143  0.1382469  0.9882076 -0.0521220
  0.1152098  0.0870457  0.9681367 -0.0423838  0.1520311  0.9905140 -0.0647611
  0.1211875  0.0917883  0.9335558 -0.0448977  0.1423443  0.9538432 -0.0651852
  0.1156879  0.0919882  0.9321703 -0.0539179  0.1562006  0.9563217 -0.0780692
  0.1227894  0.0688494  1.0789740 -0.0263641  0.1338749  1.0949574 -0.0423475
  0.1234872  0.0740083  1.0398712 -0.0392478  0.1389869  1.0574847 -0.0568614
  0.1287560  0.0689509  1.0828668 -0.0156308  0.1186056  1.0955268 -0.0282908
  0.1292577  0.0740922  1.0437834 -0.0281893  0.1232173  1.0577642 -0.0421701
  0.1185031  0.0689447  1.0948614 -0.0165091  0.1097847  1.1056025 -0.0272501
  0.1127594  0.0693068  1.0931511 -0.0303980  0.1244493  1.1067705 -0.0440175
  0.1193049  0.0740186  1.0574217 -0.0295591  0.1162479  1.0697148 -0.0418523
  0.1136495  0.0741310  1.0537534 -0.0444451  0.1315906  1.0693010 -0.0599927
  0.1179434  0.0650532  1.1222691 -0.0282290  0.1011111  1.1310876 -0.0370475
  0.1172163  0.0594952  1.1694025 -0.0126205  0.0946570  1.1769347 -0.0201527
  0.1117442  0.0653819  1.1207640 -0.0424439  0.1208465  1.1331862 -0.0548661
  0.1098606  0.0594831  1.1654026 -0.0257071  0.1119513  1.1758335 -0.0361379
  0.1224232  0.0649858  1.1035625 -0.0310429  0.1240471  1.1169663 -0.0444467
  0.1284627  0.0651302  1.1069860 -0.0229455  0.1080004  1.1172162 -0.0331757
  0.1221205  0.0595890  1.1437393 -0.0186422  0.1208748  1.1561758 -0.0310788
  0.1281633  0.0598334  1.1479226 -0.0103075  0.1047619  1.1573220 -0.0197069
  0.1213921  0.0504819  1.2092601 -0.0168563  0.1064045  1.2184256 -0.0260217
  0.1218442  0.0557027  1.1688200 -0.0296340  0.1104928  1.1789218 -0.0397359
  0.1277392  0.0508253  1.2147374 -0.0063995  0.0895869  1.2212748 -0.0129369
  0.1279694  0.0560004  1.1742207 -0.0188876  0.0930980  1.1814414 -0.0261083
  0.1168163  0.0502745  1.2317224 -0.0052307  0.0823950  1.2371867 -0.0106950
  0.1106621  0.0500513  1.2283241 -0.0105006  0.1017277  1.2366220 -0.0187986
  0.1169143  0.0555352  1.1914674 -0.0173648  0.0838516  1.1972561 -0.0231535
  0.1095707  0.0553753  1.1892819 -0.0215920  0.1000767  1.1974974 -0.0298074
  0.1167597  0.0463681  1.2639619 -0.0200432  0.0698746  1.2677532 -0.0238346
  0.1167031  0.0409563  1.3067345 -0.0071574  0.0677225  1.3102159 -0.0106389
  0.1106141  0.0461124  1.2592269 -0.0285033  0.0902911  1.2655270 -0.0348033
  0.1093912  0.0406748  1.3029092 -0.0142175  0.0848631  1.3083545 -0.0196627
  0.1213331  0.0466064  1.2360562 -0.0182509  0.0923686  1.2428219 -0.0250166
  0.1276823  0.0470019  1.2399508 -0.0139949  0.0761307  1.2445560 -0.0186001
  0.1216241  0.0412394  1.2755630 -0.0065425  0.0921022  1.2821455 -0.0131251
  0.1277569  0.0417313  1.2804456 -0.0018851  0.0752899  1.2848510 -0.0062905
  0.1003662  0.0470856  1.2692460 -0.0242663  0.0858297  1.2749163 -0.0299366
  0.1062214  0.0463046  1.2684202 -0.0074066  0.0697411  1.2722211 -0.0112075
  0.0997262  0.0438672  1.3138612 -0.0078217  0.0768756  1.3183176 -0.0122781
  0.1048423  0.0414548  1.2969359  0.0039180  0.0632472  1.3000223  0.0008317
  0.1003802  0.0494124  1.2513409 -0.0120011  0.0931153  1.2581671 -0.0188273
  0.0997782  0.0525511  1.2214954 -0.0232876  0.0864848  1.2274755 -0.0292677
  0.1062581  0.0498203  1.2490421 -0.0267260  0.0817480  1.2542590 -0.0319428
  0.1049791  0.0545757  1.2297821 -0.0345935  0.0770115  1.2344555 -0.0392669
  0.0964898  0.0492998  1.2676925 -0.0110712  0.0719067  1.2717232 -0.0151019
  0.0917389  0.0494001  1.2665064 -0.0170753  0.0830724  1.2718604 -0.0224293
  0.0962104  0.0517050  1.2536829 -0.0149851  0.0722899  1.2577888 -0.0190910
  0.0916641  0.0514182  1.2496769 -0.0220137  0.0839972  1.2552011 -0.0275378
  0.0964853  0.0475176  1.2730234 -0.0224415  0.0676138  1.2765428 -0.0259609
  0.0961939  0.0450538  1.2879451 -0.0180552  0.0672879  1.2914028 -0.0215129
  0.0917377  0.0479170  1.2764490 -0.0196843  0.0795503  1.2813131 -0.0245484
  0.0916596  0.0458832  1.2949362 -0.0141744  0.0796643  1.2997662 -0.0190045
  0.0960699  0.0412424  1.3258561 -0.0164763  0.0682223  1.3293145 -0.0199347
  0.0985750  0.0423015  1.3246167 -0.0332546  0.0674386  1.3279578 -0.0365957
  0.0975225  0.0395338  1.3381683 -0.0009066  0.0760938  1.3424785 -0.0052168
  0.1025114  0.0396405  1.3326782 -0.0198829  0.0725907  1.3365630 -0.0237676
  0.0943679  0.0420937  1.3162482  0.0020660  0.0612897  1.3191004 -0.0007862
  0.0911704  0.0427109  1.3185990 -0.0119244  0.0732466  1.3226192 -0.0159445
  0.0956265  0.0436004  1.3005828 -0.0072868  0.0675639  1.3040638 -0.0107679
  0.0915076  0.0444882  1.3030103 -0.0177388  0.0765636  1.3074338 -0.0221624
  0.0940641  0.0410045  1.3249065 -0.0167449  0.0585238  1.3274546 -0.0192929
  0.0944926  0.0395353  1.3415647 -0.0116392  0.0603639  1.3442521 -0.0143266
  0.0910890  0.0414135  1.3293829 -0.0147111  0.0693772  1.3329544 -0.0182826
  0.0912038  0.0396462  1.3426707 -0.0107056  0.0697934  1.3462604 -0.0142953
  0.1206087  0.0322095  1.3449029 -0.0112108  0.0746821  1.3490033 -0.0153112
  0.1214300  0.0373818  1.3016009 -0.0257551  0.0808244  1.3065043 -0.0306585
  0.1273133  0.0326814  1.3522936  0.0026005  0.0566260  1.3546652  0.0002289
  0.1276580  0.0378941  1.3102283 -0.0106520  0.0612769  1.3130649 -0.0134886
  0.1159705  0.0319193  1.3733268  0.0079270  0.0507735  1.3752123  0.0060416
  0.1100033  0.0315983  1.3671419 -0.0030783  0.0715764  1.3708707 -0.0068071
  0.1164916  0.0370848  1.3305310 -0.0055787  0.0548208  1.3327765 -0.0078242
  0.1092276  0.0367858  1.3260587 -0.0144413  0.0718835  1.3299024 -0.0182850
  0.1153426  0.0281061  1.4064766 -0.0071562  0.0406147  1.4076425 -0.0083222
  0.1141485  0.0228537  1.4530284  0.0100287  0.0315480  1.4537178  0.0093393
  0.1095664  0.0277842  1.3973614 -0.0278111  0.0611452  1.3999799 -0.0304297
  0.1075974  0.0225516  1.4455227 -0.0079308  0.0494856  1.4472056 -0.0096137
  0.1199746  0.0283741  1.3710845 -0.0221861  0.0646710  1.3740799 -0.0251815
  0.1268533  0.0287847  1.3797539 -0.0040193  0.0435719  1.3811245 -0.0053899
  0.1190638  0.0230680  1.4184568 -0.0058702  0.0571509  1.4207463 -0.0081597
  0.1259415  0.0233514  1.4259838  0.0118579  0.0362919  1.4269146  0.0109272
  0.0998453  0.0282667  1.4120334 -0.0169334  0.0589198  1.4144587 -0.0193587
  0.1054139  0.0278273  1.4132741 -0.0014291  0.0427550  1.4145650 -0.0027200
  0.0991428  0.0251000  1.4601699  0.0008316  0.0495036  1.4618472 -0.0008458
  0.1035766  0.0231535  1.4439265  0.0114531  0.0350979  1.4447860  0.0105936
  0.0998734  0.0305614  1.3936884 -0.0027259  0.0660497  1.3968056 -0.0058430
  0.0992480  0.0336639  1.3635260 -0.0137847  0.0601329  1.3661464 -0.0164051
  0.1056901  0.0312344  1.3938424 -0.0148376  0.0540022  1.3959095 -0.0169048
  0.1046072  0.0358692  1.3738973 -0.0223563  0.0498852  1.3756773 -0.0241364
  0.0961078  0.0302351  1.4176574 -0.0031385  0.0473535  1.4192339 -0.0047150
  0.0916366  0.0300167  1.4151499 -0.0070818  0.0578435  1.4174986 -0.0094305
  0.0957466  0.0326362  1.4037123 -0.0070960  0.0471927  1.4052892 -0.0086729
  0.0915398  0.0320337  1.3981618 -0.0120907  0.0582585  1.4005644 -0.0144933
  0.0961572  0.0284562  1.4244327 -0.0136231  0.0414090  1.4256241 -0.0148145
  0.0959307  0.0259972  1.4408440 -0.0088088  0.0413344  1.4420217 -0.0099865
  0.0916498  0.0285345  1.4258915 -0.0106307  0.0538477  1.4279072 -0.0126464
  0.0915891  0.0265020  1.4459408 -0.0046592  0.0541936  1.4479626 -0.0066810
  0.0956615  0.0222374  1.4760374 -0.0116559  0.0411714  1.4771760 -0.0127944
  0.0980217  0.0234845  1.4766721 -0.0251078  0.0405441  1.4777659 -0.0262016
  0.0969973  0.0206625  1.4872743  0.0013268  0.0479251  1.4888184 -0.0002173
  0.1013214  0.0212337  1.4838775 -0.0141089  0.0450649  1.4852320 -0.0154634
  0.0940794  0.0229455  1.4694415  0.0056489  0.0358898  1.4703209  0.0047695
  0.0910931  0.0233052  1.4709765 -0.0029670  0.0486264  1.4725789 -0.0045695
  0.0953740  0.0245207  1.4527573 -0.0024637  0.0418486  1.4539597 -0.0036662
  0.0914400  0.0251008  1.4546461 -0.0086161  0.0512073  1.4564360 -0.0104060
  0.0937837  0.0218406  1.4793578 -0.0104871  0.0357367  1.4802145 -0.0113438
  0.0942703  0.0203971  1.4939503 -0.0052681  0.0383857  1.4949325 -0.0062503
  0.0910138  0.0220036  1.4823765 -0.0050561  0.0449235  1.4837321 -0.0064117
  0.0911442  0.0202432  1.4941313 -0.0013786  0.0460119  1.4955456 -0.0027929
  0.1150124  0.0141937  1.4984388 -0.0062409  0.0333636  1.4991782 -0.0069803
  0.1177342  0.0192684  1.4434850 -0.0358534  0.0522806  1.4453303 -0.0376987
  0.1223987  0.0137872  1.5049356  0.0258081  0.0122097  1.5050364  0.0257074
  0.1247479  0.0193328  1.4552328  0.0013627  0.0277702  1.4557631  0.0008325
  0.1102151  0.0144311  1.5275902  0.0350029  0.0079182  1.5276322  0.0349609
  0.1044950  0.0146731  1.5172035 -0.0081223  0.0304584  1.5178115 -0.0087303
  0.1127746  0.0191895  1.4771413  0.0050689  0.0270800  1.4776393  0.0045709
  0.1062385  0.0190384  1.4634465 -0.0362583  0.0489846  1.4650448 -0.0378566
  0.1077417  0.0113157  1.5547750 -0.0032962  0.0197933  1.5550264 -0.0035476
  0.1035435  0.0075628  1.5946506  0.0325339 -0.0009446  1.5946512  0.0325333
  0.1016084  0.0116681  1.5444160 -0.0489503  0.0411917  1.5454802 -0.0500145
  0.0954656  0.0078238  1.5849633 -0.0048218  0.0167147  1.5851390 -0.0049975
  0.1128181  0.0107469  1.5272384 -0.0510365  0.0342769  1.5279824 -0.0517806
  0.1205537  0.0095454  1.5322142  0.0052850  0.0080333  1.5322564  0.0052428
  0.1095447  0.0064049  1.5874880 -0.0075421  0.0076218  1.5875244 -0.0075786
  0.1178625  0.0035023  1.5788445  0.0315972 -0.0092450  1.5788997  0.0315419
  0.0952857  0.0122476  1.5489259 -0.0264843  0.0423809  1.5500652 -0.0276236
  0.0982708  0.0119178  1.5533969 -0.0085642  0.0399341  1.5544172 -0.0095845
  0.0914163  0.0099164  1.5720750  0.0157031  0.0275158  1.5725613  0.0152168
  0.0922162  0.0084545  1.5686530  0.0198383  0.0301635  1.5692402  0.0192511
  0.0968698  0.0138197  1.5375521 -0.0088186  0.0347913  1.5383345 -0.0096010
  0.0973281  0.0157838  1.4993293 -0.0217250  0.0402474  1.5003935 -0.0227892
  0.1009191  0.0145093  1.5480197  0.0019538  0.0179491  1.5482281  0.0017455
  0.1020996  0.0181259  1.5256553 -0.0059280  0.0218417  1.5259667 -0.0062394
  0.0942491  0.0129058  1.5526872 -0.0012546  0.0368082  1.5535586 -0.0021259
  0.0911385  0.0110984  1.5533510  0.0099491  0.0361342  1.5541965  0.0091036
  0.0944021  0.0143743  1.5500011 -0.0014084  0.0345069  1.5507683 -0.0021756
  0.0911795  0.0128655  1.5511796  0.0094082  0.0343201  1.5519432  0.0086446
  0.1026204  0.0026614  1.6215096 -0.0055220 -0.0040149  1.6215195 -0.0055319
  0.1068122  0.0042384  1.6060343 -0.0469965  0.0044154  1.6060461 -0.0470083
  0.1066829  0.0007131  1.6330722  0.0518987  0.0013948  1.6330734  0.0518975
  0.1141458  0.0011357  1.6141860 -0.0087825  0.0072246  1.6142182 -0.0088147
  0.0987806  0.0034933  1.6270461  0.0209116 -0.0050996  1.6270623  0.0208954
  0.0923528  0.0038180  1.6252224 -0.0007986  0.0302028  1.6257832 -0.0013594
  0.1011424  0.0054668  1.6018062  0.0075492  0.0065335  1.6018330  0.0075224
  0.0929856  0.0057204  1.5987207 -0.0105365  0.0352866  1.5994941 -0.0113099
  0.0987433  0.0021854  1.6283542 -0.0349941 -0.0066305  1.6283807 -0.0350206
  0.1010030  0.0005856  1.6461776 -0.0207518  0.0031532  1.6461836 -0.0207578
  0.0923428  0.0024620  1.6405271 -0.0031528  0.0171662  1.6407063 -0.0033320
  0.0929482  0.0006597  1.6535804  0.0025348  0.0206607  1.6538389  0.0022763
  0.1337989  0.0087990  1.5181471 -0.0022602  0.0054674  1.5181668 -0.0022799
  0.1323576  0.0023577  1.5850415  0.0209154 -0.0050332  1.5850577  0.0208992
  0.1261755  0.0090234  1.5148243 -0.0207404  0.0342870  1.5155895 -0.0215056
  0.1239752  0.0024178  1.5802820  0.0033901  0.0216397  1.5805789  0.0030932
  0.1394232  0.0087758  1.4854565 -0.0204919  0.0290782  1.4860177 -0.0210532
  0.1471660  0.0089372  1.4914608 -0.0051828  0.0029180  1.4914664 -0.0051885
  0.1385057  0.0023515  1.5438239 -0.0014823  0.0221461  1.5441412 -0.0017996
  0.1469201  0.0023947  1.5482612  0.0122433 -0.0017829  1.5482633  0.0122412
  0.1400404  0.0133971  1.4531030  0.0002132  0.0465971  1.4545960 -0.0012797
  0.1408089  0.0195981  1.3994250 -0.0168936  0.0520262  1.4013335 -0.0188021
  0.1473313  0.0136181  1.4577036  0.0102843  0.0264613  1.4581872  0.0098007
  0.1475372  0.0198641  1.4049903 -0.0057927  0.0301416  1.4056340 -0.0064364
  0.1347788  0.0133843  1.4845260  0.0164037  0.0190848  1.4847740  0.0161557
  0.1276951  0.0135703  1.4798574 -0.0036585  0.0386725  1.4808648 -0.0046659
  0.1360150  0.0194703  1.4311728 -0.0031033  0.0294262  1.4317763 -0.0037068
  0.1296462  0.0193869  1.4233434 -0.0266525  0.0519994  1.4252058 -0.0285149
  0.1372523  0.0292066  1.3529970 -0.0056355  0.0499338  1.3548297 -0.0074683
  0.1366777  0.0237099  1.3994140  0.0094463  0.0439920  1.4008049  0.0080554
  0.1314829  0.0290078  1.3472421 -0.0195296  0.0678050  1.3505976 -0.0228851
  0.1306611  0.0235234  1.3940683 -0.0038148  0.0610984  1.3967337 -0.0064802
  0.1415839  0.0293812  1.3259036 -0.0143519  0.0698901  1.3295383 -0.0179866
  0.1476487  0.0296596  1.3303132 -0.0066849  0.0521028  1.3323406 -0.0087123
  0.1412225  0.0238811  1.3695162 -0.0009094  0.0667882  1.3727635 -0.0041566
  0.1476223  0.0241624  1.3736019  0.0063275  0.0499389  1.3754235  0.0045060
  0.1417942  0.0334210  1.2980712 -0.0031550  0.0851523  1.3036199 -0.0087037
  0.1420070  0.0389577  1.2552422 -0.0162362  0.0880564  1.2613116 -0.0223056
  0.1477050  0.0336815  1.3021868  0.0045011  0.0691754  1.3058639  0.0008240
  0.1478325  0.0391726  1.2590858 -0.0085704  0.0718705  1.2631475 -0.0126322
  0.1375463  0.0332260  1.3246577  0.0039169  0.0647887  1.3278283  0.0007463
  0.1318517  0.0329538  1.3205016 -0.0034687  0.0805148  1.3253800 -0.0083471
  0.1377748  0.0387105  1.2833289 -0.0087180  0.0675735  1.2868533 -0.0122424
  0.1320376  0.0382501  1.2777529 -0.0164992  0.0832981  1.2830920 -0.0218383
  0.1579635  0.0335423  1.2801953  0.0030404  0.0735645  1.2844186 -0.0011830
  0.1520376  0.0337140  1.2805056  0.0000296  0.0896422  1.2867508 -0.0062155
  0.1578652  0.0389511  1.2367374 -0.0099434  0.0744153  1.2411636 -0.0143696
  0.1520817  0.0391708  1.2374806 -0.0129011  0.0908793  1.2440513 -0.0194718
  0.1581479  0.0294872  1.3047252 -0.0092327  0.0539628  1.3069376 -0.0114452
  0.1585536  0.0238172  1.3490497  0.0040034  0.0547460  1.3512743  0.0017788
  0.1520870  0.0296880  1.3060692 -0.0097925  0.0715097  1.3099439 -0.0136672
  0.1522662  0.0241453  1.3512717  0.0037399  0.0716874  1.3550747 -0.0000631
  0.1624750  0.0294509  1.2846446 -0.0082969  0.0712566  1.2885598 -0.0122121
  0.1682356  0.0295523  1.2854313 -0.0079977  0.0560431  1.2878550 -0.0104215
  0.1629521  0.0237580  1.3272972  0.0044934  0.0724842  1.3312572  0.0005334
  0.1686814  0.0239242  1.3285844  0.0049429  0.0572155  1.3310530  0.0024744
  0.1622300  0.0334975  1.2596385  0.0011774  0.0912675  1.2662231 -0.0054071
  0.1620380  0.0388601  1.2194888 -0.0107703  0.0918048  1.2263017 -0.0175833
  0.1679605  0.0335466  1.2609525  0.0044465  0.0763205  1.2655712 -0.0001723
  0.1676547  0.0388310  1.2202318 -0.0076105  0.0765508  1.2249860 -0.0123647
  0.1596164  0.0134704  1.4265066  0.0071256  0.0308118  1.4271752  0.0064571
  0.1525767  0.0136377  1.4270546  0.0050272  0.0498463  1.4287997  0.0032821
  0.1589471  0.0195255  1.3747467 -0.0081638  0.0296349  1.3753814 -0.0087986
  0.1523974  0.0198447  1.3768033 -0.0099874  0.0501414  1.3786139 -0.0117980
  0.1602775  0.0088758  1.4557839 -0.0138712 -0.0002289  1.4557839 -0.0138712
  0.1614141  0.0023783  1.5109884  0.0029720  0.0037661  1.5109978  0.0029626
  0.1527538  0.0089639  1.4572831 -0.0113668  0.0243426  1.4576864 -0.0117702
  0.1530584  0.0024019  1.5117750  0.0050543  0.0258409  1.5122180  0.0046113
  0.1654604  0.0090590  1.4272461 -0.0048800  0.0177663  1.4274665 -0.0051003
  0.1720967  0.0096477  1.4292360 -0.0121890 -0.0000960  1.4292360 -0.0121890
  0.1674439  0.0024274  1.4747116  0.0114938  0.0254063  1.4751526  0.0110528
  0.1755618  0.0025851  1.4733323  0.0042617  0.0098198  1.4733980  0.0041961
  0.1643946  0.0136393  1.3875668  0.0073754  0.0513558  1.3894750  0.0054671
  0.1634665  0.0195213  1.3534896 -0.0034971  0.0479023  1.3551785 -0.0051859
  0.1704091  0.0142682  1.3898143  0.0038135  0.0393291  1.3909294  0.0026984
  0.1692638  0.0198289  1.3539681 -0.0078303  0.0351039  1.3548723 -0.0087346
  0.1773412  0.0304686  1.2643195 -0.0049729  0.0590832  1.2670638 -0.0077172
  0.1777589  0.0243892  1.3058942  0.0072917  0.0589235  1.3085624  0.0046236
  0.1722190  0.0298250  1.2587974 -0.0093069  0.0721365  1.2628877 -0.0133972
  0.1726489  0.0240934  1.3028372  0.0036648  0.0720644  1.3068224 -0.0003203
  0.1813438  0.0310073  1.2225803 -0.0101464  0.0770370  1.2273759 -0.0149420
  0.1871571  0.0318357  1.2295045 -0.0045357  0.0626987  1.2326819 -0.0077131
  0.1816353  0.0246512  1.2721768  0.0045331  0.0761643  1.2767366 -0.0000267
  0.1871160  0.0250713  1.2767100  0.0096506  0.0610115  1.2796411  0.0067196
  0.1808583  0.0354276  1.1902727 -0.0002116  0.1016452  1.1988889 -0.0088279
  0.1798234  0.0411481  1.1610789 -0.0094197  0.0988491  1.1693681 -0.0177089
  0.1865397  0.0369206  1.1952264 -0.0005348  0.0944358  1.2026386 -0.0079470
  0.1848120  0.0440481  1.1728365 -0.0077134  0.0918164  1.1799348 -0.0148117
  0.1769359  0.0346030  1.2332635  0.0023762  0.0832121  1.2388635 -0.0032238
  0.1719009  0.0338428  1.2288624  0.0006570  0.0931330  1.2358844 -0.0063649
  0.1762463  0.0398190  1.2025095 -0.0067925  0.0819550  1.2080383 -0.0123213
  0.1714618  0.0390880  1.1978258 -0.0086171  0.0923915  1.2048602 -0.0156516
  0.1814642  0.0165417  1.3483157  0.0052068  0.0496171  1.3501461  0.0033763
  0.1816676  0.0207751  1.3013811 -0.0092925  0.0537600  1.3035825 -0.0114939
  0.1857204  0.0156249  1.3414573  0.0114571  0.0347108  1.3423626  0.0105518
  0.1867311  0.0207276  1.3034314 -0.0013377  0.0400091  1.3046571 -0.0025634
  0.1783645  0.0163745  1.3671902  0.0066087  0.0409488  1.3684215  0.0053774
  0.1741524  0.0150011  1.3567319  0.0059536  0.0527413  1.3587880  0.0038975
  0.1780331  0.0206127  1.3287500 -0.0051385  0.0388392  1.3298799 -0.0062685
  0.1731669  0.0201213  1.3262949 -0.0035959  0.0498638  1.3281619 -0.0054629
  0.1799392  0.0139083  1.3775874 -0.0165610  0.0321972  1.3783306 -0.0173041
  0.1839098  0.0114084  1.3669056  0.0003790  0.0274449  1.3674566 -0.0001720
  0.1759763  0.0109471  1.4046434  0.0115923  0.0168598  1.4048474  0.0113883
  0.1799738  0.0049916  1.3894337  0.0159491  0.0177066  1.3896619  0.0157209
  0.1945147  0.0100592  1.3612365 -0.0046185  0.0126898  1.3613544 -0.0047363
  0.1925495  0.0026953  1.4353329  0.0218669 -0.0002353  1.4353329  0.0218669
  0.1878153  0.0103771  1.3593335 -0.0219626  0.0391365  1.3604414 -0.0230705
  0.1844146  0.0027805  1.4313345  0.0064882  0.0223231  1.4316842  0.0061385
  0.1997211  0.0100639  1.3249848 -0.0217313  0.0315939  1.3257256 -0.0224721
  0.2072458  0.0103946  1.3331205 -0.0038989  0.0069599  1.3331567 -0.0039351
  0.1985855  0.0026966  1.3891070 -0.0003350  0.0227828  1.3894805 -0.0007084
  0.2069415  0.0027852  1.3943081  0.0149960  0.0009199  1.3943087  0.0149954
  0.2004025  0.0153975  1.2885271  0.0006288  0.0569481  1.2910403 -0.0018844
  0.2011285  0.0226019  1.2363081 -0.0159397  0.0622266  1.2393927 -0.0190243
  0.2074284  0.0159491  1.2944894  0.0100173  0.0413097  1.2958166  0.0086901
  0.2076229  0.0235148  1.2457892 -0.0048082  0.0449759  1.2474046 -0.0064237
  0.1956008  0.0152154  1.3245728  0.0155329  0.0324643  1.3253775  0.0147283
  0.1895083  0.0152695  1.3202974  0.0001486  0.0471420  1.3219787 -0.0015327
  0.1966029  0.0219386  1.2814714  0.0004847  0.0401424  1.2827281 -0.0007721
  0.1907330  0.0210393  1.2692515 -0.0187127  0.0572765  1.2717936 -0.0212548
  0.1968846  0.0343081  1.2037368 -0.0038555  0.0695404  1.2077281 -0.0078468
  0.1969469  0.0270545  1.2423671  0.0076663  0.0666551  1.2459550  0.0040784
  0.1913212  0.0327202  1.1925422 -0.0136350  0.0813764  1.1980076 -0.0191004
  0.1912187  0.0257152  1.2330921 -0.0013507  0.0780232  1.2380040 -0.0062626
  0.2012622  0.0353739  1.1492833 -0.0152427  0.0891140  1.1560632 -0.0220226
  0.2076587  0.0366978  1.1584481 -0.0086426  0.0754565  1.1633064 -0.0135009
  0.2013589  0.0279546  1.1951611 -0.0015400  0.0875414  1.2015311 -0.0079100
  0.2076846  0.0290744  1.2032778  0.0047906  0.0737692  1.2078013  0.0002670
  0.2010143  0.0408377  1.1070659 -0.0009319  0.1164896  1.1191806 -0.0130466
  0.2004336  0.0483457  1.0659684 -0.0130795  0.1162774  1.0783562 -0.0254672
  0.2075923  0.0422871  1.1161967  0.0039832  0.1029419  1.1256443 -0.0054644
  0.2074367  0.0499342  1.0747720 -0.0083959  0.1035550  1.0845834 -0.0182073
  0.1964960  0.0397069  1.1537740  0.0046040  0.0983862  1.1621364 -0.0037585
  0.1907298  0.0380672  1.1449173  0.0014864  0.1091499  1.1552433 -0.0088396
  0.1954966  0.0472033  1.1167701 -0.0064227  0.0968726  1.1250638 -0.0147165
  0.1890116  0.0456706  1.1100936 -0.0088419  0.1065942  1.1201577 -0.0189060
  0.1738448  0.0470407  1.1477652 -0.0105211  0.0971801  1.1558620 -0.0186179
  0.1754180  0.0431517  1.1771533 -0.0008636  0.1021016  1.1859372 -0.0096475
  0.1701793  0.0471355  1.1492533 -0.0079225  0.1077464  1.1592002 -0.0178694
  0.1710005  0.0426497  1.1750760  0.0001604  0.1101003  1.1853044 -0.0100679
  0.1757853  0.0482020  1.1458073  0.0013968  0.1135378  1.1569628 -0.0097586
  0.1774213  0.0514693  1.1179774 -0.0125928  0.1224220  1.1310818 -0.0256972
  0.1784641  0.0445709  1.1214274  0.0028055  0.1110474  1.1323447 -0.0081118
  0.1823687  0.0479464  1.1071813 -0.0076019  0.1180357  1.1195421 -0.0199627
  0.1735315  0.0497412  1.1259925 -0.0039362  0.1122572  1.1370372 -0.0149809
  0.1700528  0.0503155  1.1308602 -0.0044423  0.1238278  1.1442092 -0.0177913
  0.1742488  0.0532300  1.0899540 -0.0151818  0.1156524  1.1019273 -0.0271551
  0.1705285  0.0545176  1.0996128 -0.0140240  0.1257686  1.1136398 -0.0280510
  0.1751389  0.0591378  1.0441737 -0.0156994  0.1293178  1.0597240 -0.0312496
  0.1746795  0.0557478  1.0775185 -0.0051610  0.1262258  1.0920400 -0.0196824
  0.1712619  0.0613464  1.0615720 -0.0143845  0.1399426  1.0794755 -0.0322880
  0.1708525  0.0574733  1.0915708 -0.0050091  0.1374695  1.1085416 -0.0219799
  0.1781263  0.0583787  1.0522257 -0.0169657  0.1333305  1.0686015 -0.0333415
  0.1824109  0.0585136  1.0547936 -0.0125257  0.1181873  1.0677241 -0.0254563
  0.1780486  0.0541961  1.1068373 -0.0004963  0.1311900  1.1221676 -0.0158266
  0.1834263  0.0516824  1.0906806 -0.0022154  0.1188830  1.1034629 -0.0149978
  0.1766892  0.0611382  1.0306834  0.0074903  0.1431137  1.0503237 -0.0121499
  0.1726852  0.0644945  1.0363041 -0.0128859  0.1413843  1.0550225 -0.0316043
  0.1804651  0.0632134  1.0163245 -0.0169597  0.1522868  1.0383013 -0.0389365
  0.1761643  0.0692224  1.0238473 -0.0263764  0.1488624  1.0445399 -0.0470690
  0.1924087  0.0659382  0.9933745 -0.0051833  0.1495679  1.0152961 -0.0271050
  0.1846771  0.0644996  0.9890242  0.0047549  0.1639182  1.0156049 -0.0218259
  0.1903515  0.0732768  0.9586407 -0.0180724  0.1428522  0.9791052 -0.0385369
  0.1808979  0.0715756  0.9552838 -0.0098417  0.1546645  0.9794634 -0.0340214
  0.1935778  0.0604404  1.0361012 -0.0113836  0.1215387  1.0500183 -0.0253008
  0.1947147  0.0527588  1.0761899  0.0013258  0.1253788  1.0906211 -0.0131054
  0.1865511  0.0590660  1.0306006 -0.0089887  0.1334632  1.0474612 -0.0258494
  0.1878919  0.0512972  1.0698912  0.0035782  0.1375592  1.0873511 -0.0138816
  0.1990767  0.0615575  0.9835994 -0.0128284  0.1451166  1.0043035 -0.0335325
  0.2070731  0.0632350  0.9944808 -0.0020776  0.1304764  1.0112805 -0.0188773
  0.1999144  0.0538975  1.0243355 -0.0014451  0.1437421  1.0440973 -0.0212069
  0.2072976  0.0555472  1.0366907  0.0103546  0.1278726  1.0523826 -0.0053373
  0.1983581  0.0671028  0.9421845 -0.0008014  0.1726695  0.9728074 -0.0314243
  0.1972327  0.0745932  0.8965514 -0.0132638  0.1733901  0.9284755 -0.0451878
  0.2068806  0.0688462  0.9573244  0.0139517  0.1517227  0.9811254 -0.0098494
  0.2065790  0.0764886  0.9102685  0.0001654  0.1542898  0.9357138 -0.0252799
  0.1890416  0.0857976  0.8814647 -0.0162586  0.1665930  0.9113827 -0.0461767
  0.1894493  0.0785981  0.9279497 -0.0025722  0.1657580  0.9565951 -0.0312176
  0.1796005  0.0844100  0.8703063 -0.0257132  0.1887149  0.9084303 -0.0638372
  0.1795376  0.0769105  0.9159544 -0.0119815  0.1868584  0.9521687 -0.0481959
  0.1961960  0.0871952  0.8109653 -0.0206759  0.1985584  0.8559399 -0.0656505
  0.2063012  0.0896260  0.8282213 -0.0063514  0.1769928  0.8642056 -0.0423358
  0.1966534  0.0799769  0.8562478 -0.0075363  0.1968660  0.8989998 -0.0502883
  0.2064238  0.0820565  0.8724342  0.0068015  0.1746138  0.9063297 -0.0270940
  0.1954067  0.0920391  0.7760798 -0.0003626  0.2173458  0.8327799 -0.0570627
  0.1937077  0.0980547  0.7469221 -0.0103388  0.2128299  0.8026389 -0.0660557
  0.2060897  0.0950492  0.7879442 -0.0045464  0.2002771  0.8356823 -0.0522845
  0.2056345  0.1022964  0.7606069 -0.0130066  0.1980916  0.8083801 -0.0607798
  0.1881879  0.0904484  0.8463757 -0.0210716  0.1937565  0.8876866 -0.0623824
  0.1791487  0.0891124  0.8438070 -0.0137413  0.2057030  0.8905967 -0.0605310
  0.1862633  0.0959551  0.8238163 -0.0295949  0.1891357  0.8638548 -0.0696333
  0.1778518  0.0944603  0.8199820 -0.0221854  0.2016605  0.8657799 -0.0679833
  0.1659253  0.0838209  0.9054022 -0.0328234  0.1799232  0.9387227 -0.0661438
  0.1734065  0.0838803  0.9106978 -0.0165460  0.1599093  0.9375005 -0.0433486
  0.1653467  0.0779308  0.9577704 -0.0158000  0.1729954  0.9875965 -0.0456261
  0.1730794  0.0767317  0.9539851 -0.0030522  0.1549492  0.9784469 -0.0275140
  0.1659690  0.0879791  0.8784498 -0.0199261  0.1945140  0.9187570 -0.0602333
  0.1655098  0.0934495  0.8457782 -0.0297601  0.1934051  0.8865980 -0.0705798
  0.1731952  0.0884508  0.8809781 -0.0196575  0.1801037  0.9156587 -0.0543381
  0.1722910  0.0937890  0.8478125 -0.0296738  0.1779870  0.8825405 -0.0644018
  0.1609740  0.0878422  0.9054760 -0.0190007  0.1695590  0.9355937 -0.0491184
  0.1545537  0.0879397  0.9039949 -0.0259544  0.1848447  0.9393891 -0.0613486
  0.1607705  0.0933193  0.8674656 -0.0301933  0.1712413  0.8990230 -0.0617506
  0.1546037  0.0933031  0.8651126 -0.0376727  0.1871939  0.9023884 -0.0749485
  0.1608161  0.0838780  0.9275303 -0.0247957  0.1576421  0.9529470 -0.0502125
  0.1601811  0.0785247  0.9653459 -0.0125471  0.1531527  0.9887708 -0.0359720
  0.1543386  0.0840933  0.9259532 -0.0347630  0.1738744  0.9564534 -0.0652632
  0.1538010  0.0789480  0.9653157 -0.0221247  0.1693902  0.9935655 -0.0503745
  0.1658052  0.1022843  0.7873157 -0.0389669  0.2109106  0.8380376 -0.0896888
  0.1724679  0.1023121  0.7911397 -0.0268122  0.1945313  0.8350476 -0.0707201
  0.1654659  0.0972826  0.8214678 -0.0281790  0.2070276  0.8692281 -0.0759393
  0.1720961  0.0975031  0.8266996 -0.0155010  0.1903736  0.8677330 -0.0565344
  0.1658298  0.1059632  0.7683860 -0.0305485  0.2228948  0.8263640 -0.0885265
  0.1655579  0.1110121  0.7370710 -0.0398465  0.2229918  0.7965247 -0.0993002
  0.1725064  0.1058182  0.7682591 -0.0280862  0.2075802  0.8191198 -0.0789469
  0.1722397  0.1105879  0.7351064 -0.0379259  0.2076590  0.7873578 -0.0901774
  0.1611500  0.1060215  0.7868801 -0.0324113  0.2008122  0.8334527 -0.0789839
  0.1550412  0.1060360  0.7851842 -0.0383487  0.2147099  0.8378012 -0.0909657
  0.1609195  0.1111985  0.7521332 -0.0426233  0.2020997  0.8005730 -0.0910631
  0.1549290  0.1112836  0.7508824 -0.0485388  0.2162577  0.8056341 -0.1032905
  0.1611206  0.1022664  0.8092543 -0.0338899  0.1883168  0.8494031 -0.0740388
  0.1608098  0.0971842  0.8442352 -0.0229447  0.1847339  0.8819486 -0.0606581
  0.1549850  0.1022452  0.8062120 -0.0435948  0.2028575  0.8521526 -0.0895354
  0.1547192  0.0971362  0.8409836 -0.0327818  0.1994047  0.8843391 -0.0761373
  0.1834839  0.1059525  0.7500821 -0.0047247  0.2093301  0.8042484 -0.0588910
  0.1772368  0.1058153  0.7430559 -0.0244809  0.2287327  0.8060501 -0.0874752
  0.1848185  0.1097641  0.7167481 -0.0183355  0.2172356  0.7761469 -0.0777343
  0.1774006  0.1102535  0.7149661 -0.0332389  0.2325466  0.7813526 -0.0996255
  0.1835371  0.1031654  0.7731480 -0.0289255  0.1963391  0.8186306 -0.0744081
  0.1850172  0.0993626  0.8037579 -0.0207338  0.1995738  0.8495256 -0.0665014
  0.1772192  0.1025482  0.7661186 -0.0356695  0.2162217  0.8207110 -0.0902619
  0.1773348  0.0980605  0.7949068 -0.0270943  0.2155696  0.8480093 -0.0801968
  0.1873164  0.1047884  0.7405356 -0.0140759  0.2261452  0.8031177 -0.0766579
  0.1913236  0.1086053  0.7106448 -0.0464064  0.2428576  0.7818540 -0.1176156
  0.1915399  0.1014709  0.7298393  0.0063002  0.2250399  0.7941216 -0.0579821
  0.2016779  0.1059288  0.7123876 -0.0216556  0.2368114  0.7821548 -0.0914228
  0.1659874  0.1204488  0.6780772 -0.0501430  0.2400829  0.7501046 -0.1221705
  0.1730656  0.1199218  0.6784860 -0.0384164  0.2243528  0.7429076 -0.1028380
  0.1656001  0.1148935  0.7159801 -0.0381081  0.2354988  0.7834828 -0.1056109
  0.1723895  0.1143670  0.7162576 -0.0259343  0.2191236  0.7761227 -0.0857993
  0.1658848  0.1247794  0.6573737 -0.0416204  0.2530950  0.7393917 -0.1236384
  0.1652173  0.1310556  0.6188093 -0.0529323  0.2525864  0.7031873 -0.1373103
  0.1731633  0.1242811  0.6551848 -0.0394132  0.2371521  0.7284303 -0.1126588
  0.1727542  0.1306362  0.6172653 -0.0506360  0.2372102  0.6929385 -0.1263092
  0.1609379  0.1248515  0.6721366 -0.0492638  0.2303732  0.7394276 -0.1165548
  0.1547013  0.1245504  0.6701655 -0.0504354  0.2432843  0.7446106 -0.1248805
  0.1601949  0.1310475  0.6361780 -0.0599833  0.2290809  0.7047965 -0.1286018
  0.1540105  0.1306060  0.6333468 -0.0614148  0.2420363  0.7093511 -0.1374192
  0.1611307  0.1205781  0.6968169 -0.0471452  0.2174354  0.7557048 -0.1060330
  0.1609143  0.1150990  0.7307799 -0.0366897  0.2143688  0.7865976 -0.0925074
  0.1549401  0.1204046  0.6931915 -0.0559426  0.2310483  0.7587196 -0.1214707
  0.1549019  0.1151337  0.7283963 -0.0453305  0.2282599  0.7907165 -0.1076506
  0.1886324  0.1239177  0.6392279 -0.0253602  0.2440545  0.7192225 -0.1053548
  0.1792585  0.1240502  0.6370884 -0.0350112  0.2645718  0.7287391 -0.1266619
  0.1886276  0.1306785  0.5995585 -0.0372566  0.2463839  0.6837530 -0.1214511
  0.1790270  0.1305351  0.5958060 -0.0471693  0.2664936  0.6918984 -0.1432618
  0.1879310  0.1192699  0.6634191 -0.0231984  0.2353594  0.7363494 -0.0961287
  0.1860101  0.1133325  0.6993056 -0.0076604  0.2258007  0.7652700 -0.0736249
  0.1789454  0.1196059  0.6581722 -0.0463924  0.2526504  0.7394046 -0.1276249
  0.1778584  0.1139487  0.6957099 -0.0321129  0.2441508  0.7700235 -0.1064264
  0.1951887  0.1187317  0.6432630 -0.0490078  0.2583947  0.7290739 -0.1348186
  0.2060313  0.1175975  0.6430380 -0.0219085  0.2287681  0.7141404 -0.0930109
  0.1934330  0.1123414  0.6958060 -0.0288990  0.2473958  0.7722064 -0.1052993
  0.2055609  0.1102499  0.6904026 -0.0067669  0.2221118  0.7551518 -0.0715161
  0.1958539  0.1236470  0.6155103 -0.0250991  0.2713615  0.7150057 -0.1245946
  0.1959156  0.1306854  0.5682888 -0.0393538  0.2753852  0.6745217 -0.1455867
  0.2062096  0.1230399  0.6162757 -0.0110442  0.2490312  0.7031144 -0.0978828
  0.2062261  0.1305612  0.5720856 -0.0243218  0.2526968  0.6647542 -0.1169903
  0.1889636  0.1436894  0.5248530 -0.0436718  0.2664804  0.6302275 -0.1490464
  0.1887164  0.1359763  0.5725647 -0.0289659  0.2612346  0.6701752 -0.1265764
  0.1792605  0.1435508  0.5189861 -0.0606647  0.2872700  0.6372327 -0.1789114
  0.1790275  0.1357603  0.5662117 -0.0461345  0.2821120  0.6763667 -0.1562896
  0.1962102  0.1437631  0.4888316 -0.0456616  0.2976570  0.6216106 -0.1784405
  0.2063050  0.1438260  0.4956948 -0.0240362  0.2744200  0.6137664 -0.1421078
  0.1960111  0.1360755  0.5387509 -0.0303053  0.2915504  0.6616020 -0.1531565
  0.2062517  0.1361308  0.5454619 -0.0090046  0.2686508  0.6542747 -0.1178174
  0.1962651  0.1494136  0.4587393 -0.0368242  0.3151280  0.6118334 -0.1899183
  0.1962161  0.1571634  0.4121441 -0.0507052  0.3209486  0.5764029 -0.2149639
  0.2063197  0.1494654  0.4656974 -0.0145841  0.2937350  0.6049613 -0.1538479
  0.2063066  0.1571773  0.4188482 -0.0286122  0.2996602  0.5690852 -0.1788491
  0.1890008  0.1493628  0.4937693 -0.0396849  0.2827995  0.6157823 -0.1616980
  0.1792090  0.1492759  0.4887481 -0.0548133  0.3037407  0.6245495 -0.1906147
  0.1888551  0.1571498  0.4470436 -0.0535027  0.2865994  0.5772647 -0.1837238
  0.1788350  0.1571265  0.4425173 -0.0681781  0.3070389  0.5865132 -0.2121740
  0.1641898  0.1434544  0.5430798 -0.0676981  0.2724319  0.6469360 -0.1715543
  0.1726224  0.1434879  0.5462524 -0.0577082  0.2553937  0.6397694 -0.1512251
  0.1647631  0.1360595  0.5907512 -0.0540869  0.2703086  0.6890706 -0.1524063
  0.1726092  0.1357826  0.5921128 -0.0439358  0.2520893  0.6799068 -0.1317298
  0.1633921  0.1490856  0.5133263 -0.0601975  0.2913251  0.6353463 -0.1822175
  0.1617861  0.1570755  0.4689120 -0.0734363  0.2883615  0.5935759 -0.1981002
  0.1723471  0.1492016  0.5142126 -0.0594054  0.2720588  0.6227205 -0.1679133
  0.1715819  0.1571066  0.4692312 -0.0728581  0.2706996  0.5812577 -0.1848846
  0.1573885  0.1486152  0.5353698 -0.0773881  0.2621977  0.6322472 -0.1742655
  0.1499411  0.1474459  0.5317683 -0.0680044  0.2772835  0.6403155 -0.1765516
  0.1547629  0.1569494  0.4873526 -0.0952348  0.2528264  0.5817702 -0.1896524
  0.1453710  0.1566361  0.4890569 -0.0855848  0.2664360  0.5935797 -0.1901075
  0.1586820  0.1429761  0.5814652 -0.0705617  0.2423248  0.6616611 -0.1507577
  0.1595905  0.1359039  0.6098003 -0.0617407  0.2445536  0.6894192 -0.1413596
  0.1520669  0.1417026  0.5771014 -0.0695104  0.2514982  0.6634027 -0.1558117
  0.1533046  0.1352019  0.6074209 -0.0599073  0.2545325  0.6934215 -0.1459079
  0.1449600  0.1244091  0.6879723 -0.0622380  0.2332977  0.7546043 -0.1288700
  0.1447590  0.1302653  0.6496287 -0.0735120  0.2354017  0.7195060 -0.1433893
  0.1504200  0.1244319  0.6899968 -0.0559069  0.2217504  0.7509416 -0.1168517
  0.1498744  0.1303964  0.6525369 -0.0665467  0.2230594  0.7161095 -0.1301193
  0.1409938  0.1242141  0.7065501 -0.0619359  0.2105902  0.7604748 -0.1158606
  0.1356181  0.1237040  0.7017049 -0.0689622  0.2218890  0.7610248 -0.1282821
  0.1409582  0.1300595  0.6709728 -0.0725709  0.2129206  0.7276277 -0.1292258
  0.1356898  0.1296284  0.6664514 -0.0796131  0.2244200  0.7287552 -0.1419168
  0.1410353  0.1200633  0.7321967 -0.0613468  0.1987302  0.7791833 -0.1083335
  0.1411131  0.1145686  0.7652684 -0.0514989  0.1968994  0.8102572 -0.0964877
  0.1355982  0.1195528  0.7273033 -0.0680833  0.2106863  0.7796641 -0.1204441
  0.1356153  0.1141358  0.7609321 -0.0580116  0.2086963  0.8110485 -0.1081280
  0.1450645  0.1202694  0.7105754 -0.0624018  0.2210049  0.7693020 -0.1211284
  0.1506352  0.1203219  0.7128739 -0.0557429  0.2087106  0.7658904 -0.1087594
  0.1451491  0.1148157  0.7439137 -0.0524885  0.2190014  0.8001636 -0.1087384
  0.1506777  0.1150578  0.7474411 -0.0454203  0.2065440  0.7980202 -0.0959994
  0.1405689  0.1391032  0.6000187 -0.0847273  0.2285782  0.6693097 -0.1540183
  0.1408444  0.1340490  0.6443373 -0.0719287  0.2259213  0.7096422 -0.1372336
  0.1361493  0.1400341  0.6052535 -0.0906536  0.2407760  0.6804367 -0.1658368
  0.1358322  0.1340040  0.6418696 -0.0792757  0.2372290  0.7129105 -0.1503165
  0.1437628  0.1392853  0.5873805 -0.0787109  0.2428087  0.6664944 -0.1578248
  0.1480694  0.1407136  0.5964840 -0.0776444  0.2328357  0.6690840 -0.1502444
  0.1444382  0.1342513  0.6253527 -0.0670287  0.2454206  0.7035195 -0.1451955
  0.1492446  0.1347591  0.6277852 -0.0679021  0.2356761  0.7001063 -0.1402231
  0.1418939  0.1422348  0.5753694 -0.0655448  0.2455224  0.6586127 -0.1487881
  0.1374632  0.1452590  0.5795439 -0.0898967  0.2452695  0.6597872 -0.1701400
  0.1457894  0.1457362  0.5540436 -0.0937363  0.2585631  0.6445925 -0.1842853
  0.1407355  0.1535037  0.5630142 -0.1025494  0.2546692  0.6492791 -0.1888142
  0.1258872  0.1237957  0.7191061 -0.0715204  0.2117327  0.7722383 -0.1246526
  0.1257112  0.1296588  0.6818050 -0.0825482  0.2134206  0.7373581 -0.1381013
  0.1315703  0.1235919  0.7195467 -0.0660168  0.1988237  0.7670016 -0.1134717
  0.1316044  0.1295210  0.6826761 -0.0771084  0.2009507  0.7325504 -0.1269827
  0.1217901  0.1238896  0.7303393 -0.0748378  0.1896220  0.7727609 -0.1172594
  0.1162796  0.1239422  0.7295868 -0.0783364  0.2015813  0.7770895 -0.1258391
  0.1215267  0.1296763  0.6955788 -0.0851142  0.1903486  0.7395168 -0.1290521
  0.1159876  0.1295865  0.6939575 -0.0888483  0.2022484  0.7431231 -0.1380140
  0.1219094  0.1196409  0.7546378 -0.0735447  0.1786564  0.7915340 -0.1104409
  0.1219720  0.1138200  0.7928167 -0.0621506  0.1766737  0.8278867 -0.0972206
  0.1164114  0.1197515  0.7536397 -0.0790759  0.1912659  0.7954702 -0.1209063
  0.1164793  0.1139464  0.7919228 -0.0676560  0.1892902  0.8317606 -0.1074938
  0.1259687  0.1195509  0.7426203 -0.0726101  0.2006654  0.7893362 -0.1193260
  0.1315611  0.1194155  0.7434610 -0.0671543  0.1880659  0.7849677 -0.1086611
  0.1260155  0.1138168  0.7782596 -0.0619604  0.1987927  0.8229194 -0.1066202
  0.1315699  0.1139343  0.7807559 -0.0559747  0.1860215  0.8202481 -0.0954669
  0.1210105  0.1421005  0.6310318 -0.1029649  0.2003580  0.6821616 -0.1540946
  0.1213178  0.1345559  0.6677396 -0.0919245  0.2011473  0.7177129 -0.1418977
  0.1148689  0.1413773  0.6277819 -0.1033910  0.2105290  0.6840674 -0.1596765
  0.1156096  0.1342582  0.6662856 -0.0917646  0.2122092  0.7216483 -0.1471273
  0.1256408  0.1419446  0.6163926 -0.1014834  0.2331806  0.6854846 -0.1705754
  0.1321494  0.1407954  0.6144459 -0.0894566  0.2219369  0.6785784 -0.1535891
  0.1256452  0.1345218  0.6544645 -0.0900704  0.2278468  0.7186570 -0.1542628
  0.1317596  0.1341307  0.6565496 -0.0759337  0.2152154  0.7151027 -0.1344868
  0.1257573  0.1479030  0.5768196 -0.1035120  0.2484338  0.6578807 -0.1845731
  0.1260800  0.1567586  0.5088620 -0.1247406  0.2581796  0.6007412 -0.2166198
  0.1331394  0.1467778  0.5742918 -0.0826644  0.2275397  0.6454037 -0.1537763
  0.1354544  0.1564571  0.5129999 -0.1059229  0.2403693  0.5953851 -0.1883081
  0.1204550  0.1480611  0.5859207 -0.1134469  0.2159872  0.6472469 -0.1747731
  0.1133510  0.1473678  0.5833381 -0.1076781  0.2327403  0.6544160 -0.1787560
  0.1192448  0.1568010  0.5357219 -0.1294372  0.2109837  0.5969992 -0.1907146
  0.1099449  0.1566152  0.5366643 -0.1239591  0.2244403  0.6057012 -0.1929960
  0.1062060  0.1404090  0.6345576 -0.1110895  0.2008992  0.6852407 -0.1617726
  0.1109020  0.1409240  0.6384003 -0.1100511  0.1885209  0.6832032 -0.1548540
  0.1064705  0.1352694  0.6798667 -0.0974893  0.2017715  0.7291183 -0.1467409
  0.1116313  0.1344493  0.6744842 -0.0992129  0.1899881  0.7186198 -0.1433484
  0.1046457  0.1437997  0.6136146 -0.0996453  0.2042576  0.6679665 -0.1539972
  0.1006474  0.1479239  0.6056840 -0.1286857  0.1939720  0.6537699 -0.1767717
  0.1091150  0.1462260  0.6039254 -0.1305051  0.2103998  0.6599301 -0.1865098
  0.1049618  0.1542366  0.6006857 -0.1435011  0.2016114  0.6517951 -0.1946105
  0.1028454  0.1410869  0.6307119 -0.1202061  0.1842581  0.6734879 -0.1629821
  0.1023961  0.1361016  0.6749910 -0.1057178  0.1777324  0.7135485 -0.1442752
  0.0983602  0.1434541  0.6472468 -0.1270328  0.1954076  0.6937674 -0.1735534
  0.0964257  0.1375553  0.6796212 -0.1141895  0.1881380  0.7219536 -0.1565218
  0.0898498  0.1486138  0.6340783 -0.1528174  0.1843939  0.6751443 -0.1938834
  0.0948780  0.1454710  0.6284069 -0.1241238  0.1829141  0.6705112 -0.1662281
  0.0863566  0.1442883  0.6602535 -0.1256111  0.1695813  0.6952858 -0.1606433
  0.0921279  0.1397489  0.6528948 -0.1048222  0.1698903  0.6892429 -0.1411702
  0.0911431  0.1522686  0.5916952 -0.1330343  0.1972024  0.6418798 -0.1832189
  0.0911834  0.1579284  0.5473488 -0.1464539  0.2035763  0.6026711 -0.2017762
  0.0970294  0.1501931  0.5805795 -0.1187161  0.1827862  0.6254749 -0.1636115
  0.1001570  0.1573723  0.5494480 -0.1327902  0.1914752  0.5995130 -0.1828552
  0.0871202  0.1519272  0.5971827 -0.1472257  0.1721612  0.6350705 -0.1851135
  0.0820156  0.1489190  0.5912186 -0.1273716  0.1750350  0.6315862 -0.1677392
  0.0846910  0.1578369  0.5648170 -0.1683798  0.1573393  0.5971547 -0.2007175
  0.0759268  0.1570309  0.5696056 -0.1465847  0.1639369  0.6053473 -0.1823264
  0.1026206  0.1260708  0.7364332 -0.0929963  0.1670890  0.7688281 -0.1253912
  0.0971232  0.1265841  0.7394269 -0.0947976  0.1815508  0.7772249 -0.1325956
  0.1023359  0.1320781  0.6938151 -0.1056504  0.1674461  0.7274695 -0.1393048
  0.0960943  0.1330350  0.6987093 -0.1065898  0.1802896  0.7372298 -0.1451103
  0.1027970  0.1219084  0.7620650 -0.0906319  0.1558732  0.7896653 -0.1182322
  0.1029944  0.1165436  0.7918252 -0.0816991  0.1563078  0.8189524 -0.1088262
  0.0975584  0.1224766  0.7656669 -0.0894046  0.1673455  0.7972513 -0.1209891
  0.0977184  0.1177056  0.7990949 -0.0793713  0.1677955  0.8300544 -0.1103308
  0.1067610  0.1212971  0.7619562 -0.0856891  0.1809273  0.7989592 -0.1226921
  0.1123524  0.1201952  0.7559733 -0.0829280  0.1679788  0.7883586 -0.1153133
  0.1069422  0.1156690  0.8017172 -0.0739147  0.1795394  0.8371002 -0.1092976
  0.1124521  0.1144419  0.7946475 -0.0714064  0.1664281  0.8255286 -0.1022875
  0.1066678  0.1254769  0.7402239 -0.0886313  0.1915181  0.7823370 -0.1307444
  0.1065942  0.1312684  0.7016754 -0.1001216  0.1935896  0.7459696 -0.1444158
  0.1122276  0.1243675  0.7346782 -0.0846932  0.1789808  0.7720680 -0.1220829
  0.1119865  0.1300130  0.6946736 -0.0964354  0.1807126  0.7339988 -0.1357607
  0.0902390  0.1224889  0.7638392 -0.0982527  0.1599278  0.7925513 -0.1269649
  0.0941935  0.1226321  0.7665766 -0.0926904  0.1485153  0.7915218 -0.1176355
  0.0895683  0.1188900  0.7940134 -0.0883856  0.1562953  0.8208793 -0.1152515
  0.0941209  0.1183343  0.7919993 -0.0850010  0.1469364  0.8159628 -0.1089645
  0.0894336  0.1250014  0.7469006 -0.0828693  0.1603565  0.7768119 -0.1127806
  0.0865625  0.1282667  0.7325245 -0.1006461  0.1514087  0.7591862 -0.1273078
  0.0935898  0.1262975  0.7442200 -0.1047329  0.1580993  0.7727067 -0.1332196
  0.0918678  0.1320137  0.7340297 -0.1118925  0.1519294  0.7604890 -0.1383518
  0.0874560  0.1232022  0.7587720 -0.0997837  0.1500706  0.7842475 -0.1252592
  0.0862095  0.1195828  0.7896973 -0.0828073  0.1380510  0.8110192 -0.1041292
  0.0838073  0.1252942  0.7667901 -0.1175018  0.1545771  0.7930319 -0.1437436
  0.0815854  0.1209200  0.7904285 -0.1020565  0.1445388  0.8132530 -0.1248810
  0.0786056  0.1346673  0.7064159 -0.1160891  0.1485377  0.7324185 -0.1420917
  0.0833438  0.1405513  0.6885516 -0.1423436  0.1616115  0.7188786 -0.1726706
  0.0836612  0.1308567  0.7067127 -0.0886657  0.1524154  0.7349192 -0.1168722
  0.0891224  0.1358330  0.6882010 -0.1201064  0.1653205  0.7207063 -0.1526117
  0.0741642  0.1373733  0.6781046 -0.1042519  0.1337483  0.7003378 -0.1264851
  0.0670858  0.1409559  0.6830834 -0.1427873  0.1385247  0.7056991 -0.1654029
  0.0785440  0.1450193  0.6271000 -0.1464570  0.1602603  0.6589872 -0.1783442
  0.0712095  0.1525076  0.6430506 -0.1688793  0.1581192  0.6727566 -0.1985853
  0.0715442  0.1319454  0.7219171 -0.1201517  0.1271706  0.7407035 -0.1389381
  0.0687659  0.1247618  0.7754283 -0.0937134  0.1100627  0.7891493 -0.1074344
  0.0647379  0.1337879  0.7255639 -0.1398635  0.1385872  0.7472152 -0.1615148
  0.0624469  0.1257563  0.7745592 -0.1180324  0.1243128  0.7915491 -0.1350223
  0.0758183  0.1301697  0.7528499 -0.1316717  0.1466977  0.7765449 -0.1553667
  0.0806890  0.1271611  0.7470322 -0.1118483  0.1444964  0.7706903 -0.1355064
  0.0729414  0.1237663  0.7806711 -0.1121506  0.1333355  0.8001583 -0.1316379
  0.0780302  0.1220410  0.7806880 -0.0864424  0.1279576  0.7991759 -0.1049303
  0.0847491  0.1113094  0.8452082 -0.0778310  0.1261872  0.8621481 -0.0947709
  0.0794627  0.1121822  0.8472650 -0.0883931  0.1376504  0.8670953 -0.1082234
  0.0854841  0.1163962  0.8087170 -0.0904474  0.1324480  0.8278209 -0.1095513
  0.0804212  0.1174067  0.8120799 -0.1009838  0.1441334  0.8342920 -0.1231959
  0.0842709  0.1076399  0.8679675 -0.0789552  0.1212857  0.8832554 -0.0942431
  0.0836994  0.1027011  0.9037120 -0.0672008  0.1164241  0.9174775 -0.0809663
  0.0788830  0.1084009  0.8701552 -0.0877524  0.1339160  0.8885245 -0.1061217
  0.0782579  0.1032944  0.9046877 -0.0763394  0.1291416  0.9214030 -0.0930547
  0.0881786  0.1069826  0.8723380 -0.0806783  0.1440930  0.8936479 -0.1019882
  0.0934670  0.1059478  0.8675330 -0.0739949  0.1313182  0.8855054 -0.0919672
  0.0876847  0.1021011  0.9067370 -0.0696245  0.1400925  0.9264404 -0.0893279
  0.0931309  0.1010552  0.9022030 -0.0630906  0.1276696  0.9188031 -0.0796907
  0.0885630  0.1106297  0.8503798 -0.0798686  0.1491705  0.8737147 -0.1032036
  0.0891193  0.1157123  0.8142839 -0.0916120  0.1537565  0.8396695 -0.1169975
  0.0936966  0.1096453  0.8465082 -0.0731515  0.1379438  0.8667533 -0.0933966
  0.0939878  0.1148545  0.8107458 -0.0843449  0.1418389  0.8326843 -0.1062834
  0.0695062  0.1092408  0.8709949 -0.0938830  0.1217185  0.8861128 -0.1090009
  0.0749268  0.1088298  0.8715432 -0.0834323  0.1088952  0.8838031 -0.0956922
  0.0687262  0.1037601  0.9073141 -0.0815877  0.1161492  0.9207730 -0.0950465
  0.0742459  0.1035782  0.9094553 -0.0707259  0.1032408  0.9202114 -0.0814821
  0.0702347  0.1133973  0.8459823 -0.0953060  0.1253937  0.8624002 -0.1117239
  0.0714453  0.1192722  0.8085054 -0.1095073  0.1335483  0.8275388 -0.1285407
  0.0755736  0.1127417  0.8462274 -0.0812079  0.1135769  0.8599339 -0.0949144
  0.0766595  0.1181773  0.8056724 -0.0964806  0.1223215  0.8219636 -0.1127718
  0.0661313  0.1136450  0.8524239 -0.0844580  0.0993101  0.8628351 -0.0948692
  0.0602594  0.1136662  0.8480086 -0.0996035  0.1129882  0.8612944 -0.1128894
  0.0673155  0.1198583  0.8089356 -0.1003679  0.1079269  0.8215701 -0.1130024
  0.0612469  0.1203647  0.8077199 -0.1137521  0.1204120  0.8231946 -0.1292269
  0.0654232  0.1093390  0.8791682 -0.0848526  0.0953996  0.8885183 -0.0942026
  0.0646728  0.1037879  0.9165403 -0.0724189  0.0901730  0.9246950 -0.0805737
  0.0596891  0.1091961  0.8752375 -0.0951398  0.1085209  0.8872257 -0.1071280
  0.0591184  0.1036821  0.9127129 -0.0829567  0.1036787  0.9233944 -0.0936381
  0.1028719  0.1075665  0.8477317 -0.0668151  0.1470070  0.8707812 -0.0898645
  0.0975306  0.1088246  0.8550639 -0.0690885  0.1596887  0.8818792 -0.0959038
  0.1030145  0.1127007  0.8108280 -0.0780085  0.1490613  0.8351600 -0.1023405
  0.0977110  0.1140475  0.8188972 -0.0800876  0.1617869  0.8471269 -0.1083173
  0.1027160  0.1037526  0.8684555 -0.0676773  0.1389733  0.8886510 -0.0878728
  0.1024325  0.0984671  0.9050487 -0.0564257  0.1363244  0.9240040 -0.0753810
  0.0973623  0.1050824  0.8763715 -0.0707771  0.1521488  0.9002124 -0.0946180
  0.0970826  0.1000814  0.9150034 -0.0588864  0.1493217  0.9373838 -0.0812668
  0.1066784  0.1028830  0.8778577 -0.0652100  0.1596673  0.9041570 -0.0915093
  0.1121504  0.1018366  0.8719414 -0.0616775  0.1460261  0.8942482 -0.0839843
  0.1064075  0.0974590  0.9180019 -0.0529020  0.1569274  0.9427360 -0.0776361
  0.1119172  0.0963192  0.9115122 -0.0495855  0.1434308  0.9324607 -0.0705340
  0.1068264  0.1067154  0.8565408 -0.0628528  0.1681350  0.8863239 -0.0926359
  0.1069598  0.1117619  0.8221578 -0.0732783  0.1700644  0.8533692 -0.1044896
  0.1122891  0.1056481  0.8505810 -0.0599537  0.1550424  0.8762570 -0.0856297
  0.1124351  0.1105440  0.8151851 -0.0707009  0.1570704  0.8422098 -0.0977256
  0.1258499  0.1048228  0.8354784 -0.0541564  0.1860862  0.8728338 -0.0915118
  0.1259837  0.1098704  0.8016637 -0.0644526  0.1886042  0.8409518 -0.1037406
  0.1314205  0.1049452  0.8383337 -0.0470800  0.1732118  0.8710126 -0.0797590
  0.1315323  0.1100570  0.8049614 -0.0572153  0.1756434  0.8393704 -0.0916242
  0.1217986  0.1048793  0.8490001 -0.0523879  0.1639365  0.8778895 -0.0812773
  0.1163009  0.1051562  0.8487599 -0.0588585  0.1768063  0.8819859 -0.0920845
  0.1219423  0.1098646  0.8159444 -0.0624684  0.1664571  0.8464296 -0.0929536
  0.1164497  0.1100356  0.8149885 -0.0691669  0.1794008  0.8500034 -0.1041818
  0.1216628  0.1010563  0.8711953 -0.0543416  0.1546140  0.8963409 -0.0794872
  0.1214355  0.0955968  0.9099975 -0.0424266  0.1515137  0.9335197 -0.0659488
  0.1161654  0.1013472  0.8710705 -0.0609281  0.1679373  0.9004077 -0.0902653
  0.1159439  0.0958203  0.9094014 -0.0491680  0.1648953  0.9369740 -0.0767406
  0.1257204  0.1009998  0.8582690 -0.0568414  0.1767148  0.8912083 -0.0897807
  0.1313085  0.1011362  0.8614343 -0.0491193  0.1632821  0.8898289 -0.0775139
  0.1255003  0.0956026  0.8944098 -0.0457388  0.1737417  0.9254902 -0.0768192
  0.1311142  0.0958417  0.8982571 -0.0378337  0.1603048  0.9249481 -0.0645247
  0.1409069  0.1016342  0.8462571 -0.0443956  0.1723436  0.8784429 -0.0765814
  0.1407372  0.0964558  0.8813701 -0.0336426  0.1693684  0.9117139 -0.0639864
  0.1353777  0.1013062  0.8417244 -0.0528331  0.1854791  0.8786572 -0.0897658
  0.1351969  0.0960703  0.8764634 -0.0421831  0.1825148  0.9113967 -0.0771163
  0.1450035  0.1018564  0.8236921 -0.0482806  0.1941241  0.8649565 -0.0895450
  0.1506664  0.1021353  0.8281542 -0.0390646  0.1807220  0.8643081 -0.0752185
  0.1448201  0.0967072  0.8583419 -0.0376298  0.1909278  0.8973311 -0.0766191
  0.1504348  0.0970084  0.8630115 -0.0282811  0.1773924  0.8970199 -0.0622896
  0.1450937  0.1056596  0.8012526 -0.0447621  0.2049754  0.8482986 -0.0918081
  0.1451569  0.1109010  0.7674281 -0.0549781  0.2073145  0.8167326 -0.1042827
  0.1507389  0.1059390  0.8049963 -0.0376261  0.1924052  0.8468513 -0.0794810
  0.1507054  0.1112039  0.7714218 -0.0476622  0.1945130  0.8152670 -0.0915074
  0.1410055  0.1054374  0.8229565 -0.0414773  0.1828869  0.8600573 -0.0785780
  0.1354814  0.1051099  0.8184964 -0.0498463  0.1956906  0.8605598 -0.0919097
  0.1411051  0.1106496  0.7891751 -0.0517371  0.1856384  0.8283329 -0.0908949
  0.1355840  0.1102658  0.7843413 -0.0602248  0.1984818  0.8286608 -0.1045444
  0.1443517  0.0876538  0.9191553 -0.0317973  0.1769837  0.9510260 -0.0636680
  0.1446455  0.0929016  0.8821196 -0.0433027  0.1804198  0.9160501 -0.0772332
  0.1500997  0.0878892  0.9232295 -0.0230856  0.1631514  0.9505682 -0.0504242
  0.1502830  0.0931911  0.8866933 -0.0342871  0.1662724  0.9157925 -0.0633862
  0.1401931  0.0874564  0.9414419 -0.0258143  0.1550398  0.9656853 -0.0500577
  0.1345795  0.0871524  0.9364480 -0.0361005  0.1687752  0.9649044 -0.0645570
  0.1405459  0.0926569  0.9055710 -0.0371249  0.1590025  0.9316672 -0.0632211
  0.1349831  0.0922778  0.8999729 -0.0476908  0.1729398  0.9305464 -0.0782644
  0.1399167  0.0836709  0.9650125 -0.0311775  0.1451587  0.9857332 -0.0518982
  0.1395144  0.0785293  1.0023754 -0.0193485  0.1410912  1.0215009 -0.0384740
  0.1342619  0.0833531  0.9599011 -0.0413302  0.1594806  0.9846902 -0.0661193
  0.1337978  0.0780986  0.9965355 -0.0296539  0.1553669  1.0195425 -0.0526609
  0.1440957  0.0838685  0.9418507 -0.0377170  0.1668290  0.9694836 -0.0653499
  0.1498584  0.0840907  0.9463742 -0.0273550  0.1525842  0.9697244 -0.0507051
  0.1436903  0.0787749  0.9780046 -0.0262320  0.1627400  1.0037188 -0.0519461
  0.1493823  0.0790150  0.9827355 -0.0156903  0.1482966  1.0042965 -0.0372512
  0.1592089  0.0689319  1.0278692 -0.0093278  0.1378710  1.0458831 -0.0273416
  0.1531344  0.0696588  1.0311741 -0.0155682  0.1541781  1.0534111 -0.0378052
  0.1597505  0.0745199  0.9866182 -0.0223080  0.1416652  1.0061323 -0.0418221
  0.1534783  0.0750803  0.9884317 -0.0288018  0.1576168  1.0122941 -0.0526642
  0.1587736  0.0650935  1.0492495 -0.0180584  0.1262971  1.0639910 -0.0327998
  0.1581259  0.0601945  1.0890774 -0.0052779  0.1220453  1.1025230 -0.0187235
  0.1528564  0.0658465  1.0526320 -0.0242442  0.1417764  1.0709849 -0.0425971
  0.1524411  0.0608524  1.0920622 -0.0118956  0.1382300  1.1091073 -0.0289407
  0.1628209  0.0642551  1.0565536 -0.0215451  0.1423848  1.0750413 -0.0400328
  0.1679613  0.0627175  1.0471800 -0.0177458  0.1296264  1.0627315 -0.0332972
  0.1621604  0.0595630  1.0874885 -0.0115253  0.1388522  1.1047600 -0.0287968
  0.1674980  0.0584956  1.0820183 -0.0066441  0.1260172  1.0964150 -0.0210408
  0.1635006  0.0680440  1.0296865 -0.0091132  0.1538587  1.0519957 -0.0314224
  0.1646971  0.0737034  0.9799656 -0.0264744  0.1619267  1.0053765 -0.0518853
  0.1691514  0.0663449  1.0170082  0.0005445  0.1354918  1.0347589 -0.0172062
  0.1719392  0.0720331  0.9728766 -0.0176211  0.1466494  0.9941328 -0.0388773
  0.1430735  0.0696585  1.0409797 -0.0208684  0.1484381  1.0613398 -0.0412285
  0.1434164  0.0749673  1.0021657 -0.0329414  0.1518673  1.0239871 -0.0547628
  0.1488109  0.0698535  1.0447037 -0.0126927  0.1339648  1.0614121 -0.0294011
  0.1491016  0.0752002  1.0062160 -0.0245971  0.1372301  1.0241724 -0.0425534
  0.1388532  0.0694605  1.0645040 -0.0136988  0.1267925  1.0792137 -0.0284084
  0.1330603  0.0691146  1.0593496 -0.0233702  0.1414918  1.0775346 -0.0415552
  0.1392294  0.0747216  1.0270569 -0.0254551  0.1305348  1.0430045 -0.0414026
  0.1334759  0.0742834  1.0211650 -0.0354239  0.1454237  1.0408150 -0.0550738
  0.1386108  0.0656532  1.0887810 -0.0205827  0.1154881  1.1006761 -0.0324778
  0.1383251  0.0605125  1.1272914 -0.0086576  0.1121655  1.1382608 -0.0196271
  0.1328002  0.0653091  1.0837968 -0.0295268  0.1306017  1.0989122 -0.0446422
  0.1325053  0.0600809  1.1216685 -0.0177941  0.1273236  1.1357223 -0.0318479
  0.1428410  0.0658516  1.0648229 -0.0271244  0.1367179  1.0816805 -0.0439820
  0.1485873  0.0660496  1.0684694 -0.0193487  0.1219699  1.0819773 -0.0328566
  0.1425484  0.0607598  1.1019005 -0.0156626  0.1337065  1.1176746 -0.0314367
  0.1482671  0.0610039  1.1059145 -0.0077375  0.1188511  1.1184572 -0.0202803
  0.1577161  0.0514243  1.1518733 -0.0027425  0.1081247  1.1619114 -0.0127807
  0.1521349  0.0517579  1.1529290 -0.0070090  0.1230472  1.1658383 -0.0199183
  0.1578425  0.0565319  1.1110604 -0.0150939  0.1101519  1.1217335 -0.0257669
  0.1522477  0.0570774  1.1137246 -0.0188587  0.1249462  1.1273448 -0.0324790
  0.1577035  0.0477323  1.1744307 -0.0117411  0.0921324  1.1815442 -0.0188546
  0.1577956  0.0427533  1.2136585 -0.0000277  0.0912488  1.2204805 -0.0068497
  0.1520945  0.0479845  1.1753310 -0.0148463  0.1077489  1.1850070 -0.0245224
  0.1520970  0.0429946  1.2144292 -0.0031185  0.1066223  1.2236957 -0.0123851
  0.1616756  0.0475407  1.1602709 -0.0125375  0.1088885  1.1702949 -0.0225615
  0.1669186  0.0472695  1.1584211 -0.0119650  0.0938827  1.1659041 -0.0194480
  0.1618894  0.0426230  1.1973722 -0.0014497  0.1090785  1.2072162 -0.0112937
  0.1673755  0.0425081  1.1968704 -0.0005274  0.0947866  1.2043273 -0.0079843
  0.1616653  0.0511381  1.1395372 -0.0047866  0.1252326  1.1530821 -0.0183315
  0.1618507  0.0560483  1.1037648 -0.0156879  0.1274339  1.1180881 -0.0300112
  0.1668733  0.0506898  1.1376780 -0.0000943  0.1108095  1.1483695 -0.0107857
  0.1672065  0.0552727  1.0996018 -0.0118643  0.1136133  1.1110964 -0.0233589
  0.1422599  0.0516448  1.1671310 -0.0103079  0.1184251  1.1789239 -0.0221008
  0.1423927  0.0569531  1.1270054 -0.0224756  0.1207793  1.1395589 -0.0350292
  0.1479935  0.0518170  1.1702370 -0.0038383  0.1034454  1.1792817 -0.0128829
  0.1481080  0.0571903  1.1306132 -0.0158348  0.1057191  1.1402805 -0.0255021
  0.1380272  0.0514485  1.1915828 -0.0048945  0.0974615  1.1994698 -0.0127814
  0.1321966  0.0510843  1.1869908 -0.0119624  0.1128178  1.1975143 -0.0224858
  0.1381687  0.0567063  1.1528213 -0.0166590  0.0997748  1.1612725 -0.0251103
  0.1323436  0.0562693  1.1476747 -0.0239026  0.1151837  1.1588916 -0.0351195
  0.1379507  0.0476630  1.2167339 -0.0127596  0.0841830  1.2224712 -0.0184968
  0.1378832  0.0425789  1.2556882 -0.0010108  0.0821821  1.2610397 -0.0063623
  0.1321349  0.0472850  1.2121943 -0.0193726  0.0994356  1.2201710 -0.0273493
  0.1321135  0.0420902  1.2502522 -0.0079364  0.0976020  1.2577785 -0.0154627
  0.1421846  0.0478596  1.1918123 -0.0177476  0.1045827  1.2007883 -0.0267236
  0.1479362  0.0480186  1.1947370 -0.0116914  0.0891145  1.2012841 -0.0182384
  0.1421116  0.0428265  1.2299530 -0.0062407  0.1026653  1.2384213 -0.0147090
  0.1478945  0.0430142  1.2330733 -0.0001531  0.0872691  1.2392183 -0.0062981
  0.0500753  0.1141727  0.8545854 -0.1011702  0.0964805  0.8642276 -0.1108124
  0.0506754  0.1212193  0.8104335 -0.1152948  0.1017584  0.8214870 -0.1263484
  0.0559572  0.1138075  0.8551861 -0.0918790  0.0831491  0.8624309 -0.0991238
  0.0567882  0.1207294  0.8103384 -0.1065887  0.0890385  0.8189045 -0.1151548
  0.0457361  0.1139994  0.8647875 -0.0954572  0.0681929  0.8696061 -0.1002758
  0.0397634  0.1131610  0.8575016 -0.1012861  0.0835611  0.8647297 -0.1085142
  0.0459366  0.1211235  0.8182803 -0.1095190  0.0701527  0.8235547 -0.1147934
  0.0391028  0.1203718  0.8130534 -0.1142772  0.0835726  0.8205250 -0.1217487
  0.0455767  0.1091322  0.8981973 -0.0914945  0.0643294  0.9023611 -0.0956583
  0.0453414  0.1029587  0.9365411 -0.0798272  0.0621612  0.9403288 -0.0836149
  0.0399558  0.1083371  0.8918790 -0.0973726  0.0769307  0.8978258 -0.1033195
  0.0398209  0.1023687  0.9313647 -0.0854267  0.0749107  0.9368540 -0.0909160
  0.0497380  0.1093641  0.8836465 -0.0963778  0.0928221  0.8923606 -0.1050919
  0.0554862  0.1092028  0.8848496 -0.0891618  0.0797169  0.8913308 -0.0956430
  0.0494168  0.1032737  0.9219059 -0.0845340  0.0894477  0.9297937 -0.0924219
  0.0550305  0.1035443  0.9261210 -0.0761784  0.0756833  0.9318037 -0.0818610
  0.0475212  0.1370272  0.7293783 -0.1381733  0.0773735  0.7362249 -0.1450199
  0.0464149  0.1272938  0.7845021 -0.1207631  0.0722368  0.7902301 -0.1264910
  0.0406349  0.1362881  0.7232301 -0.1456293  0.0916212  0.7327865 -0.1551856
  0.0393363  0.1265687  0.7787190 -0.1279503  0.0860701  0.7868172 -0.1360486
  0.0526209  0.1366985  0.7236857 -0.1460758  0.1196169  0.7398365 -0.1622266
  0.0596674  0.1350615  0.7212730 -0.1292356  0.1088281  0.7349774 -0.1429401
  0.0513575  0.1272551  0.7737876 -0.1277828  0.1079416  0.7865310 -0.1405261
  0.0577824  0.1264244  0.7751787 -0.1074143  0.0948959  0.7852666 -0.1175022
  0.0537416  0.1443488  0.6683989 -0.1597662  0.1262283  0.6872112 -0.1785785
  0.0555399  0.1558063  0.5888684 -0.1894221  0.1446978  0.6148996 -0.2154533
  0.0616136  0.1428250  0.6663392 -0.1336832  0.1085766  0.6808130 -0.1481571
  0.0650456  0.1553980  0.5945065 -0.1641798  0.1277642  0.6154444 -0.1851177
  0.0481112  0.1446917  0.6725257 -0.1557447  0.0831959  0.6807997 -0.1640187
  0.0406005  0.1441047  0.6663216 -0.1632539  0.1028119  0.6788735 -0.1758058
  0.0486168  0.1558982  0.6030118 -0.1769170  0.0870055  0.6125999 -0.1865051
  0.0392079  0.1557409  0.6007739 -0.1821174  0.1026282  0.6140038 -0.1953472
  0.0317201  0.1365942  0.7184131 -0.1536551  0.0760644  0.7249980 -0.1602399
  0.0364011  0.1361721  0.7200863 -0.1389796  0.0649151  0.7249639 -0.1438572
  0.0304378  0.1310254  0.7737524 -0.1317933  0.0629581  0.7781086 -0.1361495
  0.0350553  0.1275686  0.7575454 -0.1252987  0.0569007  0.7611976 -0.1289510
  0.0309851  0.1403796  0.6889828 -0.1375544  0.0714941  0.6951213 -0.1436929
  0.0276944  0.1451527  0.6662863 -0.1666677  0.0553483  0.6699480 -0.1703294
  0.0360116  0.1429493  0.6861413 -0.1709851  0.0724923  0.6922292 -0.1770730
  0.0336018  0.1528617  0.6711579 -0.1820506  0.0610069  0.6754980 -0.1863906
  0.0286138  0.1377289  0.7034620 -0.1526322  0.0576598  0.7073281 -0.1564982
  0.0271620  0.1330568  0.7351093 -0.1368313  0.0466377  0.7375967 -0.1393188
  0.0248081  0.1404069  0.7140394 -0.1646684  0.0612983  0.7182949 -0.1689239
  0.0228300  0.1351499  0.7407793 -0.1502817  0.0515473  0.7437513 -0.1532538
  0.0169127  0.1498394  0.6518349 -0.1858793  0.0473058  0.6544978 -0.1885422
  0.0200499  0.1572775  0.5968192 -0.2212041  0.0716737  0.6030516 -0.2274366
  0.0239238  0.1476875  0.6515932 -0.1461512  0.0367663  0.6532841 -0.1478421
  0.0293249  0.1567009  0.6067087 -0.1804430  0.0581076  0.6109751 -0.1847094
  0.0113147  0.1509548  0.6442895 -0.1684884  0.0072893  0.6443548 -0.1685538
  0.0030318  0.1518503  0.6428815 -0.1898133  0.0241699  0.6435824 -0.1905142
  0.0131354  0.1575763  0.6115846 -0.1818727  0.0153212  0.6118803 -0.1821684
  0.0035196  0.1578163  0.6065952 -0.2019085  0.0308861  0.6077734 -0.2030867
  0.0102068  0.1462980  0.6694536 -0.1684038  0.0106252  0.6695883 -0.1685386
  0.0090005  0.1401971  0.7019681 -0.1569168  0.0050438  0.7019978 -0.1569464
  0.0027349  0.1475339  0.6722582 -0.1778282  0.0230677  0.6728837 -0.1784537
  0.0024117  0.1417074  0.7077650 -0.1666386  0.0186536  0.7081628 -0.1670363
  0.0151550  0.1449035  0.7008454 -0.1770504  0.0464220  0.7032933 -0.1794983
  0.0212019  0.1423293  0.6996442 -0.1567132  0.0432133  0.7018193 -0.1588883
  0.0134900  0.1388564  0.7223102 -0.1647098  0.0362978  0.7237931 -0.1661927
  0.0191666  0.1367039  0.7219554 -0.1421831  0.0323840  0.7231673 -0.1433950
  0.0262469  0.1244165  0.7997087 -0.1269346  0.0498329  0.8023809 -0.1296068
  0.0289712  0.1277624  0.8018955 -0.1423495  0.0552913  0.8051221 -0.1455761
  0.0280265  0.1204255  0.8123891 -0.1123856  0.0605273  0.8163338 -0.1163303
  0.0328113  0.1233493  0.8109169 -0.1278576  0.0620649  0.8150024 -0.1319431
  0.0242551  0.1261776  0.7845206 -0.1236394  0.0366938  0.7860008 -0.1251196
  0.0205930  0.1269981  0.7872340 -0.1332956  0.0454226  0.7894699 -0.1355315
  0.0259941  0.1299616  0.7566887 -0.1365904  0.0447776  0.7589276 -0.1388294
  0.0217006  0.1315571  0.7619524 -0.1431479  0.0510992  0.7648281 -0.1460237
  0.0239035  0.1232945  0.8106825 -0.1250169  0.0352396  0.8120078 -0.1263421
  0.0246819  0.1192016  0.8414777 -0.1157915  0.0372634  0.8429261 -0.1172398
  0.0202255  0.1235749  0.8128369 -0.1244341  0.0452228  0.8150138 -0.1266110
  0.0203291  0.1187816  0.8392181 -0.1165212  0.0453998  0.8413698 -0.1186729
  0.0116620  0.1253716  0.8064925 -0.1282146  0.0327584  0.8076392 -0.1293613
  0.0169454  0.1241315  0.7995250 -0.1272875  0.0211578  0.8000078 -0.1277703
  0.0114811  0.1199784  0.8393926 -0.1182467  0.0312481  0.8404112 -0.1192652
  0.0167920  0.1189897  0.8340837 -0.1168284  0.0196159  0.8344881 -0.1172329
  0.0119718  0.1293104  0.7809019 -0.1385877  0.0334613  0.7821179 -0.1398038
  0.0126370  0.1346783  0.7506053 -0.1488485  0.0383957  0.7522414 -0.1504846
  0.0173017  0.1278375  0.7752552 -0.1299092  0.0230809  0.7758433 -0.1304973
  0.0181215  0.1328209  0.7432581 -0.1411444  0.0287175  0.7441896 -0.1420759
  0.0079032  0.1303763  0.7621740 -0.1392808  0.0044933  0.7621964 -0.1393032
  0.0021177  0.1318156  0.7685818 -0.1439149  0.0159220  0.7688596 -0.1441927
  0.0083833  0.1359309  0.7306336 -0.1492588  0.0077387  0.7307017 -0.1493269
  0.0022463  0.1374957  0.7368720 -0.1535643  0.0184911  0.7372558 -0.1539481
  0.0076724  0.1263168  0.7874175 -0.1322886  0.0036137  0.7874317 -0.1323028
  0.0075217  0.1207807  0.8221240 -0.1218218  0.0025066  0.8221306 -0.1218285
  0.0020558  0.1276593  0.7948473 -0.1320274  0.0152623  0.7950985 -0.1322787
  0.0020154  0.1219841  0.8290017 -0.1217671  0.0144126  0.8292201 -0.1219855
  0.0074069  0.1113774  0.8840560 -0.1045263  0.0017970  0.8840593 -0.1045295
  0.0019847  0.1122042  0.8892517 -0.1033754  0.0140080  0.8894493 -0.1035730
  0.0074506  0.1167777  0.8479604 -0.1153582  0.0020611  0.8479648 -0.1153626
  0.0019964  0.1178429  0.8546109 -0.1137683  0.0141886  0.8548188 -0.1139761
  0.0073848  0.1073418  0.9101995 -0.0989629  0.0011006  0.9102007 -0.0989641
  0.0073681  0.1017164  0.9478884 -0.0876564  0.0010593  0.9478895 -0.0876575
  0.0019788  0.1080542  0.9149001 -0.0975578  0.0135879  0.9150824 -0.0977402
  0.0019743  0.1023552  0.9521217 -0.0863915  0.0135756  0.9522991 -0.0865690
  0.0113412  0.1069321  0.9188534 -0.0966169  0.0287780  0.9196683 -0.0974318
  0.0167443  0.1065253  0.9162008 -0.0971021  0.0159789  0.9164527 -0.0973540
  0.0113333  0.1013566  0.9559287 -0.0854940  0.0286384  0.9567157 -0.0862809
  0.0167725  0.1010121  0.9537284 -0.0858456  0.0159235  0.9539723 -0.0860894
  0.0113591  0.1108814  0.8946558 -0.1016727  0.0300277  0.8955600 -0.1025768
  0.0113999  0.1160958  0.8631107 -0.1111471  0.0306583  0.8640745 -0.1121110
  0.0167344  0.1103532  0.8918110 -0.1009978  0.0181599  0.8921431 -0.1013298
  0.0167354  0.1152979  0.8584865 -0.1109953  0.0187373  0.8588485 -0.1113573
  0.0297119  0.1114858  0.8759970 -0.1001285  0.0644337  0.8802319 -0.1043634
  0.0289549  0.1169607  0.8375729 -0.1130244  0.0587883  0.8411948 -0.1166463
  0.0354697  0.1124875  0.8788503 -0.1077249  0.0536531  0.8817595 -0.1106342
  0.0345526  0.1192564  0.8477311 -0.1181473  0.0491095  0.8502216 -0.1206378
  0.0257230  0.1109164  0.8922756 -0.1040566  0.0357307  0.8935553 -0.1053363
  0.0205832  0.1103626  0.8901587 -0.1017482  0.0456357  0.8922539 -0.1038434
  0.0251695  0.1158849  0.8630430 -0.1131596  0.0334442  0.8641874 -0.1143041
  0.0204250  0.1152414  0.8598969 -0.1109273  0.0440980  0.8618958 -0.1129263
  0.0259717  0.1070199  0.9167585 -0.0974748  0.0311756  0.9177159 -0.0984322
  0.0260975  0.1013427  0.9532294 -0.0865109  0.0318559  0.9542045 -0.0874860
  0.0206645  0.1065488  0.9139516 -0.0973153  0.0435128  0.9158204 -0.0991841
  0.0207286  0.1010084  0.9513782 -0.0860752  0.0440721  0.9532471 -0.0879441
  0.0300242  0.1073727  0.9032051 -0.0980611  0.0613083  0.9069451 -0.1018011
  0.0357886  0.1078656  0.9074730 -0.0936669  0.0479396  0.9097634 -0.0959573
  0.0301205  0.1016104  0.9426108 -0.0862937  0.0602933  0.9461319 -0.0898149
  0.0357425  0.1020074  0.9464083 -0.0819614  0.0466025  0.9485158 -0.0840689
  0.0298156  0.0918723  1.0073570 -0.0716457  0.0558846  1.0102437 -0.0745324
  0.0300646  0.0974571  0.9699375 -0.0829919  0.0575080  0.9730691 -0.0861235
  0.0353732  0.0923104  1.0112241 -0.0677610  0.0426221  1.0129051 -0.0694420
  0.0356312  0.0978394  0.9734131 -0.0792316  0.0442900  0.9752733 -0.0810918
  0.0257984  0.0917123  1.0175008 -0.0671221  0.0260180  1.0181246 -0.0677458
  0.0203808  0.0917133  1.0156231 -0.0734029  0.0391612  1.0170295 -0.0748094
  0.0260511  0.0972411  0.9803434 -0.0785270  0.0287818  0.9811252 -0.0793088
  0.0206525  0.0970332  0.9769882 -0.0852929  0.0421067  0.9786546 -0.0869593
  0.0255498  0.0877390  1.0434490 -0.0666764  0.0260915  1.0440619 -0.0672893
  0.0251230  0.0824126  1.0857536 -0.0537857  0.0239489  1.0862567 -0.0542888
  0.0201681  0.0875994  1.0417608 -0.0693767  0.0391317  1.0431372 -0.0707531
  0.0198587  0.0816799  1.0796298 -0.0578996  0.0375814  1.0808700 -0.0591398
  0.0295550  0.0878334  1.0354702 -0.0729506  0.0527720  1.0379770 -0.0754575
  0.0351158  0.0879517  1.0395303 -0.0620765  0.0382657  1.0408579 -0.0634041
  0.0290919  0.0823838  1.0822664 -0.0579867  0.0472006  1.0842169 -0.0599372
  0.0346708  0.0815724  1.0795342 -0.0494254  0.0337093  1.0805398 -0.0504310
  0.0111030  0.0881222  1.0437524 -0.0698597  0.0247780  1.0443035 -0.0704107
  0.0162971  0.0877021  1.0419617 -0.0671322  0.0124741  1.0421020 -0.0672725
  0.0110779  0.0827569  1.0857268 -0.0572495  0.0232225  1.0861984 -0.0577212
  0.0160953  0.0817721  1.0796661 -0.0557030  0.0106911  1.0797668 -0.0558037
  0.0111583  0.0920365  1.0175671 -0.0712460  0.0270429  1.0182383 -0.0719173
  0.0112842  0.0973653  0.9809026 -0.0822635  0.0276444  0.9816209 -0.0829818
  0.0164580  0.0918002  1.0161510 -0.0708744  0.0138818  1.0163283 -0.0710517
  0.0166958  0.0970665  0.9791255 -0.0820173  0.0147679  0.9793310 -0.0822228
  0.0072704  0.0922994  1.0120218 -0.0719272 -0.0000947  1.0120218 -0.0719272
  0.0019481  0.0927811  1.0151661 -0.0716501  0.0128904  1.0153190 -0.0718030
  0.0073374  0.0976858  0.9741283 -0.0833035  0.0003316  0.9741284 -0.0833036
  0.0019661  0.0982627  0.9778650 -0.0828425  0.0131904  0.9780290 -0.0830065
  0.0072573  0.0884119  1.0377654 -0.0726335 -0.0007601  1.0377659 -0.0726340
  0.0072885  0.0831776  1.0775178 -0.0606903  0.0004588  1.0775180 -0.0606905
  0.0019446  0.0887831  1.0414436 -0.0686339  0.0129585  1.0415949 -0.0687852
  0.0019529  0.0833422  1.0796653 -0.0571633  0.0140714  1.0798395 -0.0573374
  0.0085107  0.0742206  1.1396930 -0.0483927  0.0056620  1.1397200 -0.0484196
  0.0053213  0.0739110  1.1394962 -0.0389519  0.0173089  1.1397503 -0.0392060
  0.0076243  0.0793751  1.0981767 -0.0627946 -0.0011535  1.0981779 -0.0627958
  0.0028577  0.0793573  1.1003050 -0.0554254  0.0073401  1.1003516 -0.0554720
  0.0090292  0.0707841  1.1739466 -0.0486082  0.0030761  1.1739543 -0.0486159
  0.0095594  0.0665498  1.1978382 -0.0404234  0.0072340  1.1978805 -0.0404656
  0.0065383  0.0704557  1.1737211 -0.0443811  0.0072153  1.1737639 -0.0444239
  0.0073997  0.0664618  1.1989187 -0.0349919  0.0123353  1.1990420 -0.0351152
  0.0108793  0.0707146  1.1723745 -0.0460681  0.0173545  1.1726216 -0.0463152
  0.0134427  0.0701962  1.1695891 -0.0463191  0.0122454  1.1697124 -0.0464424
  0.0111474  0.0665312  1.1983270 -0.0383485  0.0175407  1.1985758 -0.0385973
  0.0133265  0.0663923  1.1974535 -0.0379262  0.0115222  1.1975610 -0.0380336
  0.0108419  0.0740520  1.1463075 -0.0448223  0.0208534  1.1466725 -0.0451873
  0.0110079  0.0789868  1.1096473 -0.0559897  0.0232220  1.1101097 -0.0564521
  0.0140212  0.0732819  1.1397773 -0.0422163  0.0096690  1.1398564 -0.0422954
  0.0154855  0.0779082  1.1050402 -0.0541288  0.0152751  1.1052415 -0.0543301
  0.0033995  0.0693765  1.1688191 -0.0456779  0.0029406  1.1688263 -0.0456850
  0.0050298  0.0700785  1.1737167 -0.0491444 -0.0015452  1.1737186 -0.0491463
  0.0040008  0.0661727  1.2013812 -0.0339581  0.0090362  1.2014473 -0.0340242
  0.0059103  0.0663608  1.2012500 -0.0388132  0.0040445  1.2012632 -0.0388264
  0.0025075  0.0714734  1.1478843 -0.0451841  0.0050328  1.1479055 -0.0452053
  0.0006719  0.0739985  1.1544029 -0.0531281  0.0022839  1.1544072 -0.0531324
  0.0037127  0.0731749  1.1411197 -0.0522474  0.0090318  1.1411880 -0.0523158
  0.0009948  0.0779166  1.1464276 -0.0564023  0.0066202  1.1464640 -0.0564388
  0.0022104  0.0696142  1.1564878 -0.0509097 -0.0055363  1.1565132 -0.0509351
  0.0026041  0.0662364  1.1965406 -0.0379389 -0.0007630  1.1965411 -0.0379394
  0.0005923  0.0709658  1.1721239 -0.0426484  0.0016694  1.1721262 -0.0426507
  0.0006978  0.0665985  1.1999851 -0.0341516  0.0041113  1.1999988 -0.0341653
  0.0274051  0.0737186  1.1391711 -0.0476846  0.0396286  1.1404928 -0.0490063
  0.0285159  0.0786018  1.1056469 -0.0610190  0.0477532  1.1075982 -0.0629703
  0.0307461  0.0732105  1.1389726 -0.0322143  0.0282980  1.1396559 -0.0328976
  0.0335000  0.0776225  1.1045131 -0.0513040  0.0405887  1.1059367 -0.0527276
  0.0249161  0.0736834  1.1450540 -0.0438694  0.0235056  1.1455185 -0.0443340
  0.0214570  0.0730791  1.1399365 -0.0424732  0.0354978  1.1410012 -0.0435380
  0.0249532  0.0786464  1.1088680 -0.0547022  0.0224286  1.1093002 -0.0551344
  0.0202040  0.0777892  1.1049986 -0.0537310  0.0311460  1.1058352 -0.0545675
  0.0247647  0.0704157  1.1709519 -0.0437352  0.0239135  1.1714225 -0.0442058
  0.0243882  0.0664511  1.1956576 -0.0362152  0.0226542  1.1960741 -0.0366316
  0.0219495  0.0700121  1.1684700 -0.0452044  0.0294301  1.1691832 -0.0459176
  0.0220422  0.0663430  1.1945134 -0.0374220  0.0291965  1.1952049 -0.0381135
  0.0267541  0.0704665  1.1677012 -0.0488713  0.0384738  1.1689167 -0.0500868
  0.0293743  0.0702018  1.1680281 -0.0432742  0.0335395  1.1689560 -0.0442021
  0.0260864  0.0664647  1.1931484 -0.0396818  0.0334321  1.1940543 -0.0405878
  0.0283801  0.0663938  1.1947462 -0.0327323  0.0274520  1.1953599 -0.0333459
  0.0338228  0.0700993  1.1533243 -0.0375787  0.0414691  1.1547666 -0.0390210
  0.0324657  0.0722407  1.1410074 -0.0488207  0.0347085  1.1420190 -0.0498323
  0.0358673  0.0712807  1.1552911 -0.0503485  0.0405790  1.1566554 -0.0517128
  0.0354698  0.0756608  1.1452059 -0.0544442  0.0357344  1.1462694 -0.0555077
  0.0328312  0.0686807  1.1654771 -0.0448589  0.0373728  1.1666300 -0.0460118
  0.0321668  0.0659862  1.1945313 -0.0338375  0.0313350  1.1953301 -0.0346363
  0.0310026  0.0697233  1.1726971 -0.0478654  0.0417174  1.1741213 -0.0492896
  0.0300093  0.0662656  1.1948695 -0.0391731  0.0368235  1.1959673 -0.0402710
  0.0341655  0.0684036  1.1704354 -0.0467925  0.0460570  1.1721756 -0.0485327
  0.0359824  0.0686890  1.1751286 -0.0398175  0.0393536  1.1764020 -0.0410908
  0.0337450  0.0659120  1.1936550 -0.0386475  0.0420211  1.1950863 -0.0400788
  0.0358993  0.0659885  1.1956966 -0.0334542  0.0367194  1.1967926 -0.0345502
  0.0405985  0.0687883  1.1640295 -0.0433569  0.0472247  1.1658738 -0.0452012
  0.0423757  0.0699819  1.1707230 -0.0453607  0.0440839  1.1723190 -0.0469566
  0.0414254  0.0660151  1.1879263 -0.0338696  0.0526294  1.1901891 -0.0361325
  0.0436550  0.0663349  1.1883466 -0.0380734  0.0483599  1.1902506 -0.0399773
  0.0395182  0.0702069  1.1510441 -0.0366144  0.0453628  1.1527742 -0.0383445
  0.0373934  0.0713095  1.1566607 -0.0494240  0.0494812  1.1586873 -0.0514506
  0.0407793  0.0724993  1.1296932 -0.0505326  0.0542495  1.1321816 -0.0530209
  0.0376974  0.0757301  1.1385014 -0.0557607  0.0548833  1.1410183 -0.0582776
  0.0392505  0.0684448  1.1717565 -0.0472086  0.0369469  1.1728753 -0.0483275
  0.0397806  0.0659230  1.1918319 -0.0395845  0.0413157  1.1932165 -0.0409691
  0.0373449  0.0687000  1.1760537 -0.0395366  0.0430066  1.1775733 -0.0410562
  0.0375166  0.0659914  1.1939572 -0.0337269  0.0460631  1.1956831 -0.0354528
  0.0962546  0.0605301  1.1817014 -0.0277133  0.0927417  1.1887718 -0.0347837
  0.0990790  0.0616887  1.1816534 -0.0439343  0.0907812  1.1883412 -0.0506221
  0.0975102  0.0585853  1.1961523 -0.0141340  0.1008256  1.2044943 -0.0224760
  0.1027439  0.0585744  1.1906973 -0.0322351  0.0962230  1.1982221 -0.0397598
  0.0945704  0.0614945  1.1716267 -0.0085627  0.0860946  1.1778742 -0.0148102
  0.0912246  0.0621843  1.1733926 -0.0246878  0.0970917  1.1812098 -0.0325051
  0.0961024  0.0631423  1.1570830 -0.0185138  0.0925394  1.1643229 -0.0257537
  0.0916351  0.0639995  1.1580418 -0.0308799  0.1009642  1.1665548 -0.0393929
  0.0941175  0.0603083  1.1812717 -0.0234126  0.0838971  1.1870864 -0.0292273
  0.0944123  0.0587155  1.1973903 -0.0190744  0.0839183  1.2031522 -0.0248362
  0.0911033  0.0608609  1.1849936 -0.0270595  0.0936643  1.1921890 -0.0342549
  0.0911823  0.0590605  1.1987772 -0.0230246  0.0929996  1.2058155 -0.0300628
  0.0183621  0.0687940  1.1691837 -0.0469910  0.0245494  1.1696791 -0.0474863
  0.0202339  0.0695776  1.1761131 -0.0458251  0.0186517  1.1763978 -0.0461098
  0.0184054  0.0660166  1.1983322 -0.0382226  0.0253008  1.1988497 -0.0387401
  0.0204391  0.0662266  1.1997294 -0.0386640  0.0196369  1.2000407 -0.0389753
  0.0176782  0.0704846  1.1553792 -0.0402141  0.0214493  1.1557639 -0.0405988
  0.0158530  0.0723260  1.1526024 -0.0508754  0.0177962  1.1528655 -0.0511385
  0.0195176  0.0722220  1.1515918 -0.0514821  0.0252960  1.1521235 -0.0520137
  0.0177656  0.0760956  1.1505695 -0.0563052  0.0215290  1.1509534 -0.0566892
  0.0169805  0.0688240  1.1685123 -0.0472231  0.0166059  1.1687391 -0.0474498
  0.0169136  0.0660246  1.1990591 -0.0380015  0.0154218  1.1992513 -0.0381937
  0.0150776  0.0696896  1.1761128 -0.0463449  0.0225640  1.1765291 -0.0467613
  0.0148715  0.0662566  1.2005458 -0.0388994  0.0213093  1.2009121 -0.0392656
  0.0960643  0.0556249  1.2138084 -0.0167694  0.0885381  1.2201459 -0.0231070
  0.0974592  0.0572709  1.1950896 -0.0339309  0.0982014  1.2028866 -0.0417280
  0.0986218  0.0542157  1.2091075 -0.0009870  0.0855957  1.2151321 -0.0070116
  0.1026214  0.0565720  1.1982910 -0.0153316  0.0923629  1.2052800 -0.0223206
  0.0940445  0.0560976  1.2183260 -0.0198654  0.0808325  1.2235807 -0.0251201
  0.0910837  0.0559799  1.2175893 -0.0192387  0.0897650  1.2240702 -0.0257196
  0.0943927  0.0575872  1.2044679 -0.0239151  0.0817918  1.2098901 -0.0293373
  0.0911770  0.0577527  1.2058978 -0.0227257  0.0898312  1.2124311 -0.0292590
  0.0943801  0.0549254  1.2268120 -0.0345232  0.0753363  1.2312957 -0.0390069
  0.0956452  0.0532124  1.2400996 -0.0268525  0.0803757  1.2451783 -0.0319312
  0.0911737  0.0546602  1.2283466 -0.0222200  0.0849899  1.2340962 -0.0279696
  0.0915126  0.0528276  1.2410499 -0.0174620  0.0877615  1.2471404 -0.0235525
  0.0959079  0.0365166  1.3575546 -0.0060925  0.0635478  1.3605096 -0.0090475
  0.0974791  0.0382675  1.3358944 -0.0246710  0.0742778  1.3399375 -0.0287141
  0.0981854  0.0352595  1.3516136  0.0071647  0.0598286  1.3542708  0.0045076
  0.1024070  0.0377537  1.3389061 -0.0081429  0.0677238  1.3423024 -0.0115392
  0.0940019  0.0368626  1.3660445 -0.0027580  0.0551205  1.3682606 -0.0049740
  0.0910723  0.0365509  1.3617724 -0.0084666  0.0645544  1.3648069 -0.0115012
  0.0944760  0.0384255  1.3513398 -0.0079039  0.0575874  1.3537753 -0.0103393
  0.0911993  0.0383433  1.3494996 -0.0122934  0.0656450  1.3526567 -0.0154505
  0.0942058  0.0357040  1.3758097 -0.0199083  0.0495641  1.3775676 -0.0216662
  0.0952369  0.0341015  1.3898754 -0.0133981  0.0539310  1.3919451 -0.0154677
  0.0911269  0.0352349  1.3738348 -0.0122731  0.0598497  1.3764142 -0.0148525
  0.0914032  0.0334319  1.3877727 -0.0075283  0.0620018  1.3905224 -0.0102780
  0.0951851  0.0176663  1.5081075 -0.0047711  0.0378926  1.5090560 -0.0057196
  0.0968696  0.0194377  1.4860825 -0.0199347  0.0477451  1.4875946 -0.0214468
  0.0968767  0.0168145  1.5022267  0.0013573  0.0335251  1.5029751  0.0006088
  0.1010146  0.0194465  1.4889500 -0.0104940  0.0413281  1.4900883 -0.0116322
  0.0936010  0.0177580  1.5209186  0.0104226  0.0301767  1.5215212  0.0098200
  0.0909649  0.0171569  1.5128838  0.0011666  0.0396446  1.5139228  0.0001277
  0.0942214  0.0193032  1.5053340  0.0041151  0.0338547  1.5060971  0.0033520
  0.0911311  0.0189445  1.5011537 -0.0026446  0.0412322  1.5022834 -0.0037743
  0.0936031  0.0167105  1.5327497 -0.0069120  0.0269669  1.5332219 -0.0073842
  0.0942290  0.0153937  1.5474198 -0.0006780  0.0307902  1.5480319 -0.0012902
  0.0909654  0.0158706  1.5260998 -0.0009128  0.0361936  1.5269572 -0.0017702
  0.0911332  0.0141442  1.5399616  0.0036116  0.0381098  1.5409063  0.0026669
  0.5772356  0.0134805  0.1774763 -2.5953946 -0.1970083  0.1914035 -2.6093218
  0.5939003  0.0135794  0.2514056 -2.3510610 -0.2379183  0.2729773 -2.3726328
  0.5786851  0.0026039  0.2461951 -2.5940354 -0.2490724  0.2678719 -2.6157122
  0.5942887  0.0033685  0.3298436 -2.3334171 -0.2963455  0.3624200 -2.3659935
  0.5766376  0.0212805  0.2437656 -2.2210454  0.0617120  0.2453097 -2.2225895
  0.5764535  0.0317138  0.1567838 -2.2507307 -0.0169754  0.1569035 -2.2508504
  0.5937401  0.0211584  0.1327398 -2.5880759  0.0114829  0.1327882 -2.5881244
  0.5936907  0.0316537  0.0471457 -2.6147084 -0.0663423  0.0487981 -2.6163609
  0.5639582  0.0213898  0.3087592 -1.8650799  0.3172113  0.3541016 -1.9104223
  0.5464196  0.0215662  0.4942377 -1.2548915  0.4119458  0.5864008 -1.3470546
  0.5637740  0.0317791  0.1497770 -1.9186178  0.1896139  0.1670156 -1.9358564
  0.5463702  0.0318973  0.3358076 -1.3040103  0.2843725  0.3837226 -1.3519253
  0.5645561  0.0135794  0.2652698 -2.2651449  0.1359166  0.2725494 -2.2724244
  0.5660056  0.0026304  0.3751836 -2.1790947  0.2943642  0.4086682 -2.2125793
  0.5465798  0.0139484  0.5074970 -1.4681316  0.2000804  0.5275563 -1.4881910
  0.5469682  0.0034673  0.6085330 -1.4223870  0.3613839  0.6709215 -1.4847755
  0.5727606 -0.0174765  0.8383664 -2.7112746  0.1595166  0.8455205 -2.7184287
  0.5606524 -0.0191216  0.6664978 -3.0263359  0.3921872  0.7076894 -3.0675276
  0.5682040 -0.0056910  0.3241210 -2.7770249  0.1740374  0.3338574 -2.7867614
  0.5507389 -0.0053938  0.2618562 -3.0108900  0.3513909  0.2991594 -3.0481932
  0.5753138 -0.0256385  0.7198658 -2.3374711 -0.0476796  0.7206092 -2.3382145
  0.5777327 -0.0361518 -0.5676423 -4.3666020 -2.8542031  0.9613613 -5.8956056
  0.5659775 -0.0274966 -0.8639039 -7.9396170  0.1574040 -0.8604041 -7.9431168
  0.5706126 -0.0366497 -2.9393099-12.4340720 -2.9250389 -2.1105383-13.2628440
  0.5832257 -0.0249151 -0.1038288 -0.8655285 -0.4427867  0.0993647 -1.0687221
  0.5955053 -0.0247970  0.0442204 -0.3586658 -0.2844606  0.1913418 -0.5057871
  0.5844937 -0.0359580 -0.5693023 -1.0572367 -0.6351854 -0.1328428 -1.4936962
  0.5958451 -0.0359264 -0.4056053 -0.5073668 -0.4624282  0.0087329 -0.9217050
  0.5820123 -0.0167531 -0.4110437 -3.0412101 -0.9804118 -0.0858064 -3.3664473
  0.5799650 -0.0054972  0.1316534 -2.6820732 -0.5348401  0.2298876 -2.7803073
  0.5951802 -0.0164220  0.0219434 -1.5519967 -0.7829114  0.3450509 -1.8751042
  0.5946316 -0.0046704  0.5008954 -1.3595040 -0.3733201  0.5730127 -1.4316214
  0.5531123 -0.0306065  0.0090238 -0.9079252  0.8796859  0.5425403 -1.4414417
  0.5600287 -0.0288278 -1.7921012 -5.1339673  2.0416577 -0.8247804 -6.1012881
  0.5547806 -0.0374830 -1.8775008 -0.6231131  2.0439749  0.8877308 -3.3883447
  0.5644626 -0.0370064 -2.9822826 -4.0222996  2.7657320 -0.6880980 -6.3164841
  0.5498597 -0.0269003 -0.3272247 -0.9538113  1.0556940  0.4606825 -1.7417185
  0.5426419 -0.0236514 -0.6860282 -1.4903326  0.8123869 -0.1817044 -1.9946564
  0.5545161 -0.0216467 -0.0859421 -1.1377981  1.0658942  0.5767134 -1.8004536
  0.5438896 -0.0102062 -0.3905462 -1.4266994  0.9062491  0.1352598 -1.9525054
  0.5483447 -0.0311852 -0.1162430  0.6224121 -0.5956433  0.9539367 -0.4477676
  0.5488621 -0.0376381  0.6469552  0.8305977 -0.6736317  1.4186373  0.0589155
  0.5422360 -0.0309875 -0.1757344  0.3499042 -0.3337776  0.5119160 -0.3377462
  0.5423746 -0.0375851  0.5738692  0.5694659 -0.4254306  0.9971038  0.1462313
  0.5763542  0.0496972  0.1072604 -2.0547353  0.0820556  0.1103702 -2.0578451
  0.5936641  0.0496755 -0.0467850 -2.5677918  0.0435842 -0.0460318 -2.5685451
  0.5763776  0.0393280  0.1730772 -2.0343518  0.1898965  0.1892941 -2.0505687
  0.5936704  0.0392948  0.0188060 -2.5479391  0.1512666  0.0276899 -2.5568230
  0.5763446  0.0572756  0.1205683 -1.8831278  0.2285743  0.1463124 -1.9088720
  0.5763416  0.0676111  0.0697215 -1.8984652  0.1245258  0.0775689 -1.9063126
  0.5936615  0.0572602 -0.0288634 -2.3809906  0.1986345 -0.0122068 -2.3976471
  0.5936607  0.0676014 -0.0796632 -2.3962570  0.0946477 -0.0758027 -2.4001176
  0.5636651  0.0572947  0.0213366 -1.5967886  0.3947464  0.1125001 -1.6879521
  0.5463410  0.0573316  0.1569362 -1.1455089  0.4337728  0.2881775 -1.2767502
  0.5636621  0.0676231 -0.0445194 -1.6166216  0.3006978  0.0110324 -1.6721734
  0.5463402  0.0676464  0.0910104 -1.1653115  0.3396047  0.1769345 -1.2512356
  0.5636747  0.0497247  0.0339352 -1.7329512  0.2545162  0.0698670 -1.7688830
  0.5636981  0.0393714  0.1326691 -1.7026910  0.3623399  0.2016130 -1.7716350
  0.5463436  0.0497782  0.1896686 -1.2153942  0.3130288  0.2562519 -1.2819775
  0.5463499  0.0394567  0.2885527 -1.1855511  0.4211269  0.4003785 -1.2973769
  0.5763400  0.0854929  0.0444742 -1.7538291  0.1384145  0.0550655 -1.7644204
  0.5936603  0.0854887 -0.0848184 -2.1847416  0.1138612 -0.0786627 -2.1908972
  0.5763404  0.0751719  0.0862349 -1.7412879  0.2283111  0.1143259 -1.7693789
  0.5936604  0.0751652 -0.0430696 -2.1722102  0.2037356 -0.0237496 -2.1915302
  0.5763398  0.0930461  0.0640418 -1.6034345  0.2125413  0.0907066 -1.6300993
  0.5763398  0.1033609  0.0288966 -1.6139823  0.1382320  0.0404462 -1.6255319
  0.5936603  0.0930432 -0.0429114 -1.9599067  0.1918697 -0.0238960 -1.9789221
  0.5936603  0.1033590 -0.0780527 -1.9704527  0.1175684 -0.0707766 -1.9777288
  0.5636603  0.0930498 -0.0610833 -1.4104668  0.3946004  0.0458377 -1.5173878
  0.5463398  0.0930568  0.0396125 -1.0748634  0.4070501  0.1724499 -1.2077008
  0.5636603  0.1033631 -0.0821805 -1.4168005  0.3246766 -0.0073870 -1.4915939
  0.5463398  0.1033676  0.0185103 -1.0811980  0.3371085  0.1136226 -1.1763103
  0.5636605  0.0854982 -0.0749776 -1.5149536  0.3197073 -0.0071868 -1.5827444
  0.5636609  0.0751802 -0.0432161 -1.5054126  0.4017933  0.0599174 -1.6085460
  0.5463398  0.0855083  0.0432351 -1.1210125  0.3384562  0.1344765 -1.2122539
  0.5463399  0.0751963  0.0750131 -1.1114723  0.4205895  0.2089791 -1.2454383
  0.5763397  0.1212227  0.0189606 -1.4778885  0.1333397  0.0307457 -1.4896737
  0.5936603  0.1212219 -0.0681087 -1.7681061  0.1148564 -0.0603838 -1.7758310
  0.5763398  0.1109107  0.0503985 -1.4684545  0.1938182  0.0747412 -1.4927972
  0.5936603  0.1109095 -0.0366723 -1.7586727  0.1753319 -0.0190015 -1.7763434
  0.5763397  0.1287711  0.0411882 -1.3365869  0.1761935  0.0633634 -1.3587621
  0.5763397  0.1390819  0.0120712 -1.3453239  0.1270491  0.0238603 -1.3571130
  0.5936603  0.1287706 -0.0295734 -1.5724499  0.1590735 -0.0133433 -1.5886799
  0.5936603  0.1390816 -0.0586898 -1.5811866  0.1099302 -0.0507934 -1.5890830
  0.5636603  0.1287718 -0.0613467 -1.2065954  0.3618452  0.0433993 -1.3113414
  0.5463397  0.1287732  0.0126799 -0.9598503  0.3715981  0.1384106 -1.0855811
  0.5636603  0.1390823 -0.0779240 -1.2115710  0.3104386  0.0015195 -1.2910144
  0.5463397  0.1390832 -0.0038982 -0.9648261  0.3201889  0.0930169 -1.0617412
  0.5636603  0.1212237 -0.0822365 -1.3155304  0.3206645 -0.0038445 -1.3939225
  0.5636603  0.1109123 -0.0633610 -1.3098647  0.3807451  0.0437362 -1.4169618
  0.5463397  0.1212256  0.0042799 -1.0271580  0.3317726  0.1017812 -1.1246593
  0.5463397  0.1109154  0.0231574 -1.0214917  0.3918599  0.1538084 -1.1521427
  0.5763397  0.1644875  0.0283619 -1.0888750  0.1458362  0.0470846 -1.1075977
  0.5763397  0.1747975  0.0034485 -1.0963501  0.1136743  0.0150749 -1.1079765
  0.5936603  0.1644874 -0.0179503 -1.2432464  0.1311881 -0.0040619 -1.2571349
  0.5936603  0.1747974 -0.0428636 -1.2507215  0.0990263 -0.0347988 -1.2587863
  0.5636603  0.1644876 -0.0477216 -1.0013222  0.3210293  0.0502810 -1.0993247
  0.5463397  0.1644879  0.0053779 -0.8243273  0.3313791  0.1214818 -0.9404312
  0.5636603  0.1747976 -0.0653232 -1.0066042  0.2841548  0.0138058 -1.0857331
  0.5463397  0.1747977 -0.0122239 -0.8296094  0.2945043  0.0828319 -0.9246651
  0.5636603  0.1569401 -0.0692615 -1.1078000  0.2978501  0.0100971 -1.1871585
  0.5636603  0.1466300 -0.0556230 -1.1037066  0.3407033  0.0453941 -1.2047236
  0.5463397  0.1569405 -0.0075528 -0.9021085  0.3058702  0.0870310 -0.9966923
  0.5463397  0.1466306  0.0060861 -0.8980150  0.3487243  0.1249631 -1.0168921
  0.5763397  0.1569399  0.0071369 -1.2173270  0.1202755  0.0188394 -1.2290295
  0.5936603  0.1569398 -0.0504440 -1.4092596  0.1043657 -0.0424748 -1.4172288
  0.5763397  0.1466297  0.0341967 -1.2092077  0.1602640  0.0545212 -1.2295321
  0.5936603  0.1466295 -0.0233845 -1.4011403  0.1443539 -0.0084223 -1.4161025
  0.5636603  0.1926548 -0.0582075 -0.9077032  0.2687438  0.0196717 -0.9855825
  0.5636603  0.1823449 -0.0447788 -0.9036735  0.2995927  0.0493966 -0.9978489
  0.5463397  0.1926549 -0.0137852 -0.7596306  0.2766394  0.0776204 -0.8510362
  0.5463397  0.1823450 -0.0003565 -0.7556008  0.3074884  0.1089994 -0.8649567
  0.5763397  0.1926548  0.0001879 -0.9807405  0.1080266  0.0119437 -0.9924963
  0.5936603  0.1926548 -0.0369479 -1.1045254  0.0940045 -0.0287337 -1.1127397
  0.5763397  0.1823449  0.0240365 -0.9735852  0.1338158  0.0416740 -0.9912227
  0.5936603  0.1823448 -0.0130994 -1.0973701  0.1197936 -0.0000220 -1.1104475
  0.5763397  0.2002022  0.0196600 -0.8647397  0.1225674  0.0363321 -0.8814118
  0.5763397  0.2105120 -0.0025109 -0.8713915  0.1022697  0.0093642 -0.8832667
  0.5936603  0.2002021 -0.0095682 -0.9621664  0.1095315  0.0028637 -0.9745983
  0.5936603  0.2105120 -0.0317391 -0.9688182  0.0892339 -0.0233175 -0.9772399
  0.5636603  0.2002022 -0.0376226 -0.8103421  0.2793358  0.0527800 -0.9007446
  0.5463397  0.2002022 -0.0023820 -0.6928745  0.2866631  0.1011152 -0.7963717
  0.5636603  0.2105120 -0.0500847 -0.8140816  0.2548631  0.0271314 -0.8912977
  0.5463397  0.2105120 -0.0148441 -0.6966141  0.2621904  0.0743248 -0.7857830
  0.5763397  0.2283693 -0.0047241 -0.7685433  0.0968196  0.0073574 -0.7806248
  0.5936603  0.2283693 -0.0270276 -0.8428884  0.0846716 -0.0183329 -0.8515831
  0.5763397  0.2180594  0.0159367 -0.7623446  0.1123085  0.0318191 -0.7782270
  0.5936603  0.2180594 -0.0063669 -0.8366897  0.1001605  0.0055445 -0.8486010
  0.5763397  0.2359166  0.0127329 -0.6655833  0.1031695  0.0280775 -0.6809279
  0.5763397  0.2462265 -0.0069300 -0.6714825  0.0917973  0.0055172 -0.6839297
  0.5936603  0.2359166 -0.0036426 -0.7201686  0.0916082  0.0078841 -0.7316953
  0.5936603  0.2462266 -0.0233055 -0.7260678  0.0802360 -0.0142611 -0.7351121
  0.5636603  0.2359166 -0.0272759 -0.6341874  0.2456633  0.0596987 -0.7211620
  0.5463397  0.2359165 -0.0045670 -0.5584912  0.2542799  0.0944579 -0.6575162
  0.5636603  0.2462265 -0.0419305 -0.6385843  0.2298931  0.0363720 -0.7168869
  0.5463397  0.2462264 -0.0192218 -0.5628882  0.2385095  0.0705803 -0.6526903
  0.5636603  0.2283692 -0.0448703 -0.7246931  0.2424622  0.0327440 -0.8023074
  0.5636603  0.2180594 -0.0308314 -0.7204807  0.2619314  0.0573706 -0.8086827
  0.5463397  0.2283692 -0.0168350 -0.6312423  0.2507167  0.0724875 -0.7205648
  0.5463397  0.2180594 -0.0027960 -0.6270300  0.2701859  0.0979035 -0.7277294
  0.5763397  0.2716315  0.0068753 -0.4892319  0.0858201  0.0213016 -0.5036582
  0.5763397  0.2819417 -0.0098432 -0.4942476  0.0809416  0.0033238 -0.5074147
  0.5936603  0.2716316 -0.0001489 -0.5126470  0.0759904  0.0108812 -0.5236771
  0.5936603  0.2819420 -0.0168672 -0.5176627  0.0711119 -0.0069653 -0.5275646
  0.5636603  0.2716313 -0.0246598 -0.4740137  0.2126804  0.0600379 -0.5587114
  0.5463397  0.2716309 -0.0094601 -0.4233464  0.2211950  0.0865038 -0.5193103
  0.5636603  0.2819414 -0.0391416 -0.4783586  0.2021244  0.0397163 -0.5572165
  0.5463397  0.2819408 -0.0239422 -0.4276914  0.2106389  0.0659401 -0.5175737
  0.5636603  0.2640838 -0.0397657 -0.5562212  0.2169918  0.0393002 -0.6352871
  0.5636603  0.2537739 -0.0255567 -0.5519581  0.2290570  0.0601577 -0.6376725
  0.5463397  0.2640836 -0.0223924 -0.4983092  0.2253461  0.0673763 -0.5880780
  0.5463397  0.2537737 -0.0081832 -0.4940461  0.2374115  0.0885615 -0.5907908
  0.5763397  0.2640840 -0.0084269 -0.5790545  0.0863308  0.0043482 -0.5918296
  0.5936603  0.2640841 -0.0200831 -0.6179094  0.0756052 -0.0106698 -0.6273227
  0.5763397  0.2537740  0.0098149 -0.5735817  0.0944259  0.0247176 -0.5884844
  0.5936603  0.2537740 -0.0018414 -0.6124366  0.0837003  0.0094244 -0.6237024
  0.5636603  0.2997996 -0.0369065 -0.4058883  0.1862080  0.0407291 -0.4835239
  0.5636603  0.2894891 -0.0250949 -0.4023445  0.1942480  0.0570415 -0.4844809
  0.5463397  0.2997983 -0.0253308 -0.3672976  0.1931518  0.0616450 -0.4542734
  0.5463397  0.2894883 -0.0135186 -0.3637537  0.2011923  0.0780931 -0.4553654
  0.5763397  0.2998004 -0.0111394 -0.4146629  0.0757479  0.0026112 -0.4284134
  0.5936603  0.2998009 -0.0144245 -0.4256165  0.0664766 -0.0039445 -0.4360965
  0.5763397  0.2894896  0.0046304 -0.4099319  0.0780303  0.0188311 -0.4241326
  0.5936603  0.2894899  0.0013450 -0.4208856  0.0687589  0.0122600 -0.4318006
  0.5763397  0.3073488  0.0020099 -0.3373816  0.0699929  0.0158779 -0.3512496
  0.5763397  0.3176609 -0.0123503 -0.3416897  0.0700958  0.0019480 -0.3559879
  0.5936603  0.3073497  0.0021594 -0.3368874  0.0615514  0.0129878 -0.3477158
  0.5936603  0.3176622 -0.0122001 -0.3411953  0.0616542 -0.0010256 -0.3523698
  0.5636603  0.3073478 -0.0235417 -0.3369570  0.1757564  0.0552238 -0.4157225
  0.5463397  0.3073458 -0.0161103 -0.3121797  0.1817252  0.0702442 -0.3985342
  0.5636603  0.3176592 -0.0336950 -0.3400031  0.1705940  0.0424074 -0.4161055
  0.5463397  0.3176561 -0.0262648 -0.3152262  0.1765622  0.0573968 -0.3988877
  0.5763397  0.3355258 -0.0133844 -0.2755399  0.0640875  0.0014440 -0.2903682
  0.5936603  0.3355288 -0.0101451 -0.2647545  0.0564767  0.0018201 -0.2767197
  0.5763397  0.3252109 -0.0004341 -0.2716549  0.0618395  0.0130001 -0.2850891
  0.5936603  0.3252127  0.0028037 -0.2608699  0.0542289  0.0135212 -0.2715874
  0.5763397  0.3430792 -0.0026869 -0.2124145  0.0536815  0.0102547 -0.2253562
  0.5763397  0.3534007 -0.0144963 -0.2159572  0.0576885  0.0008534 -0.2313069
  0.5936603  0.3430836  0.0030804 -0.1932057  0.0467454  0.0136443 -0.2037696
  0.5936603  0.3534076 -0.0087260 -0.1967475  0.0507514  0.0040983 -0.2095718
  0.5636603  0.3430738 -0.0220226 -0.2222938  0.1409297  0.0507242 -0.2950406
  0.5463397  0.3430632 -0.0199434 -0.2153296  0.1472801  0.0590988 -0.2943718
  0.5636602  0.3533920 -0.0328275 -0.2255353  0.1394778  0.0403418 -0.2987046
  0.5463397  0.3533753 -0.0307549 -0.2185731  0.1458273  0.0487849 -0.2981129
  0.5636603  0.3355220 -0.0322794 -0.2801758  0.1554215  0.0425663 -0.3550214
  0.5636603  0.3252085 -0.0216959 -0.2770006  0.1583143  0.0540197 -0.3527163
  0.5463397  0.3355147 -0.0281218 -0.2662942  0.1616419  0.0535646 -0.3479805
  0.5463397  0.3252039 -0.0175356 -0.2631182  0.1645354  0.0649768 -0.3456306
  0.5763397  0.3712986 -0.0148162 -0.1623326  0.0500783  0.0005778 -0.1777265
  0.5936602  0.3713145 -0.0074472 -0.1378165  0.0441795  0.0061138 -0.1513774
  0.5763397  0.3609620 -0.0047661 -0.1593178  0.0449556  0.0073592 -0.1714431
  0.5936602  0.3609720  0.0025972 -0.1348034  0.0390597  0.0129247 -0.1451309
  0.5763395  0.3788781 -0.0066219 -0.1149160  0.0358401  0.0041650 -0.1257029
  0.5763392  0.3892491 -0.0148274 -0.1173770  0.0419519  0.0001478 -0.1323523
  0.5936602  0.3789010  0.0021345 -0.0857835  0.0310361  0.0119866 -0.0956356
  0.5936601  0.3892855 -0.0060605 -0.0882417  0.0371401  0.0082368 -0.1025390
  0.5636600  0.3788494 -0.0268999 -0.1300469  0.1026694  0.0364215 -0.1933682
  0.5463397  0.3787939 -0.0263435 -0.1280603  0.1074095  0.0416399 -0.1960437
  0.5636597  0.3892036 -0.0349746 -0.1324693  0.1022522  0.0295557 -0.1969996
  0.5463396  0.3891157 -0.0344436 -0.1304904  0.1069910  0.0348076 -0.1997415
  0.5636602  0.3712787 -0.0346720 -0.1761939  0.1221922  0.0357692 -0.2466351
  0.5636602  0.3609495 -0.0241374 -0.1730335  0.1223573  0.0446410 -0.2418120
  0.5463397  0.3712404 -0.0344737 -0.1754138  0.1283828  0.0415082 -0.2513957
  0.5463397  0.3609254 -0.0239247 -0.1722491  0.1285481  0.0503202 -0.2464940
  0.5763271  0.4150362 -0.0085204 -0.0477647  0.0181385 -0.0014212 -0.0548640
  0.5763066  0.4256663 -0.0136514 -0.0492714  0.0246088 -0.0010840 -0.0618388
  0.5936569  0.4151578  0.0005298 -0.0177750  0.0151486  0.0090762 -0.0263214
  0.5936514  0.4258619 -0.0045737 -0.0192973  0.0215769  0.0108627 -0.0347337
  0.5636476  0.4148852 -0.0273397 -0.0641622  0.0611189  0.0180809 -0.1095828
  0.5463364  0.4145944 -0.0283335 -0.0670723  0.0639003  0.0190685 -0.1144743
  0.5636271  0.4254263 -0.0320748 -0.0655797  0.0617181  0.0151240 -0.1127785
  0.5463309  0.4249662 -0.0331470 -0.0685155  0.0645116  0.0160604 -0.1177228
  0.5636560  0.4072160 -0.0338956 -0.0956620  0.0817610  0.0226205 -0.1521781
  0.5636586  0.3968044 -0.0277989 -0.0938330  0.0817238  0.0273255 -0.1489574
  0.5463386  0.4070144 -0.0340687 -0.0958782  0.0853369  0.0257871 -0.1557341
  0.5463393  0.3966773 -0.0279281 -0.0940360  0.0852991  0.0304974 -0.1524616
  0.5763355  0.4073203 -0.0143868 -0.0795049  0.0335109 -0.0002225 -0.0936692
  0.5936591  0.4074036 -0.0051084 -0.0487385  0.0295926  0.0098408 -0.0636878
  0.5763381  0.3968702 -0.0077038 -0.0775044  0.0269994  0.0015207 -0.0867289
  0.5936598  0.3969228  0.0015560 -0.0467405  0.0230996  0.0108253 -0.0560097
  0.5633992  0.4441558 -0.0308390 -0.0411341  0.0424944  0.0068185 -0.0787917
  0.5635605  0.4332693 -0.0259119 -0.0396939  0.0415362  0.0093010 -0.0749068
  0.5462698  0.4430571 -0.0327520 -0.0459257  0.0454490  0.0065850 -0.0852627
  0.5463130  0.4325927 -0.0276109 -0.0443944  0.0444317  0.0092146 -0.0812199
  0.5760787  0.4446828 -0.0113109 -0.0263419  0.0149400 -0.0021025 -0.0355502
  0.5935903  0.4450239 -0.0034481 -0.0003906  0.0132346  0.0114032 -0.0152419
  0.5762400  0.4336100 -0.0085819 -0.0257439  0.0091334 -0.0046309 -0.0296949
  0.5936335  0.4338644 -0.0006863  0.0003796  0.0074605  0.0073261 -0.0076329
  0.5755547  0.4529075 -0.0082099 -0.0131689  0.0012865 -0.0078960 -0.0134828
  0.5742844  0.4643047 -0.0102064 -0.0122897  0.0062897 -0.0048727 -0.0176235
  0.5934499  0.4540413 -0.0017735  0.0076074 -0.0004083  0.0076251 -0.0017912
  0.5931095  0.4675178 -0.0038212  0.0072821  0.0039731  0.0085574 -0.0050964
  0.5628752  0.4520085 -0.0237593 -0.0197237  0.0241678  0.0025104 -0.0459934
  0.5461294  0.4506862 -0.0260170 -0.0257957  0.0264555  0.0005494 -0.0523621
  0.5616049  0.4625757 -0.0275673 -0.0204442  0.0253514  0.0015946 -0.0496061
  0.5457890  0.4610650 -0.0300579 -0.0268890  0.0278038 -0.0006245 -0.0563224
  0.5917252  0.4878534 -0.0003155  0.0011545 -0.0025272  0.0030514 -0.0022123
  0.5977828  0.4823986 -0.0001026  0.0055738 -0.0014941  0.0059431 -0.0004719
  0.5870623  0.4853431  0.0006225  0.0033210 -0.0031232  0.0053740 -0.0014305
  0.5965334  0.4782443  0.0009321  0.0066414 -0.0025451  0.0076113 -0.0000377
  0.5932422  0.4911449  0.0006979  0.0012084 -0.0011512  0.0021323 -0.0002260
  0.5927242  0.4976273  0.0002813  0.0011713 -0.0007408  0.0015905 -0.0001379
  0.5981893  0.4873175  0.0007080  0.0018398 -0.0010533  0.0024697  0.0000782
  0.5980504  0.4966017  0.0004200  0.0017642 -0.0007781  0.0021203  0.0000639
  0.5891680  0.4919949  0.0012337  0.0000493 -0.0025618  0.0032709 -0.0019879
  0.5829839  0.4904897  0.0016978 -0.0011531 -0.0037396  0.0042744 -0.0037297
  0.5882392  0.4978550  0.0052329  0.0014733 -0.0018001  0.0059558  0.0007504
  0.5813125  0.4974517  0.0050167  0.0001217 -0.0030213  0.0064574 -0.0013190
  0.5686126  0.4814620 -0.0033219 -0.0052891 -0.0010527 -0.0028648 -0.0057462
  0.5808694  0.4836306  0.0000294  0.0054312 -0.0020077  0.0060957 -0.0006351
  0.5724242  0.4719559 -0.0035536 -0.0073890 -0.0029387 -0.0019622 -0.0089804
  0.5897386  0.4754462 -0.0012403 -0.0000301 -0.0036571  0.0030716 -0.0043421
  0.5666604  0.4881237  0.0017854 -0.0050774 -0.0055708  0.0048968 -0.0081889
  0.5651385  0.4968178  0.0101875 -0.0019795 -0.0037993  0.0112764 -0.0030684
  0.5769530  0.4894524  0.0018195 -0.0009038 -0.0021490  0.0030019 -0.0020862
  0.5751227  0.4971738  0.0112611  0.0028002  0.0000245  0.0112612  0.0028001
  0.5580552  0.4872737 -0.0067879 -0.0028929  0.0043224 -0.0000995 -0.0095812
  0.5448379  0.4862802 -0.0050547 -0.0019487 -0.0031075 -0.0000278 -0.0069757
  0.5569440  0.4965900  0.0103534  0.0022085  0.0049065  0.0126573 -0.0000955
  0.5445401  0.4963238  0.0109924  0.0028559 -0.0030645  0.0120174  0.0018309
  0.5590278  0.4801824 -0.0166498 -0.0060124  0.0134299  0.0031136 -0.0257758
  0.5605740  0.4701249 -0.0204238 -0.0075448  0.0122327 -0.0001602 -0.0278084
  0.5450985  0.4788550 -0.0174100 -0.0101126  0.0116757 -0.0015287 -0.0259938
  0.5455128  0.4686128 -0.0211006 -0.0113255  0.0106190 -0.0045233 -0.0279028
