Výsledky

Výpočtový krok 1

-----------------------------------------------------------------------------
Job: ATENA, Openning output file: 3.11.2010 15:31:49
-----------------------------------------------------------------------------
Output data for request: PRINCIPAL_STRESS
Description: Principal Stress
  Step: 1  Iteration: 2 at Time: 1
-----------------------------------------------------------------------------------------------
Group Elem.    IP       Max.       Min.     vmax_x     vmax_y     vmin_x     vmin_y 
Units                    MPa        MPa          m          m          m          m 
    1     1     1  1.4465933 -0.0123030  0.9998159  0.0191867 -0.0191867  0.9998159 
    1     1     2  1.4475709 -0.0114498  0.9998771  0.0156778 -0.0156778  0.9998771 
    1     1     3  1.4651132 -0.0067652  0.9998176  0.0191005 -0.0191005  0.9998176 
    1     1     4  1.4653457 -0.0061146  0.9998801  0.0154880 -0.0154880  0.9998801 
    1     2     1  1.4351901 -0.0096177  0.9997741  0.0212528 -0.0212528  0.9997741 
    1     2     2  1.4180429 -0.0147650  0.9997696  0.0214673 -0.0214673  0.9997696 
    1     2     3  1.4365657 -0.0085806  0.9998460  0.0175486 -0.0175486  0.9998460 
    1     2     4  1.4196554 -0.0136624  0.9998419  0.0177808 -0.0177808  0.9998419 
    1     3     1  1.4405371 -0.0084955  0.9998711  0.0160557 -0.0160557  0.9998711 
    1     3     2  1.4395534 -0.0092485  0.9998047  0.0197637 -0.0197637  0.9998047 
    1     3     3  1.4242551 -0.0133761  0.9998697  0.0161452 -0.0161452  0.9998697 
    1     3     4  1.4228381 -0.0142563  0.9998029  0.0198528 -0.0198528  0.9998029 
    1     4     1  1.4511076 -0.0122319  0.9998988  0.0142254 -0.0142254  0.9998988 
    1     4     2  1.4681416 -0.0071116  0.9998957  0.0144417 -0.0144417  0.9998957 
    1     4     3  1.4506734 -0.0121021  0.9998357  0.0181291 -0.0181291  0.9998357 
    1     4     4  1.4682850 -0.0068168  0.9998339  0.0182273 -0.0182273  0.9998339 
    1     5     1  1.3899063 -0.0172107  0.9997235  0.0235146 -0.0235146  0.9997235 
    1     5     2  1.3921932 -0.0155857  0.9998058  0.0197070 -0.0197070  0.9998058 
    1     5     3  1.4068549 -0.0121215  0.9997308  0.0232035 -0.0232035  0.9997308 
    1     5     4  1.4088166 -0.0105842  0.9998123  0.0193759 -0.0193759  0.9998123 
    1     6     1  1.3786446 -0.0146916  0.9996811  0.0252543 -0.0252543  0.9996811 
    1     6     2  1.3621745 -0.0196329  0.9996726  0.0255869 -0.0255869  0.9996726 
    1     6     3  1.3812946 -0.0128005  0.9997728  0.0213147 -0.0213147  0.9997728 
    1     6     4  1.3651952 -0.0176468  0.9997649  0.0216830 -0.0216830  0.9997649 
    1     7     1  1.3873309 -0.0129694  0.9998084  0.0195740 -0.0195740  0.9998084 
    1     7     2  1.3850288 -0.0141195  0.9997263  0.0233946 -0.0233946  0.9997263 
    1     7     3  1.3720402 -0.0175483  0.9998075  0.0196221 -0.0196221  0.9998075 
    1     7     4  1.3694694 -0.0187711  0.9997261  0.0234054 -0.0234054  0.9997261 
    1     8     1  1.3978931 -0.0154402  0.9998396  0.0179116 -0.0179116  0.9998396 
    1     8     2  1.4137080 -0.0107008  0.9998410  0.0178300 -0.0178300  0.9998410 
    1     8     3  1.3958459 -0.0165137  0.9997658  0.0216431 -0.0216431  0.9997658 
    1     8     4  1.4120106 -0.0116746  0.9997671  0.0215799 -0.0215799  0.9997671 
    1     9     1  1.3466155 -0.0199267  0.9997737  0.0212730 -0.0212730  0.9997737 
    1     9     2  1.3613876 -0.0155024  0.9997722  0.0213422 -0.0213422  0.9997722 
    1     9     3  1.3437391 -0.0210273  0.9996848  0.0251042 -0.0251042  0.9996848 
    1     9     4  1.3586629 -0.0165645  0.9996815  0.0252355 -0.0252355  0.9996815 
    1    10     1  1.3353025 -0.0220185  0.9996158  0.0277183 -0.0277183  0.9996158 
    1    10     2  1.3388942 -0.0196794  0.9997188  0.0237139 -0.0237139  0.9997188 
    1    10     3  1.3509215 -0.0173448  0.9996250  0.0273826 -0.0273826  0.9996250 
    1    10     4  1.3543292 -0.0150316  0.9997283  0.0233078 -0.0233078  0.9997283 
    1    11     1  1.3244432 -0.0201191  0.9995626  0.0295753 -0.0295753  0.9995626 
    1    11     2  1.3102991 -0.0243332  0.9995559  0.0298004 -0.0298004  0.9995559 
    1    11     3  1.3281723 -0.0177661  0.9996791  0.0253322 -0.0253322  0.9996791 
    1    11     4  1.3136640 -0.0221299  0.9996701  0.0256846 -0.0256846  0.9996701 
    1    12     1  1.3357554 -0.0185075  0.9997344  0.0230466 -0.0230466  0.9997344 
    1    12     2  1.3328883 -0.0189396  0.9996333  0.0270776 -0.0270776  0.9996333 
    1    12     3  1.3213087 -0.0228666  0.9997423  0.0227028 -0.0227028  0.9997423 
    1    12     4  1.3184873 -0.0232928  0.9996451  0.0266385 -0.0266385  0.9996451 
    1    13     1  1.3405340 -0.0182249  0.9996952  0.0246870 -0.0246870  0.9996952 
    1    13     2  1.3266473 -0.0225440  0.9997147  0.0238837 -0.0238837  0.9997147 
    1    13     3  1.3428844 -0.0187522  0.9997797  0.0209908 -0.0209908  0.9997797 
    1    13     4  1.3292530 -0.0229771  0.9997949  0.0202532 -0.0202532  0.9997949 
    1    14     1  1.3496888 -0.0188813  0.9998215  0.0188935 -0.0188935  0.9998215 
    1    14     2  1.3476945 -0.0176279  0.9997515  0.0222902 -0.0222902  0.9997515 
    1    14     3  1.3367938 -0.0230150  0.9998397  0.0179022 -0.0179022  0.9998397 
    1    14     4  1.3344536 -0.0218741  0.9997738  0.0212665 -0.0212665  0.9997738 
    1    15     1  1.3600256 -0.0201136  0.9998578  0.0168623 -0.0168623  0.9998578 
    1    15     2  1.3737649 -0.0158847  0.9998467  0.0175084 -0.0175084  0.9998467 
    1    15     3  1.3578923 -0.0197042  0.9997921  0.0203899 -0.0203899  0.9997921 
    1    15     4  1.3718992 -0.0153935  0.9997784  0.0210514 -0.0210514  0.9997784 
    1    16     1  1.3511226 -0.0202986  0.9997430  0.0226689 -0.0226689  0.9997430 
    1    16     2  1.3535129 -0.0201232  0.9998198  0.0189842 -0.0189842  0.9998198 
    1    16     3  1.3656153 -0.0159056  0.9997323  0.0231371 -0.0231371  0.9997323 
    1    16     4  1.3677859 -0.0158000  0.9998116  0.0194095 -0.0194095  0.9998116 
    1    17     1  1.3145791 -0.0265642  0.9998220  0.0188647 -0.0188647  0.9998220 
    1    17     2  1.3260232 -0.0224188  0.9997915  0.0204198 -0.0204198  0.9997915 
    1    17     3  1.3120424 -0.0240276  0.9997639  0.0217266 -0.0217266  0.9997639 
    1    17     4  1.3241283 -0.0196658  0.9997272  0.0233576 -0.0233576  0.9997272 
    1    18     1  1.3016668 -0.0249707  0.9996904  0.0248806 -0.0248806  0.9996904 
    1    18     2  1.3045728 -0.0263666  0.9997726  0.0213259 -0.0213259  0.9997726 
    1    18     3  1.3154288 -0.0203862  0.9996551  0.0262603 -0.0262603  0.9996551 
    1    18     4  1.3179855 -0.0219528  0.9997451  0.0225765 -0.0225765  0.9997451 
    1    19     1  1.2901360 -0.0214606  0.9996296  0.0272164 -0.0272164  0.9996296 
    1    19     2  1.2783681 -0.0275838  0.9997087  0.0241341 -0.0241341  0.9997087 
    1    19     3  1.2917820 -0.0276053  0.9996885  0.0249582 -0.0249582  0.9996885 
    1    19     4  1.2820390 -0.0323412  0.9997458  0.0225463 -0.0225463  0.9997458 
    1    20     1  1.3031278 -0.0257523  0.9997509  0.0223181 -0.0223181  0.9997509 
    1    20     2  1.3017832 -0.0220244  0.9997106  0.0240574 -0.0240574  0.9997106 
    1    20     3  1.2952108 -0.0296643  0.9997913  0.0204271 -0.0204271  0.9997913 
    1    20     4  1.2933746 -0.0258556  0.9997537  0.0221946 -0.0221946  0.9997537 
    1    21     1  1.2959605 -0.0264699  0.9997143  0.0239039 -0.0239039  0.9997143 
    1    21     2  1.3100854 -0.0220703  0.9996938  0.0247465 -0.0247465  0.9996938 
    1    21     3  1.2935324 -0.0254481  0.9996131  0.0278131 -0.0278131  0.9996131 
    1    21     4  1.3076023 -0.0209975  0.9995849  0.0288095 -0.0288095  0.9995849 
    1    22     1  1.2851478 -0.0272201  0.9994917  0.0318794 -0.0318794  0.9994917 
    1    22     2  1.2872914 -0.0260675  0.9996287  0.0272487 -0.0272487  0.9996287 
    1    22     3  1.2995999 -0.0229083  0.9994896  0.0319466 -0.0319466  0.9994896 
    1    22     4  1.3027821 -0.0214190  0.9996324  0.0271114 -0.0271114  0.9996324 
    1    23     1  1.2747070 -0.0264315  0.9994105  0.0343330 -0.0343330  0.9994105 
    1    23     2  1.2591426 -0.0310887  0.9994023  0.0345708 -0.0345708  0.9994023 
    1    23     3  1.2765508 -0.0246990  0.9995783  0.0290375 -0.0290375  0.9995783 
    1    23     4  1.2599132 -0.0297055  0.9995679  0.0293947 -0.0293947  0.9995679 
    1    24     1  1.2827622 -0.0246177  0.9996563  0.0262167 -0.0262167  0.9996563 
    1    24     2  1.2802543 -0.0231079  0.9995048  0.0314671 -0.0314671  0.9995048 
    1    24     3  1.2654393 -0.0300060  0.9996829  0.0251813 -0.0251813  0.9996829 
    1    24     4  1.2645282 -0.0282571  0.9995526  0.0299093 -0.0299093  0.9995526 
    1    25     1  1.2765828 -0.0306771  0.9997924  0.0203767 -0.0203767  0.9997924 
    1    25     2  1.2857106 -0.0267736  0.9997530  0.0222264 -0.0222264  0.9997530 
    1    25     3  1.2752955 -0.0282432  0.9997348  0.0230290 -0.0230290  0.9997348 
    1    25     4  1.2834388 -0.0252025  0.9997058  0.0242533 -0.0242533  0.9997058 
    1    26     1  1.2698968 -0.0281646  0.9996952  0.0246886 -0.0246886  0.9996952 
    1    26     2  1.2635171 -0.0342679  0.9996199  0.0275705 -0.0275705  0.9996199 
    1    26     3  1.2675220 -0.0232433  0.9996784  0.0253588 -0.0253588  0.9996784 
    1    26     4  1.2633991 -0.0291392  0.9996262  0.0273387 -0.0273387  0.9996262 
    1    27     1  1.2673596 -0.0272967  0.9997754  0.0211937 -0.0211937  0.9997754 
    1    27     2  1.2661547 -0.0281019  0.9996875  0.0249999 -0.0249999  0.9996875 
    1    27     3  1.2550057 -0.0310826  0.9997575  0.0220209 -0.0220209  0.9997575 
    1    27     4  1.2556684 -0.0312427  0.9996859  0.0250638 -0.0250638  0.9996859 
    1    28     1  1.2351338 -0.0375673  0.9995254  0.0308060 -0.0308060  0.9995254 
    1    28     2  1.2344744 -0.0317024  0.9996601  0.0260692 -0.0260692  0.9996601 
    1    28     3  1.2543720 -0.0304520  0.9996131  0.0278161 -0.0278161  0.9996131 
    1    28     4  1.2504895 -0.0259060  0.9997197  0.0236758 -0.0236758  0.9997197 
    1    29     1  1.2237231 -0.0352112  0.9994805  0.0322304 -0.0322304  0.9994805 
    1    29     2  1.2065804 -0.0406307  0.9994369  0.0335550 -0.0335550  0.9994369 
    1    29     3  1.2234212 -0.0324486  0.9996272  0.0273031 -0.0273031  0.9996272 
    1    29     4  1.2067826 -0.0376654  0.9995936  0.0285056 -0.0285056  0.9995936 
    1    30     1  1.2237889 -0.0327390  0.9997242  0.0234867 -0.0234867  0.9997242 
    1    30     2  1.2245200 -0.0337939  0.9995968  0.0283958 -0.0283958  0.9995968 
    1    30     3  1.2080050 -0.0375626  0.9997076  0.0241795 -0.0241795  0.9997076 
    1    30     4  1.2082235 -0.0387380  0.9995801  0.0289748 -0.0289748  0.9995801 
    1    31     1  1.2332192 -0.0334840  0.9997276  0.0233413 -0.0233413  0.9997276 
    1    31     2  1.2470412 -0.0289956  0.9997560  0.0220896 -0.0220896  0.9997560 
    1    31     3  1.2337123 -0.0353908  0.9996294  0.0272217 -0.0272217  0.9996294 
    1    31     4  1.2479056 -0.0309871  0.9996534  0.0263251 -0.0263251  0.9996534 
    1    32     1  1.2347862 -0.0343519  0.9996030  0.0281747 -0.0281747  0.9996030 
    1    32     2  1.2548293 -0.0282348  0.9996274  0.0272963 -0.0272963  0.9996274 
    1    32     3  1.2347837 -0.0365698  0.9994127  0.0342676 -0.0342676  0.9994127 
    1    32     4  1.2533296 -0.0307013  0.9994592  0.0328832 -0.0328832  0.9994592 
    1    33     1  1.2323957 -0.0345750  0.9993121  0.0370859 -0.0370859  0.9993121 
    1    33     2  1.2320213 -0.0337696  0.9994932  0.0318319 -0.0318319  0.9994932 
    1    33     3  1.2490183 -0.0295678  0.9993255  0.0367215 -0.0367215  0.9993255 
    1    33     4  1.2491328 -0.0286143  0.9995049  0.0314635 -0.0314635  0.9995049 
    1    34     1  1.2211571 -0.0340704  0.9992355  0.0390943 -0.0390943  0.9992355 
    1    34     2  1.2021190 -0.0399285  0.9991953  0.0401097 -0.0401097  0.9991953 
    1    34     3  1.2209701 -0.0319942  0.9994373  0.0335417 -0.0335417  0.9994373 
    1    34     4  1.2020354 -0.0377577  0.9994090  0.0343741 -0.0343741  0.9994090 
    1    35     1  1.2223035 -0.0321079  0.9995541  0.0298589 -0.0298589  0.9995541 
    1    35     2  1.2226928 -0.0341143  0.9993851  0.0350639 -0.0350639  0.9993851 
    1    35     3  1.2049100 -0.0374660  0.9995254  0.0308055 -0.0308055  0.9995254 
    1    35     4  1.2049639 -0.0396119  0.9993473  0.0361251 -0.0361251  0.9993473 
    1    36     1  1.2804532 -0.0276868  0.9997847  0.0207489 -0.0207489  0.9997847 
    1    36     2  1.2818521 -0.0301918  0.9998399  0.0178956 -0.0178956  0.9998399 
    1    36     3  1.2909620 -0.0238165  0.9997520  0.0222679 -0.0222679  0.9997520 
    1    36     4  1.2928696 -0.0262102  0.9998117  0.0194072 -0.0194072  0.9998117 
    1    37     1  1.2703874 -0.0270204  0.9997241  0.0234900 -0.0234900  0.9997241 
    1    37     2  1.2578186 -0.0310243  0.9997466  0.0225100 -0.0225100  0.9997466 
    1    37     3  1.2722306 -0.0280997  0.9998063  0.0196826 -0.0196826  0.9998063 
    1    37     4  1.2586905 -0.0323359  0.9998230  0.0188130 -0.0188130  0.9998230 
    1    38     1  1.2782412 -0.0277364  0.9998455  0.0175756 -0.0175756  0.9998455 
    1    38     2  1.2758869 -0.0231682  0.9997864  0.0206682 -0.0206682  0.9997864 
    1    38     3  1.2661378 -0.0327014  0.9998829  0.0153024 -0.0153024  0.9998829 
    1    38     4  1.2650057 -0.0285677  0.9998377  0.0180174 -0.0180174  0.9998377 
    1    39     1  1.2906797 -0.0299618  0.9998786  0.0155808 -0.0155808  0.9998786 
    1    39     2  1.2992386 -0.0262002  0.9998490  0.0173750 -0.0173750  0.9998490 
    1    39     3  1.2891756 -0.0262998  0.9998474  0.0174721 -0.0174721  0.9998474 
    1    39     4  1.2981326 -0.0221968  0.9998110  0.0194402 -0.0194402  0.9998110 
    1    40     1  1.2382016 -0.0357473  0.9998618  0.0166257 -0.0166257  0.9998618 
    1    40     2  1.2561234 -0.0302909  0.9998502  0.0173112 -0.0173112  0.9998502 
    1    40     3  1.2377942 -0.0347543  0.9997666  0.0216058 -0.0216058  0.9997666 
    1    40     4  1.2536317 -0.0300007  0.9997602  0.0218982 -0.0218982  0.9997602 
    1    41     1  1.2346086 -0.0340516  0.9997123  0.0239858 -0.0239858  0.9997123 
    1    41     2  1.2346974 -0.0346886  0.9998026  0.0198679 -0.0198679  0.9998026 
    1    41     3  1.2485908 -0.0298172  0.9997017  0.0244232 -0.0244232  0.9997017 
    1    41     4  1.2493283 -0.0302972  0.9997983  0.0200846 -0.0200846  0.9997983 
    1    42     1  1.2252974 -0.0333882  0.9996703  0.0256771 -0.0256771  0.9996703 
    1    42     2  1.2099365 -0.0379983  0.9996675  0.0257840 -0.0257840  0.9996675 
    1    42     3  1.2253565 -0.0331557  0.9997789  0.0210265 -0.0210265  0.9997789 
    1    42     4  1.2097184 -0.0378500  0.9997762  0.0211556 -0.0211556  0.9997762 
    1    43     1  1.2271691 -0.0333506  0.9998400  0.0178889 -0.0178889  0.9998400 
    1    43     2  1.2269562 -0.0345763  0.9997466  0.0225095 -0.0225095  0.9997466 
    1    43     3  1.2113897 -0.0380797  0.9998344  0.0181974 -0.0181974  0.9998344 
    1    43     4  1.2113026 -0.0392722  0.9997388  0.0228541 -0.0228541  0.9997388 
    1    44     1  1.2282866 -0.0363286  0.9998096  0.0195154 -0.0195154  0.9998096 
    1    44     2  1.2122887 -0.0411495  0.9998009  0.0199554 -0.0199554  0.9998009 
    1    44     3  1.2281589 -0.0352037  0.9998876  0.0149912 -0.0149912  0.9998876 
    1    44     4  1.2123235 -0.0399520  0.9998827  0.0153168 -0.0153168  0.9998827 
    1    45     1  1.2282343 -0.0357841  0.9999419  0.0107802 -0.0107802  0.9999419 
    1    45     2  1.2291811 -0.0349090  0.9998828  0.0153090 -0.0153090  0.9998828 
    1    45     3  1.2128823 -0.0403839  0.9999434  0.0106420 -0.0106420  0.9999434 
    1    45     4  1.2134224 -0.0396374  0.9998854  0.0151371 -0.0151371  0.9998854 
    1    46     1  1.2379868 -0.0350464  0.9999435  0.0106288 -0.0106288  0.9999435 
    1    46     2  1.2518025 -0.0307735  0.9999513  0.0098647 -0.0098647  0.9999513 
    1    46     3  1.2385993 -0.0361606  0.9998937  0.0145787 -0.0145787  0.9998937 
    1    46     4  1.2532013 -0.0317036  0.9999027  0.0139498 -0.0139498  0.9999027 
    1    47     1  1.2397335 -0.0375637  0.9998305  0.0184098 -0.0184098  0.9998305 
    1    47     2  1.2392895 -0.0344917  0.9999095  0.0134555 -0.0134555  0.9999095 
    1    47     3  1.2579421 -0.0317759  0.9998563  0.0169504 -0.0169504  0.9998563 
    1    47     4  1.2554677 -0.0295584  0.9999220  0.0124937 -0.0124937  0.9999220 
    1    48     1  1.2945040 -0.0264567  0.9998705  0.0160950 -0.0160950  0.9998705 
    1    48     2  1.2972451 -0.0290330  0.9999024  0.0139680 -0.0139680  0.9999024 
    1    48     3  1.3046017 -0.0227716  0.9998451  0.0176003 -0.0176003  0.9998451 
    1    48     4  1.3056217 -0.0255715  0.9998799  0.0155007 -0.0155007  0.9998799 
    1    49     1  1.2883810 -0.0206165  0.9998827  0.0153185 -0.0153185  0.9998827 
    1    49     2  1.2864674 -0.0292722  0.9999013  0.0140485 -0.0140485  0.9999013 
    1    49     3  1.2849218 -0.0297011  0.9998499  0.0173265 -0.0173265  0.9998499 
    1    49     4  1.2843313 -0.0340024  0.9998744  0.0158476 -0.0158476  0.9998744 
    1    50     1  1.2956870 -0.0281493  0.9999144  0.0130859 -0.0130859  0.9999144 
    1    50     2  1.3107654 -0.0236228  0.9999199  0.0126585 -0.0126585  0.9999199 
    1    50     3  1.2989049 -0.0285936  0.9998592  0.0167788 -0.0167788  0.9998592 
    1    50     4  1.3098569 -0.0250404  0.9998758  0.0157581 -0.0157581  0.9998758 
    1    51     1  1.2816709 -0.0282365  0.9998955  0.0144543 -0.0144543  0.9998955 
    1    51     2  1.2678603 -0.0341858  0.9998515  0.0172305 -0.0172305  0.9998515 
    1    51     3  1.2787362 -0.0231220  0.9999385  0.0110940 -0.0110940  0.9999385 
    1    51     4  1.2662071 -0.0294518  0.9998991  0.0142044 -0.0142044  0.9998991 
    1    52     1  1.2738412 -0.0264393  0.9999622  0.0086905 -0.0086905  0.9999622 
    1    52     2  1.2763379 -0.0290643  0.9999267  0.0121114 -0.0121114  0.9999267 
    1    52     3  1.2613147 -0.0309084  0.9999463  0.0103680 -0.0103680  0.9999463 
    1    52     4  1.2625518 -0.0338901  0.9999040  0.0138546 -0.0138546  0.9999040 
    1    53     1  1.2845323 -0.0273834  0.9999455  0.0104360 -0.0104360  0.9999455 
    1    53     2  1.2943689 -0.0224486  0.9999677  0.0080362 -0.0080362  0.9999677 
    1    53     3  1.2861947 -0.0320169  0.9999198  0.0126625 -0.0126625  0.9999198 
    1    53     4  1.2968309 -0.0267886  0.9999487  0.0101306 -0.0101306  0.9999487 
    1    54     1  1.2947029 -0.0317932  0.9998921  0.0146911 -0.0146911  0.9998921 
    1    54     2  1.2926137 -0.0259878  0.9999209  0.0125784 -0.0125784  0.9999209 
    1    54     3  1.3057649 -0.0259451  0.9999303  0.0118077 -0.0118077  0.9999303 
    1    54     4  1.3032956 -0.0208064  0.9999504  0.0099611 -0.0099611  0.9999504 
    1    55     1  1.2806117 -0.0323387  0.9999467  0.0103228 -0.0103228  0.9999467 
    1    55     2  1.2791396 -0.0283418  0.9999640  0.0084905 -0.0084905  0.9999640 
    1    55     3  1.2885726 -0.0273822  0.9999686  0.0079251 -0.0079251  0.9999686 
    1    55     4  1.2861541 -0.0247071  0.9999775  0.0067101 -0.0067101  0.9999775 
    1    56     1  1.2717759 -0.0287669  0.9999414  0.0108228 -0.0108228  0.9999414 
    1    56     2  1.2594042 -0.0323604  0.9999404  0.0109141 -0.0109141  0.9999404 
    1    56     3  1.2698662 -0.0279714  0.9999728  0.0073713 -0.0073713  0.9999728 
    1    56     4  1.2596256 -0.0311712  0.9999679  0.0080186 -0.0080186  0.9999679 
    1    57     1  1.2737751 -0.0287376  0.9999724  0.0074300 -0.0074300  0.9999724 
    1    57     2  1.2713126 -0.0241902  0.9999719  0.0074925 -0.0074925  0.9999719 
    1    57     3  1.2669981 -0.0333300  0.9999878  0.0049363 -0.0049363  0.9999878 
    1    57     4  1.2667976 -0.0288524  0.9999845  0.0055748 -0.0055748  0.9999845 
    1    58     1  1.2405791 -0.0359870  0.9999901  0.0044534 -0.0044534  0.9999901 
    1    58     2  1.2584129 -0.0303007  0.9999826  0.0058918 -0.0058918  0.9999826 
    1    58     3  1.2400937 -0.0333765  0.9999601  0.0089328 -0.0089328  0.9999601 
    1    58     4  1.2553252 -0.0286172  0.9999500  0.0099971 -0.0099971  0.9999500 
    1    59     1  1.2379082 -0.0341988  0.9999378  0.0111568 -0.0111568  0.9999378 
    1    59     2  1.2378409 -0.0353508  0.9999726  0.0074058 -0.0074058  0.9999726 
    1    59     3  1.2517313 -0.0299529  0.9999300  0.0118287 -0.0118287  0.9999300 
    1    59     4  1.2517629 -0.0311708  0.9999698  0.0077704 -0.0077704  0.9999698 
    1    60     1  1.2291519 -0.0328223  0.9999259  0.0121754 -0.0121754  0.9999259 
    1    60     2  1.2144089 -0.0372921  0.9999330  0.0115740 -0.0115740  0.9999330 
    1    60     3  1.2288057 -0.0345740  0.9999684  0.0079445 -0.0079445  0.9999684 
    1    60     4  1.2138187 -0.0391036  0.9999729  0.0073558 -0.0073558  0.9999729 
    1    61     1  1.2297473 -0.0333363  0.9999880  0.0048894 -0.0048894  0.9999880 
    1    61     2  1.2295357 -0.0333030  0.9999565  0.0093324 -0.0093324  0.9999565 
    1    61     3  1.2136625 -0.0381671  0.9999891  0.0046631 -0.0046631  0.9999891 
    1    61     4  1.2137104 -0.0380528  0.9999581  0.0091551 -0.0091551  0.9999581 
    1    62     1  1.2415269 -0.0359425  0.9999774  0.0067236 -0.0067236  0.9999774 
    1    62     2  1.2412905 -0.0349730  0.9999987  0.0016162 -0.0016162  0.9999987 
    1    62     3  1.2602461 -0.0302908  0.9999806  0.0062292 -0.0062292  0.9999806 
    1    62     4  1.2583555 -0.0298991  0.9999988  0.0015755 -0.0015755  0.9999988 
    1    63     1  1.2300617 -0.0340994  0.9999777  0.0066853 -0.0066853  0.9999777 
    1    63     2  1.2145938 -0.0387426  0.9999785  0.0065612 -0.0065612  0.9999785 
    1    63     3  1.2300778 -0.0342993  0.9999969  0.0024834 -0.0024834  0.9999969 
    1    63     4  1.2144988 -0.0389817  0.9999975  0.0022526 -0.0022526  0.9999975 
    1    64     1  1.2293775 -0.0342900  0.9999991 -0.0013665  0.0013665  0.9999991 
    1    64     2  1.2300798 -0.0327767  0.9999940  0.0034755 -0.0034755  0.9999940 
    1    64     3  1.2116366 -0.0396327  0.9999983 -0.0018586  0.0018586  0.9999983 
    1    64     4  1.2121529 -0.0381551  0.9999953  0.0030754 -0.0030754  0.9999953 
    1    65     1  1.2401050 -0.0347288  0.9999998 -0.0006284  0.0006284  0.9999998 
    1    65     2  1.2558058 -0.0299884  0.9999995 -0.0010231  0.0010231  0.9999995 
    1    65     3  1.2403000 -0.0353454  0.9999933  0.0036534 -0.0036534  0.9999933 
    1    65     4  1.2563187 -0.0305280  0.9999943  0.0033646 -0.0033646  0.9999943 
    1    66     1  1.2794696 -0.0268003  0.9999993 -0.0012041  0.0012041  0.9999993 
    1    66     2  1.2804177 -0.0276934  0.9999960  0.0028144 -0.0028144  0.9999960 
    1    66     3  1.2653154 -0.0311719  0.9999999 -0.0004438  0.0004438  0.9999999 
    1    66     4  1.2658236 -0.0321125  0.9999946  0.0032959 -0.0032959  0.9999946 
    1    67     1  1.2881645 -0.0276753  1.0000000  0.0000182 -0.0000182  1.0000000 
    1    67     2  1.2994626 -0.0238381  0.9999992 -0.0012272  0.0012272  0.9999992 
    1    67     3  1.2887061 -0.0294464  0.9999961  0.0027939 -0.0027939  0.9999961 
    1    67     4  1.3005288 -0.0257635  0.9999981  0.0019724 -0.0019724  0.9999981 
    1    68     1  1.2960999 -0.0301780  0.9999877  0.0049692 -0.0049692  0.9999877 
    1    68     2  1.2946405 -0.0262128  0.9999943  0.0033642 -0.0033642  0.9999943 
    1    68     3  1.3053218 -0.0257612  0.9999961  0.0027865 -0.0027865  0.9999961 
    1    68     4  1.3032928 -0.0214839  0.9999994  0.0010632 -0.0010632  0.9999994 
    1    69     1  1.2844475 -0.0272787  0.9999901  0.0044408 -0.0044408  0.9999901 
    1    69     2  1.2696731 -0.0328443  0.9999771  0.0067649 -0.0067649  0.9999771 
    1    69     3  1.2815888 -0.0231538  0.9999996  0.0008527 -0.0008527  0.9999996 
    1    69     4  1.2686201 -0.0288379  0.9999938  0.0035218 -0.0035218  0.9999938 
    1    70     1  1.2910524 -0.0210301  0.9999921  0.0039819 -0.0039819  0.9999921 
    1    70     2  1.2924951 -0.0280470  0.9999907  0.0043243 -0.0043243  0.9999907 
    1    70     3  1.2829838 -0.0284479  0.9999731  0.0073339 -0.0073339  0.9999731 
    1    70     4  1.2853632 -0.0339704  0.9999741  0.0071987 -0.0071987  0.9999741 
    1    71     1  1.3042578 -0.0249520  0.9999848  0.0055222 -0.0055222  0.9999848 
    1    71     2  1.3112392 -0.0192471  0.9999957  0.0029440 -0.0029440  0.9999957 
    1    71     3  1.3057823 -0.0301011  0.9999808  0.0061978 -0.0061978  0.9999808 
    1    71     4  1.3132557 -0.0244686  0.9999937  0.0035434 -0.0035434  0.9999937 
    1    72     1  1.3186495 -0.0303727  0.9999731  0.0073360 -0.0073360  0.9999731 
    1    72     2  1.3173479 -0.0235209  0.9999751  0.0070547 -0.0070547  0.9999751 
    1    72     3  1.3261065 -0.0234081  0.9999908  0.0042910 -0.0042910  0.9999908 
    1    72     4  1.3242558 -0.0176210  0.9999909  0.0042742 -0.0042742  0.9999909 
    1    73     1  1.3053615 -0.0260883  0.9999833  0.0057858 -0.0057858  0.9999833 
    1    73     2  1.2988322 -0.0316744  0.9999657  0.0082814 -0.0082814  0.9999657 
    1    73     3  1.3040268 -0.0209703  0.9999863  0.0052402 -0.0052402  0.9999863 
    1    73     4  1.2972844 -0.0262687  0.9999700  0.0077504 -0.0077504  0.9999700 
    1    74     1  1.3429627 -0.0214823  0.9999948  0.0032324 -0.0032324  0.9999948 
    1    74     2  1.3405119 -0.0278396  0.9999876  0.0049721 -0.0049721  0.9999876 
    1    74     3  1.3444585 -0.0146728  0.9999891  0.0046588 -0.0046588  0.9999891 
    1    74     4  1.3419099 -0.0216959  0.9999812  0.0061392 -0.0061392  0.9999812 
    1    75     1  1.3275961 -0.0172513  0.9999966  0.0025952 -0.0025952  0.9999966 
    1    75     2  1.3274943 -0.0224502  0.9999985  0.0017441 -0.0017441  0.9999985 
    1    75     3  1.3244697 -0.0225073  0.9999904  0.0043914 -0.0043914  0.9999904 
    1    75     4  1.3240046 -0.0282183  0.9999929  0.0037563 -0.0037563  0.9999929 
    1    76     1  1.3437977 -0.0213004  0.9999965  0.0026494 -0.0026494  0.9999965 
    1    76     2  1.3455349 -0.0149406  0.9999993  0.0012104 -0.0012104  0.9999993 
    1    76     3  1.3416549 -0.0278796  0.9999994  0.0011215 -0.0011215  0.9999994 
    1    76     4  1.3434403 -0.0214902  1.0000000 -0.0000229  0.0000229  1.0000000 
    1    77     1  1.3581975 -0.0258210  0.9999949  0.0031802 -0.0031802  0.9999949 
    1    77     2  1.3595275 -0.0198983  0.9999897  0.0045457 -0.0045457  0.9999897 
    1    77     3  1.3605179 -0.0196599  0.9999989  0.0015021 -0.0015021  0.9999989 
    1    77     4  1.3616668 -0.0142592  0.9999957  0.0029311 -0.0029311  0.9999957 
    1    78     1  1.3237488 -0.0276177  1.0000000 -0.0002214  0.0002214  1.0000000 
    1    78     2  1.3322773 -0.0224937  0.9999976  0.0021863 -0.0021863  0.9999976 
    1    78     3  1.3232568 -0.0224568  0.9999981  0.0019313 -0.0019313  0.9999981 
    1    78     4  1.3299810 -0.0200950  0.9999951  0.0031283 -0.0031283  0.9999951 
    1    79     1  1.3202984 -0.0231706  0.9999992  0.0012413 -0.0012413  0.9999992 
    1    79     2  1.3140276 -0.0275704  0.9999941  0.0034269 -0.0034269  0.9999941 
    1    79     3  1.3180681 -0.0194191  0.9999994  0.0010639 -0.0010639  0.9999994 
    1    79     4  1.3132194 -0.0236938  0.9999957  0.0029168 -0.0029168  0.9999957 
    1    80     1  1.3157966 -0.0224251  0.9999994 -0.0010593  0.0010593  0.9999994 
    1    80     2  1.3153573 -0.0247134  0.9999991  0.0013284 -0.0013284  0.9999991 
    1    80     3  1.3070682 -0.0255944  1.0000000  0.0001336 -0.0001336  1.0000000 
    1    80     4  1.3074749 -0.0272027  0.9999980  0.0019983 -0.0019983  0.9999980 
    1    81     1  1.3669665 -0.0199704  0.9999989  0.0014728 -0.0014728  0.9999989 
    1    81     2  1.3698728 -0.0232864  0.9999997  0.0008126 -0.0008126  0.9999997 
    1    81     3  1.3746416 -0.0156112  0.9999936  0.0035725 -0.0035725  0.9999936 
    1    81     4  1.3751319 -0.0192882  0.9999968  0.0025426 -0.0025426  0.9999968 
    1    82     1  1.3632130 -0.0148179  0.9999999 -0.0004326  0.0004326  0.9999999 
    1    82     2  1.3639714 -0.0199886  0.9999982  0.0019092 -0.0019092  0.9999982 
    1    82     3  1.3539702 -0.0201398  0.9999979  0.0020370 -0.0020370  0.9999979 
    1    82     4  1.3565805 -0.0225760  0.9999951  0.0031232 -0.0031232  0.9999951 
    1    83     1  1.3713778 -0.0196760  0.9999994 -0.0011141  0.0011141  0.9999994 
    1    83     2  1.3801442 -0.0168301  0.9999999 -0.0003822  0.0003822  0.9999999 
    1    83     3  1.3717825 -0.0183834  0.9999993  0.0012236 -0.0012236  0.9999993 
    1    83     4  1.3798461 -0.0159177  0.9999987  0.0015949 -0.0015949  0.9999987 
    1    84     1  1.3629785 -0.0147183  0.9999788  0.0065187 -0.0065187  0.9999788 
    1    84     2  1.3537036 -0.0204558  0.9999925  0.0038771 -0.0038771  0.9999925 
    1    84     3  1.3634291 -0.0203212  0.9999908  0.0042933 -0.0042933  0.9999908 
    1    84     4  1.3562016 -0.0232973  0.9999960  0.0028381 -0.0028381  0.9999960 
    1    85     1  1.3668431 -0.0198578  0.9999911  0.0042084 -0.0042084  0.9999911 
    1    85     2  1.3744867 -0.0150696  0.9999982  0.0019107 -0.0019107  0.9999982 
    1    85     3  1.3698089 -0.0236435  0.9999891  0.0046776 -0.0046776  0.9999891 
    1    85     4  1.3751206 -0.0192151  0.9999960  0.0028216 -0.0028216  0.9999960 
    1    86     1  1.3708708 -0.0202591  0.9999773  0.0067308 -0.0067308  0.9999773 
    1    86     2  1.3712266 -0.0187855  0.9999922  0.0039511 -0.0039511  0.9999922 
    1    86     3  1.3814137 -0.0167868  0.9999835  0.0057483 -0.0057483  0.9999835 
    1    86     4  1.3803524 -0.0159406  0.9999941  0.0034241 -0.0034241  0.9999941 
    1    87     1  1.3983844 -0.0158401  0.9999864  0.0052128 -0.0052128  0.9999864 
    1    87     2  1.3881820 -0.0194049  0.9999796  0.0063890 -0.0063890  0.9999796 
    1    87     3  1.3973765 -0.0136765  0.9999963  0.0027362 -0.0027362  0.9999963 
    1    87     4  1.3869580 -0.0172391  0.9999926  0.0038583 -0.0038583  0.9999926 
    1    88     1  1.3943404 -0.0136341  0.9999991  0.0013197 -0.0013197  0.9999991 
    1    88     2  1.3954356 -0.0155440  0.9999895  0.0045924 -0.0045924  0.9999895 
    1    88     3  1.3810872 -0.0179796  0.9999969  0.0024720 -0.0024720  0.9999969 
    1    88     4  1.3835516 -0.0192476  0.9999857  0.0053404 -0.0053404  0.9999857 
    1    89     1  1.4025370 -0.0162525  0.9999987  0.0016067 -0.0016067  0.9999987 
    1    89     2  1.4138691 -0.0127841  0.9999994  0.0011332 -0.0011332  0.9999994 
    1    89     3  1.4032931 -0.0166871  0.9999902  0.0044171 -0.0044171  0.9999902 
    1    89     4  1.4146441 -0.0132324  0.9999919  0.0040306 -0.0040306  0.9999919 
    1    90     1  1.4056069 -0.0173564  0.9999825  0.0059078 -0.0059078  0.9999825 
    1    90     2  1.4044396 -0.0157842  0.9999947  0.0032575 -0.0032575  0.9999947 
    1    90     3  1.4164956 -0.0138306  0.9999873  0.0050355 -0.0050355  0.9999873 
    1    90     4  1.4155025 -0.0121488  0.9999974  0.0022961 -0.0022961  0.9999974 
    1    91     1  1.3942365 -0.0141600  0.9999940  0.0034628 -0.0034628  0.9999940 
    1    91     2  1.3808410 -0.0182734  0.9999959  0.0028695 -0.0028695  0.9999959 
    1    91     3  1.3943563 -0.0153536  1.0000000  0.0001740 -0.0001740  1.0000000 
    1    91     4  1.3827888 -0.0188158  1.0000000 -0.0001027  0.0001027  1.0000000 
    1    92     1  1.3956724 -0.0156343  0.9999998 -0.0005548  0.0005548  0.9999998 
    1    92     2  1.3956222 -0.0145786  0.9999982  0.0018839 -0.0018839  0.9999982 
    1    92     3  1.3859762 -0.0186473  0.9999994 -0.0010805  0.0010805  0.9999994 
    1    92     4  1.3854472 -0.0176589  0.9999988  0.0015207 -0.0015207  0.9999988 
    1    93     1  1.4020069 -0.0168122  0.9999996 -0.0009433  0.0009433  0.9999996 
    1    93     2  1.4131371 -0.0134744  0.9999996 -0.0009003  0.0009003  0.9999996 
    1    93     3  1.4018623 -0.0166486  0.9999982  0.0018985 -0.0018985  0.9999982 
    1    93     4  1.4132348 -0.0132376  0.9999981  0.0019395 -0.0019395  0.9999981 
    1    94     1  1.4021274 -0.0168321  0.9999945  0.0033240 -0.0033240  0.9999945 
    1    94     2  1.4020393 -0.0162318  0.9999999  0.0005018 -0.0005018  0.9999999 
    1    94     3  1.4135050 -0.0134052  0.9999952  0.0030919 -0.0030919  0.9999952 
    1    94     4  1.4133111 -0.0128224  1.0000000  0.0002104 -0.0002104  1.0000000 
    1    95     1  1.4341045 -0.0120621  0.9999894  0.0045981 -0.0045981  0.9999894 
    1    95     2  1.4236014 -0.0153888  0.9999860  0.0052903 -0.0052903  0.9999860 
    1    95     3  1.4332374 -0.0108405  0.9999981  0.0019618 -0.0019618  0.9999981 
    1    95     4  1.4226522 -0.0142377  0.9999962  0.0027402 -0.0027402  0.9999962 
    1    96     1  1.4319443 -0.0112461  0.9999995  0.0010267 -0.0010267  0.9999995 
    1    96     2  1.4325284 -0.0119040  0.9999929  0.0037702 -0.0037702  0.9999929 
    1    96     3  1.4210249 -0.0145982  0.9999989  0.0014941 -0.0014941  0.9999989 
    1    96     4  1.4216651 -0.0152211  0.9999913  0.0041756 -0.0041756  0.9999913 
    1    97     1  1.4387278 -0.0132302  0.9999991  0.0013099 -0.0013099  0.9999991 
    1    97     2  1.4493890 -0.0099815  0.9999996  0.0009388 -0.0009388  0.9999996 
    1    97     3  1.4392618 -0.0137234  0.9999924  0.0038934 -0.0038934  0.9999924 
    1    97     4  1.4498182 -0.0105190  0.9999936  0.0035753 -0.0035753  0.9999936 
    1    98     1  1.4408239 -0.0138335  0.9999882  0.0048620 -0.0048620  0.9999882 
    1    98     2  1.4400323 -0.0129501  0.9999971  0.0024135 -0.0024135  0.9999971 
    1    98     3  1.4509690 -0.0106740  0.9999907  0.0043157 -0.0043157  0.9999907 
    1    98     4  1.4503413 -0.0097069  0.9999984  0.0017856 -0.0017856  0.9999984 
    1    99     1  1.4315622 -0.0118632  0.9999959  0.0028806 -0.0028806  0.9999959 
    1    99     2  1.4205140 -0.0151932  0.9999952  0.0030954 -0.0030954  0.9999952 
    1    99     3  1.4312723 -0.0114771  1.0000000  0.0001001 -0.0001001  1.0000000 
    1    99     4  1.4202373 -0.0148099  0.9999999  0.0003538 -0.0003538  0.9999999 
    1   100     1  1.4310484 -0.0117378  0.9999996 -0.0008750  0.0008750  0.9999996 
    1   100     2  1.4311175 -0.0118997  0.9999982  0.0019050 -0.0019050  0.9999982 
    1   100     3  1.4200110 -0.0150517  0.9999997 -0.0007854  0.0007854  0.9999997 
    1   100     4  1.4200713 -0.0152148  0.9999981  0.0019741 -0.0019741  0.9999981 
    1   101     1  1.4378055 -0.0136208  0.9999997 -0.0008198  0.0008198  0.9999997 
    1   101     2  1.4486899 -0.0103544  0.9999996 -0.0008779  0.0008779  0.9999996 
    1   101     3  1.4378949 -0.0136990  0.9999982  0.0018821 -0.0018821  0.9999982 
    1   101     4  1.4487640 -0.0104377  0.9999983  0.0018370 -0.0018370  0.9999983 
    1   102     1  1.4383344 -0.0137069  0.9999958  0.0029052 -0.0029052  0.9999958 
    1   102     2  1.4380337 -0.0134571  1.0000000  0.0002428 -0.0002428  1.0000000 
    1   102     3  1.4491145 -0.0104639  0.9999962  0.0027458 -0.0027458  0.9999962 
    1   102     4  1.4488697 -0.0101938  1.0000000  0.0000556 -0.0000556  1.0000000 
    1   103     1  1.4672145 -0.0092722  0.9999913  0.0041607 -0.0041607  0.9999913 
    1   103     2  1.4573444 -0.0122801  0.9999899  0.0045021 -0.0045021  0.9999899 
    1   103     3  1.4668846 -0.0086213  0.9999985  0.0017474 -0.0017474  0.9999985 
    1   103     4  1.4567962 -0.0117183  0.9999976  0.0021695 -0.0021695  0.9999976 
    1   104     1  1.4663571 -0.0089277  0.9999996  0.0009464 -0.0009464  0.9999996 
    1   104     2  1.4666612 -0.0090762  0.9999939  0.0034809 -0.0034809  0.9999939 
    1   104     3  1.4558975 -0.0120745  0.9999994  0.0011047 -0.0011047  0.9999994 
    1   104     4  1.4563428 -0.0121770  0.9999935  0.0035983 -0.0035983  0.9999935 
    1   105     1  1.4727359 -0.0113754  0.9999997  0.0008182 -0.0008182  0.9999997 
    1   105     2  1.4833366 -0.0081679  0.9999994  0.0010947 -0.0010947  0.9999994 
    1   105     3  1.4732218 -0.0105494  0.9999944  0.0033494 -0.0033494  0.9999944 
    1   105     4  1.4836478 -0.0073997  0.9999935  0.0035999 -0.0035999  0.9999935 
    1   106     1  1.4732031 -0.0106460  0.9999920  0.0040007 -0.0040007  0.9999920 
    1   106     2  1.4729412 -0.0104645  0.9999982  0.0019022 -0.0019022  0.9999982 
    1   106     3  1.4829370 -0.0077304  0.9999922  0.0039599 -0.0039599  0.9999922 
    1   106     4  1.4829025 -0.0074627  0.9999985  0.0017172 -0.0017172  0.9999985 
    1   107     1  1.4734727 -0.0100121  0.9999956  0.0029521 -0.0029521  0.9999956 
    1   107     2  1.4829407 -0.0069805  0.9999974  0.0022891 -0.0022891  0.9999974 
    1   107     3  1.4735397 -0.0111139  0.9999876  0.0049762 -0.0049762  0.9999876 
    1   107     4  1.4827001 -0.0082496  0.9999901  0.0044589 -0.0044589  0.9999901 
    1   108     1  1.4740788 -0.0119046  0.9999837  0.0057024 -0.0057024  0.9999837 
    1   108     2  1.4742166 -0.0099965  0.9999947  0.0032706 -0.0032706  0.9999947 
    1   108     3  1.4831059 -0.0089325  0.9999878  0.0049419 -0.0049419  0.9999878 
    1   108     4  1.4835483 -0.0070291  0.9999966  0.0026219 -0.0026219  0.9999966 
    1   109     1  1.4686347 -0.0096114  0.9999856  0.0053574 -0.0053574  0.9999856 
    1   109     2  1.4602075 -0.0123574  0.9999818  0.0060316 -0.0060316  0.9999818 
    1   109     3  1.4684366 -0.0081507  0.9999947  0.0032486 -0.0032486  0.9999947 
    1   109     4  1.4594990 -0.0110273  0.9999923  0.0039137 -0.0039137  0.9999923 
    1   110     1  1.4676698 -0.0082172  0.9999969  0.0025090 -0.0025090  0.9999969 
    1   110     2  1.4679312 -0.0095647  0.9999887  0.0047596 -0.0047596  0.9999887 
    1   110     3  1.4582073 -0.0112601  0.9999949  0.0031999 -0.0031999  0.9999949 
    1   110     4  1.4588267 -0.0124620  0.9999855  0.0053763 -0.0053763  0.9999855 
    1   111     1  1.4423579 -0.0124370  0.9999933  0.0036484 -0.0036484  0.9999933 
    1   111     2  1.4518222 -0.0091922  0.9999964  0.0026682 -0.0026682  0.9999964 
    1   111     3  1.4434069 -0.0139179  0.9999831  0.0058222 -0.0058222  0.9999831 
    1   111     4  1.4526076 -0.0108551  0.9999876  0.0049844 -0.0049844  0.9999876 
    1   112     1  1.4476406 -0.0138765  0.9999784  0.0065783 -0.0065783  0.9999784 
    1   112     2  1.4463664 -0.0117110  0.9999872  0.0050627 -0.0050627  0.9999872 
    1   112     3  1.4545797 -0.0111501  0.9999848  0.0055157 -0.0055157  0.9999848 
    1   112     4  1.4540058 -0.0086036  0.9999927  0.0038230 -0.0038230  0.9999927 
    1   113     1  1.4397258 -0.0117654  0.9999826  0.0058923 -0.0058923  0.9999826 
    1   113     2  1.4313953 -0.0154513  0.9999722  0.0074632 -0.0074632  0.9999722 
    1   113     3  1.4379705 -0.0082868  0.9999922  0.0039617 -0.0039617  0.9999922 
    1   113     4  1.4300322 -0.0125647  0.9999828  0.0058706 -0.0058706  0.9999828 
    1   114     1  1.4352583 -0.0103156  0.9999961  0.0028007 -0.0028007  0.9999961 
    1   114     2  1.4365856 -0.0120821  0.9999858  0.0053200 -0.0053200  0.9999858 
    1   114     3  1.4250232 -0.0138666  0.9999923  0.0039216 -0.0039216  0.9999923 
    1   114     4  1.4263702 -0.0155392  0.9999799  0.0063326 -0.0063326  0.9999799 
    1   115     1  1.4448812 -0.0081384  0.9999811  0.0061490 -0.0061490  0.9999811 
    1   115     2  1.4430589 -0.0128709  0.9999865  0.0051873 -0.0051873  0.9999865 
    1   115     3  1.4437527 -0.0130817  0.9999775  0.0067049 -0.0067049  0.9999775 
    1   115     4  1.4426935 -0.0152818  0.9999830  0.0058347 -0.0058347  0.9999830 
    1   116     1  1.4482147 -0.0121279  0.9999859  0.0053095 -0.0053095  0.9999859 
    1   116     2  1.4560671 -0.0095461  0.9999895  0.0045897 -0.0045897  0.9999895 
    1   116     3  1.4502469 -0.0133430  0.9999760  0.0069275 -0.0069275  0.9999760 
    1   116     4  1.4565020 -0.0110400  0.9999813  0.0061187 -0.0061187  0.9999813 
    1   117     1  1.4485904 -0.0121428  0.9999776  0.0066968 -0.0066968  0.9999776 
    1   117     2  1.4502149 -0.0127217  0.9999878  0.0049418 -0.0049418  0.9999878 
    1   117     3  1.4562660 -0.0098087  0.9999753  0.0070306 -0.0070306  0.9999753 
    1   117     4  1.4564988 -0.0106634  0.9999851  0.0054661 -0.0054661  0.9999851 
    1   118     1  1.4688781 -0.0092007  0.9999755  0.0070015 -0.0070015  0.9999755 
    1   118     2  1.4606810 -0.0116598  0.9999755  0.0069939 -0.0069939  0.9999755 
    1   118     3  1.4689556 -0.0091773  0.9999874  0.0050222 -0.0050222  0.9999874 
    1   118     4  1.4608936 -0.0115963  0.9999880  0.0049070 -0.0049070  0.9999880 
    1   119     1  1.4689877 -0.0090791  0.9999914  0.0041540 -0.0041540  0.9999914 
    1   119     2  1.4692578 -0.0093437  0.9999809  0.0061749 -0.0061749  0.9999809 
    1   119     3  1.4605884 -0.0116109  0.9999907  0.0043133 -0.0043133  0.9999907 
    1   119     4  1.4611476 -0.0118114  0.9999791  0.0064608 -0.0064608  0.9999791 
    1   120     1  1.4741462 -0.0114066  0.9999929  0.0037686 -0.0037686  0.9999929 
    1   120     2  1.4830108 -0.0087258  0.9999921  0.0039848 -0.0039848  0.9999921 
    1   120     3  1.4745848 -0.0108362  0.9999803  0.0062768 -0.0062768  0.9999803 
    1   120     4  1.4832473 -0.0082535  0.9999803  0.0062727 -0.0062727  0.9999803 
    1   121     1  1.4738256 -0.0102545  0.9999789  0.0064895 -0.0064895  0.9999789 
    1   121     2  1.4736796 -0.0108085  0.9999899  0.0044884 -0.0044884  0.9999899 
    1   121     3  1.4822629 -0.0076825  0.9999770  0.0067810 -0.0067810  0.9999770 
    1   121     4  1.4820599 -0.0082658  0.9999888  0.0047310 -0.0047310  0.9999888 
    1   122     1  1.4730184 -0.0105075  0.9999863  0.0052356 -0.0052356  0.9999863 
    1   122     2  1.4817303 -0.0078962  0.9999867  0.0051545 -0.0051545  0.9999867 
    1   122     3  1.4728933 -0.0105071  0.9999737  0.0072548 -0.0072548  0.9999737 
    1   122     4  1.4817422 -0.0078519  0.9999733  0.0073017 -0.0073017  0.9999733 
    1   123     1  1.4736800 -0.0110760  0.9999659  0.0082582 -0.0082582  0.9999659 
    1   123     2  1.4734891 -0.0097633  0.9999809  0.0061773 -0.0061773  0.9999809 
    1   123     3  1.4816533 -0.0085882  0.9999696  0.0077954 -0.0077954  0.9999696 
    1   123     4  1.4818915 -0.0071222  0.9999840  0.0056616 -0.0056616  0.9999840 
    1   124     1  1.4673550 -0.0082291  0.9999647  0.0084055 -0.0084055  0.9999647 
    1   124     2  1.4563668 -0.0115324  0.9999658  0.0082670 -0.0082670  0.9999658 
    1   124     3  1.4667888 -0.0087266  0.9999845  0.0055690 -0.0055690  0.9999845 
    1   124     4  1.4570204 -0.0116200  0.9999832  0.0058034 -0.0058034  0.9999832 
    1   125     1  1.4679850 -0.0093588  0.9999843  0.0055968 -0.0055968  0.9999843 
    1   125     2  1.4678961 -0.0085735  0.9999705  0.0076849 -0.0076849  0.9999705 
    1   125     3  1.4598097 -0.0118814  0.9999864  0.0052201 -0.0052201  0.9999864 
    1   125     4  1.4592399 -0.0112329  0.9999732  0.0073164 -0.0073164  0.9999732 
    1   126     1  1.4405675 -0.0108070  0.9999794  0.0064204 -0.0064204  0.9999794 
    1   126     2  1.4390658 -0.0094354  0.9999620  0.0087192 -0.0087192  0.9999620 
    1   126     3  1.4316565 -0.0138430  0.9999848  0.0055146 -0.0055146  0.9999848 
    1   126     4  1.4311156 -0.0124302  0.9999716  0.0075347 -0.0075347  0.9999716 
    1   127     1  1.4479171 -0.0131157  0.9999858  0.0053217 -0.0053217  0.9999858 
    1   127     2  1.4545682 -0.0107260  0.9999812  0.0061311 -0.0061311  0.9999812 
    1   127     3  1.4469195 -0.0115417  0.9999760  0.0069233 -0.0069233  0.9999760 
    1   127     4  1.4541467 -0.0089285  0.9999694  0.0078185 -0.0078185  0.9999694 
    1   128     1  1.4423478 -0.0126038  0.9999669  0.0081327 -0.0081327  0.9999669 
    1   128     2  1.4439365 -0.0147016  0.9999807  0.0062083 -0.0062083  0.9999807 
    1   128     3  1.4511021 -0.0092589  0.9999560  0.0093797 -0.0093797  0.9999560 
    1   128     4  1.4514713 -0.0114889  0.9999715  0.0075440 -0.0075440  0.9999715 
    1   129     1  1.4347508 -0.0112556  0.9999549  0.0095019 -0.0095019  0.9999549 
    1   129     2  1.4294561 -0.0130740  0.9999600  0.0089410 -0.0089410  0.9999600 
    1   129     3  1.4358302 -0.0121479  0.9999656  0.0082949 -0.0082949  0.9999656 
    1   129     4  1.4294367 -0.0146520  0.9999734  0.0072968 -0.0072968  0.9999734 
    1   130     1  1.4364432 -0.0163178  0.9999646  0.0084083 -0.0084083  0.9999646 
    1   130     2  1.4398247 -0.0121456  0.9999506  0.0099385 -0.0099385  0.9999506 
    1   130     3  1.4362703 -0.0119438  0.9999661  0.0082363 -0.0082363  0.9999661 
    1   130     4  1.4393748 -0.0086989  0.9999534  0.0096573 -0.0096573  0.9999534 
    1   131     1  1.4270648 -0.0124922  0.9999618  0.0087389 -0.0087389  0.9999618 
    1   131     2  1.4274669 -0.0154723  0.9999628  0.0086295 -0.0086295  0.9999628 
    1   131     3  1.4301242 -0.0093391  0.9999505  0.0099546 -0.0099546  0.9999505 
    1   131     4  1.4312183 -0.0124488  0.9999495  0.0100493 -0.0100493  0.9999495 
    1   132     1  1.4191377 -0.0094094  0.9999477  0.0102311 -0.0102311  0.9999477 
    1   132     2  1.4160159 -0.0148115  0.9999638  0.0085107 -0.0085107  0.9999638 
    1   132     3  1.4185302 -0.0150451  0.9999419  0.0107757 -0.0107757  0.9999419 
    1   132     4  1.4160784 -0.0185892  0.9999568  0.0092967 -0.0092967  0.9999568 
    1   133     1  1.4276098 -0.0135525  0.9999486  0.0101403 -0.0101403  0.9999486 
    1   133     2  1.4282366 -0.0104319  0.9999527  0.0097231 -0.0097231  0.9999527 
    1   133     3  1.4263817 -0.0163472  0.9999562  0.0093641 -0.0093641  0.9999562 
    1   133     4  1.4267995 -0.0133076  0.9999628  0.0086200 -0.0086200  0.9999628 
    1   134     1  1.4509931 -0.0113039  0.9999518  0.0098154 -0.0098154  0.9999518 
    1   134     2  1.4530954 -0.0071702  0.9999628  0.0086201 -0.0086201  0.9999628 
    1   134     3  1.4505188 -0.0155363  0.9999581  0.0091577 -0.0091577  0.9999581 
    1   134     4  1.4525352 -0.0113366  0.9999673  0.0080817 -0.0080817  0.9999673 
    1   135     1  1.4634529 -0.0143836  0.9999494  0.0100565 -0.0100565  0.9999494 
    1   135     2  1.4629381 -0.0100240  0.9999457  0.0104217 -0.0104217  0.9999457 
    1   135     3  1.4672618 -0.0095242  0.9999651  0.0083489 -0.0083489  0.9999651 
    1   135     4  1.4661692 -0.0063637  0.9999599  0.0089557 -0.0089557  0.9999599 
    1   136     1  1.4516673 -0.0099156  0.9999459  0.0103979 -0.0103979  0.9999459 
    1   136     2  1.4424431 -0.0149305  0.9999207  0.0125935 -0.0125935  0.9999207 
    1   136     3  1.4480734 -0.0069400  0.9999595  0.0089996 -0.0089996  0.9999595 
    1   136     4  1.4405519 -0.0116209  0.9999387  0.0110685 -0.0110685  0.9999387 
    1   137     1  1.4386683 -0.0090925  0.9999601  0.0089275 -0.0089275  0.9999601 
    1   137     2  1.4402782 -0.0110468  0.9999576  0.0092041 -0.0092041  0.9999576 
    1   137     3  1.4348624 -0.0115985  0.9999496  0.0100419 -0.0100419  0.9999496 
    1   137     4  1.4355470 -0.0149782  0.9999418  0.0107876 -0.0107876  0.9999418 
    1   138     1  1.4724547 -0.0108735  0.9999648  0.0083945 -0.0083945  0.9999648 
    1   138     2  1.4753006 -0.0126264  0.9999730  0.0073552 -0.0073552  0.9999730 
    1   138     3  1.4808501 -0.0070672  0.9999502  0.0099846 -0.0099846  0.9999502 
    1   138     4  1.4805559 -0.0096417  0.9999625  0.0086603 -0.0086603  0.9999625 
    1   139     1  1.4675505 -0.0063335  0.9999767  0.0068285 -0.0068285  0.9999767 
    1   139     2  1.4691627 -0.0101134  0.9999642  0.0084668 -0.0084668  0.9999642 
    1   139     3  1.4602129 -0.0108164  0.9999615  0.0087741 -0.0087741  0.9999615 
    1   139     4  1.4628652 -0.0128311  0.9999535  0.0096431 -0.0096431  0.9999535 
    1   140     1  1.4740612 -0.0111171  0.9999785  0.0065524 -0.0065524  0.9999785 
    1   140     2  1.4818706 -0.0087367  0.9999765  0.0068575 -0.0068575  0.9999765 
    1   140     3  1.4756257 -0.0103029  0.9999623  0.0086856 -0.0086856  0.9999623 
    1   140     4  1.4823019 -0.0083128  0.9999624  0.0086701 -0.0086701  0.9999624 
    1   141     1  1.4601236 -0.0056482  0.9999331  0.0115696 -0.0115696  0.9999331 
    1   141     2  1.4560203 -0.0113077  0.9999523  0.0097675 -0.0097675  0.9999523 
    1   141     3  1.4599736 -0.0112781  0.9999334  0.0115419 -0.0115419  0.9999334 
    1   141     4  1.4569358 -0.0142777  0.9999479  0.0102033 -0.0102033  0.9999479 
    1   142     1  1.4667685 -0.0112360  0.9999538  0.0096080 -0.0096080  0.9999538 
    1   142     2  1.4790870 -0.0067202  0.9999677  0.0080392 -0.0080392  0.9999677 
    1   142     3  1.4706490 -0.0129774  0.9999319  0.0116706 -0.0116706  0.9999319 
    1   142     4  1.4790868 -0.0092581  0.9999491  0.0100940 -0.0100940  0.9999491 
    1   143     1  1.4669329 -0.0113771  0.9999335  0.0115286 -0.0115286  0.9999335 
    1   143     2  1.4692164 -0.0114743  0.9999603  0.0089055 -0.0089055  0.9999603 
    1   143     3  1.4778405 -0.0081174  0.9999318  0.0116778 -0.0116778  0.9999318 
    1   143     4  1.4780356 -0.0087331  0.9999559  0.0093862 -0.0093862  0.9999559 
    1   144     1  1.4185208 -0.0160609  0.9999100  0.0134176 -0.0134176  0.9999100 
    1   144     2  1.4187174 -0.0138375  0.9999504  0.0099608 -0.0099608  0.9999504 
    1   144     3  1.4340924 -0.0112097  0.9999219  0.0124978 -0.0124978  0.9999219 
    1   144     4  1.4312024 -0.0100117  0.9999565  0.0093300 -0.0093300  0.9999565 
    1   145     1  1.4092605 -0.0126243  0.9998907  0.0147855 -0.0147855  0.9998907 
    1   145     2  1.3956337 -0.0167916  0.9998986  0.0142411 -0.0142411  0.9998986 
    1   145     3  1.4098154 -0.0133423  0.9999352  0.0113850 -0.0113850  0.9999352 
    1   145     4  1.3966890 -0.0173439  0.9999405  0.0109120 -0.0109120  0.9999405 
    1   146     1  1.4131884 -0.0127699  0.9999484  0.0101553 -0.0101553  0.9999484 
    1   146     2  1.4116076 -0.0102474  0.9999128  0.0132047 -0.0132047  0.9999128 
    1   146     3  1.4016225 -0.0167546  0.9999604  0.0088943 -0.0088943  0.9999604 
    1   146     4  1.4005381 -0.0146475  0.9999353  0.0113766 -0.0113766  0.9999353 
    1   147     1  1.4213894 -0.0139794  0.9999592  0.0090371 -0.0090371  0.9999592 
    1   147     2  1.4285762 -0.0118348  0.9999582  0.0091439 -0.0091439  0.9999582 
    1   147     3  1.4205717 -0.0136832  0.9999417  0.0108008 -0.0108008  0.9999417 
    1   147     4  1.4300531 -0.0106793  0.9999337  0.0115176 -0.0115176  0.9999337 
    1   148     1  1.4070562 -0.0130492  0.9999219  0.0125011 -0.0125011  0.9999219 
    1   148     2  1.4060767 -0.0131414  0.9998719  0.0160082 -0.0160082  0.9998719 
    1   148     3  1.3932767 -0.0171994  0.9999258  0.0121852 -0.0121852  0.9999258 
    1   148     4  1.3918421 -0.0174233  0.9998762  0.0157319 -0.0157319  0.9998762 
    1   149     1  1.4171481 -0.0157227  0.9999377  0.0111593 -0.0111593  0.9999377 
    1   149     2  1.4330400 -0.0109037  0.9999324  0.0116285 -0.0116285  0.9999324 
    1   149     3  1.4159558 -0.0153669  0.9998856  0.0151264 -0.0151264  0.9998856 
    1   149     4  1.4310497 -0.0108474  0.9998838  0.0152461 -0.0152461  0.9998838 
    1   150     1  1.4113701 -0.0149439  0.9998677  0.0162641 -0.0162641  0.9998677 
    1   150     2  1.4127592 -0.0153501  0.9999185  0.0127705 -0.0127705  0.9999185 
    1   150     3  1.4257453 -0.0105575  0.9998588  0.0168038 -0.0168038  0.9998588 
    1   150     4  1.4270549 -0.0109952  0.9999119  0.0132712 -0.0132712  0.9999119 
    1   151     1  1.4016805 -0.0128029  0.9998390  0.0179438 -0.0179438  0.9998390 
    1   151     2  1.3873675 -0.0171573  0.9998476  0.0174576 -0.0174576  0.9998476 
    1   151     3  1.4031303 -0.0132057  0.9998964  0.0143970 -0.0143970  0.9998964 
    1   151     4  1.3889497 -0.0175319  0.9999038  0.0138674 -0.0138674  0.9999038 
    1   152     1  1.4550327 -0.0090372  0.9999377  0.0111604 -0.0111604  0.9999377 
    1   152     2  1.4532439 -0.0068575  0.9998950  0.0144941 -0.0144941  0.9998950 
    1   152     3  1.4419630 -0.0133840  0.9999502  0.0099758 -0.0099758  0.9999502 
    1   152     4  1.4406162 -0.0114826  0.9999180  0.0128080 -0.0128080  0.9999180 
    1   153     1  1.4650685 -0.0115633  0.9999547  0.0095143 -0.0095143  0.9999547 
    1   153     2  1.4757344 -0.0081713  0.9999474  0.0102583 -0.0102583  0.9999474 
    1   153     3  1.4640467 -0.0099988  0.9999284  0.0119633 -0.0119633  0.9999284 
    1   153     4  1.4759979 -0.0060628  0.9999158  0.0129764 -0.0129764  0.9999158 
    1   154     1  1.4593500 -0.0117000  0.9999024  0.0139687 -0.0139687  0.9999024 
    1   154     2  1.4602599 -0.0110097  0.9999424  0.0107335 -0.0107335  0.9999424 
    1   154     3  1.4739468 -0.0073479  0.9999014  0.0140426 -0.0140426  0.9999014 
    1   154     4  1.4741946 -0.0068332  0.9999432  0.0106578 -0.0106578  0.9999432 
    1   155     1  1.4500199 -0.0088992  0.9998768  0.0156953 -0.0156953  0.9998768 
    1   155     2  1.4353106 -0.0133498  0.9998834  0.0152679 -0.0152679  0.9998834 
    1   155     3  1.4510587 -0.0090394  0.9999263  0.0121417 -0.0121417  0.9999263 
    1   155     4  1.4366107 -0.0134032  0.9999304  0.0117990 -0.0117990  0.9999304 
    1   156     1  1.4080589 -0.0153660  0.9998957  0.0144432 -0.0144432  0.9998957 
    1   156     2  1.4227437 -0.0109434  0.9998916  0.0147258 -0.0147258  0.9998916 
    1   156     3  1.4064749 -0.0155504  0.9998375  0.0180288 -0.0180288  0.9998375 
    1   156     4  1.4214110 -0.0110526  0.9998319  0.0183333 -0.0183333  0.9998319 
    1   157     1  1.4013935 -0.0159818  0.9998038  0.0198088 -0.0198088  0.9998038 
    1   157     2  1.4031193 -0.0153669  0.9998699  0.0161291 -0.0161291  0.9998699 
    1   157     3  1.4169404 -0.0113231  0.9998013  0.0199321 -0.0199321  0.9998013 
    1   157     4  1.4183421 -0.0108027  0.9998682  0.0162354 -0.0162354  0.9998682 
    1   158     1  1.3910309 -0.0136065  0.9997679  0.0215422 -0.0215422  0.9997679 
    1   158     2  1.3760565 -0.0181047  0.9997733  0.0212922 -0.0212922  0.9997733 
    1   158     3  1.3928909 -0.0131719  0.9998410  0.0178312 -0.0178312  0.9998410 
    1   158     4  1.3781762 -0.0175935  0.9998450  0.0176088 -0.0176088  0.9998450 
    1   159     1  1.3981306 -0.0132598  0.9998702  0.0161119 -0.0161119  0.9998702 
    1   159     2  1.3964768 -0.0131894  0.9998057  0.0197126 -0.0197126  0.9998057 
    1   159     3  1.3838699 -0.0175804  0.9998768  0.0156936 -0.0156936  0.9998768 
    1   159     4  1.3819810 -0.0175807  0.9998141  0.0192802 -0.0192802  0.9998141 
    1   160     1  1.4433601 -0.0092342  0.9998325  0.0183027 -0.0183027  0.9998325 
    1   160     2  1.4272638 -0.0140556  0.9998324  0.0183083 -0.0183083  0.9998324 
    1   160     3  1.4441759 -0.0086920  0.9998935  0.0145969 -0.0145969  0.9998935 
    1   160     4  1.4284939 -0.0133903  0.9998936  0.0145863 -0.0145863  0.9998936 
    1   161     1  1.4475055 -0.0088418  0.9999114  0.0133110 -0.0133110  0.9999114 
    1   161     2  1.4466814 -0.0090837  0.9998567  0.0169305 -0.0169305  0.9998567 
    1   161     3  1.4325224 -0.0133376  0.9999131  0.0131843 -0.0131843  0.9999131 
    1   161     4  1.4313124 -0.0136935  0.9998593  0.0167765 -0.0167765  0.9998593 
    1   162     1  1.4571363 -0.0117611  0.9999289  0.0119207 -0.0119207  0.9999289 
    1   162     2  1.4724444 -0.0071691  0.9999296  0.0118686 -0.0118686  0.9999296 
    1   162     3  1.4565368 -0.0121893  0.9998781  0.0156124 -0.0156124  0.9998781 
    1   162     4  1.4723810 -0.0074333  0.9998798  0.0155015 -0.0155015  0.9998798 
    1   163     1  1.4535007 -0.0123860  0.9998598  0.0167428 -0.0167428  0.9998598 
    1   163     2  1.4542097 -0.0113069  0.9999156  0.0129955 -0.0129955  0.9999156 
    1   163     3  1.4699728 -0.0074442  0.9998639  0.0164969 -0.0164969  0.9998639 
    1   163     4  1.4702034 -0.0065126  0.9999182  0.0127885 -0.0127885  0.9999182 
    1   164     1  1.3639894 -0.0192822  0.9998323  0.0183156 -0.0183156  0.9998323 
    1   164     2  1.3658027 -0.0199226  0.9998893  0.0148758 -0.0148758  0.9998893 
    1   164     3  1.3776437 -0.0150578  0.9998192  0.0190171 -0.0190171  0.9998192 
    1   164     4  1.3791569 -0.0157824  0.9998786  0.0155840 -0.0155840  0.9998786 
    1   165     1  1.3543186 -0.0171136  0.9997982  0.0200897 -0.0200897  0.9997982 
    1   165     2  1.3414786 -0.0212530  0.9998183  0.0190625 -0.0190625  0.9998183 
    1   165     3  1.3559798 -0.0185296  0.9998582  0.0168377 -0.0168377  0.9998582 
    1   165     4  1.3434785 -0.0225778  0.9998750  0.0158086 -0.0158086  0.9998750 
    1   166     1  1.3615798 -0.0180397  0.9998884  0.0149397 -0.0149397  0.9998884 
    1   166     2  1.3601201 -0.0167912  0.9998358  0.0181216 -0.0181216  0.9998358 
    1   166     3  1.3492982 -0.0219802  0.9999020  0.0139964 -0.0139964  0.9999020 
    1   166     4  1.3475764 -0.0207938  0.9998521  0.0171979 -0.0171979  0.9998521 
    1   167     1  1.3708901 -0.0196533  0.9999140  0.0131179 -0.0131179  0.9999140 
    1   167     2  1.3838953 -0.0156177  0.9999046  0.0138143 -0.0138143  0.9999046 
    1   167     3  1.3693336 -0.0189419  0.9998644  0.0164664 -0.0164664  0.9998644 
    1   167     4  1.3826270 -0.0148278  0.9998529  0.0171497 -0.0171497  0.9998529 
    1   168     1  1.3203290 -0.0230909  0.9998078  0.0196032 -0.0196032  0.9998078 
    1   168     2  1.3223637 -0.0251868  0.9998604  0.0167090 -0.0167090  0.9998604 
    1   168     3  1.3319006 -0.0190815  0.9997804  0.0209567 -0.0209567  0.9997804 
    1   168     4  1.3335830 -0.0212443  0.9998365  0.0180801 -0.0180801  0.9998365 
    1   169     1  1.3109133 -0.0212742  0.9997685  0.0215150 -0.0215150  0.9997685 
    1   169     2  1.3009389 -0.0250191  0.9997998  0.0200105 -0.0200105  0.9997998 
    1   169     3  1.3125365 -0.0238648  0.9998185  0.0190530 -0.0190530  0.9998185 
    1   169     4  1.3026760 -0.0276541  0.9998469  0.0174957 -0.0174957  0.9998469 
    1   170     1  1.3191831 -0.0231131  0.9998606  0.0166989 -0.0166989  0.9998606 
    1   170     2  1.3176964 -0.0206736  0.9998120  0.0193890 -0.0193890  0.9998120 
    1   170     3  1.3086908 -0.0269331  0.9998836  0.0152543 -0.0152543  0.9998836 
    1   170     4  1.3068820 -0.0245496  0.9998388  0.0179567 -0.0179567  0.9998388 
    1   171     1  1.3283925 -0.0243515  0.9998905  0.0147965 -0.0147965  0.9998905 
    1   171     2  1.3399591 -0.0204717  0.9998725  0.0159675 -0.0159675  0.9998725 
    1   171     3  1.3265767 -0.0227469  0.9998412  0.0178233 -0.0178233  0.9998412 
    1   171     4  1.3383803 -0.0188318  0.9998203  0.0189570 -0.0189570  0.9998203 
    1   172     1  1.3739806 -0.0181964  0.9998913  0.0147457 -0.0147457  0.9998913 
    1   172     2  1.3751547 -0.0193459  0.9999341  0.0114792 -0.0114792  0.9999341 
    1   172     3  1.3869302 -0.0141392  0.9998794  0.0155292 -0.0155292  0.9998794 
    1   172     4  1.3879656 -0.0153308  0.9999249  0.0122564 -0.0122564  0.9999249 
    1   173     1  1.3652825 -0.0162996  0.9998687  0.0162068 -0.0162068  0.9998687 
    1   173     2  1.3528743 -0.0202153  0.9998818  0.0153764 -0.0153764  0.9998818 
    1   173     3  1.3663915 -0.0176975  0.9999144  0.0130878 -0.0130878  0.9999144 
    1   173     4  1.3541933 -0.0215959  0.9999258  0.0121821 -0.0121821  0.9999258 
    1   174     1  1.3694446 -0.0172364  0.9999402  0.0109382 -0.0109382  0.9999402 
    1   174     2  1.3689822 -0.0169309  0.9999012  0.0140549 -0.0140549  0.9999012 
    1   174     3  1.3574306 -0.0208822  0.9999445  0.0105318 -0.0105318  0.9999445 
    1   174     4  1.3563535 -0.0207350  0.9999045  0.0138195 -0.0138195  0.9999045 
    1   175     1  1.3784817 -0.0194097  0.9999512  0.0098812 -0.0098812  0.9999512 
    1   175     2  1.3935126 -0.0148115  0.9999450  0.0104862 -0.0104862  0.9999450 
    1   175     3  1.3777798 -0.0185542  0.9999053  0.0137646 -0.0137646  0.9999053 
    1   175     4  1.3917669 -0.0143765  0.9999027  0.0139515 -0.0139515  0.9999027 
    1   176     1  1.3322065 -0.0226283  0.9998733  0.0159161 -0.0159161  0.9998733 
    1   176     2  1.3337208 -0.0239800  0.9999166  0.0129127 -0.0129127  0.9999166 
    1   176     3  1.3438785 -0.0188133  0.9998564  0.0169461 -0.0169461  0.9998564 
    1   176     4  1.3451891 -0.0202235  0.9999029  0.0139352 -0.0139352  0.9999029 
    1   177     1  1.3234047 -0.0213292  0.9998434  0.0176980 -0.0176980  0.9998434 
    1   177     2  1.3118850 -0.0250627  0.9998602  0.0167217 -0.0167217  0.9998602 
    1   177     3  1.3249843 -0.0225192  0.9998916  0.0147268 -0.0147268  0.9998916 
    1   177     4  1.3135508 -0.0262940  0.9999070  0.0136358 -0.0136358  0.9999070 
    1   178     1  1.3296835 -0.0220007  0.9999200  0.0126464 -0.0126464  0.9999200 
    1   178     2  1.3279435 -0.0194341  0.9998752  0.0157995 -0.0157995  0.9998752 
    1   178     3  1.3176419 -0.0262578  0.9999380  0.0111378 -0.0111378  0.9999380 
    1   178     4  1.3168940 -0.0237136  0.9999018  0.0140146 -0.0140146  0.9999018 
    1   179     1  1.3398120 -0.0236962  0.9999399  0.0109602 -0.0109602  0.9999399 
    1   179     2  1.3492765 -0.0204193  0.9999272  0.0120628 -0.0120628  0.9999272 
    1   179     3  1.3384352 -0.0216337  0.9999105  0.0133752 -0.0133752  0.9999105 
    1   179     4  1.3486809 -0.0180893  0.9998939  0.0145665 -0.0145665  0.9998939 
    1   180     1  1.3789907 -0.0204066  0.9999250  0.0122444 -0.0122444  0.9999250 
    1   180     2  1.3781141 -0.0176723  0.9999622  0.0086964 -0.0086964  0.9999622 
    1   180     3  1.3936307 -0.0154916  0.9999417  0.0107948 -0.0107948  0.9999417 
    1   180     4  1.3909980 -0.0136112  0.9999700  0.0077396 -0.0077396  0.9999700 
    1   181     1  1.3705058 -0.0176574  0.9999232  0.0123907 -0.0123907  0.9999232 
    1   181     2  1.3584641 -0.0213408  0.9999169  0.0128895 -0.0128895  0.9999169 
    1   181     3  1.3700079 -0.0171143  0.9999554  0.0094485 -0.0094485  0.9999554 
    1   181     4  1.3582468 -0.0206497  0.9999533  0.0096685 -0.0096685  0.9999533 
    1   182     1  1.3677864 -0.0162900  0.9999717  0.0075297 -0.0075297  0.9999717 
    1   182     2  1.3691115 -0.0180962  0.9999473  0.0102649 -0.0102649  0.9999473 
    1   182     3  1.3563597 -0.0200445  0.9999633  0.0085691 -0.0085691  0.9999633 
    1   182     4  1.3578054 -0.0219625  0.9999340  0.0114848 -0.0114848  0.9999340 
    1   183     1  1.3753311 -0.0180896  0.9999679  0.0080165 -0.0080165  0.9999679 
    1   183     2  1.3865629 -0.0142134  0.9999771  0.0067704 -0.0067704  0.9999771 
    1   183     3  1.3766748 -0.0202401  0.9999416  0.0108082 -0.0108082  0.9999416 
    1   183     4  1.3880958 -0.0163139  0.9999543  0.0095605 -0.0095605  0.9999543 
    1   184     1  1.3398310 -0.0218237  0.9999461  0.0103779 -0.0103779  0.9999461 
    1   184     2  1.3497750 -0.0180784  0.9999611  0.0088236 -0.0088236  0.9999611 
    1   184     3  1.3428926 -0.0243517  0.9999252  0.0122307 -0.0122307  0.9999252 
    1   184     4  1.3507442 -0.0208681  0.9999430  0.0106733 -0.0106733  0.9999430 
    1   185     1  1.3409383 -0.0223139  0.9999214  0.0125345 -0.0125345  0.9999214 
    1   185     2  1.3429012 -0.0228319  0.9999517  0.0098271 -0.0098271  0.9999517 
    1   185     3  1.3518115 -0.0190987  0.9999190  0.0127255 -0.0127255  0.9999190 
    1   185     4  1.3517523 -0.0200477  0.9999459  0.0104021 -0.0104021  0.9999459 
    1   186     1  1.3351844 -0.0170392  0.9999296  0.0118631 -0.0118631  0.9999296 
    1   186     2  1.3319878 -0.0231168  0.9999485  0.0101448 -0.0101448  0.9999485 
    1   186     3  1.3342184 -0.0235711  0.9999252  0.0122339 -0.0122339  0.9999252 
    1   186     4  1.3320341 -0.0265037  0.9999413  0.0108334 -0.0108334  0.9999413 
    1   187     1  1.3656951 -0.0188751  0.9999590  0.0090562 -0.0090562  0.9999590 
    1   187     2  1.3547738 -0.0228591  0.9999446  0.0105296 -0.0105296  0.9999446 
    1   187     3  1.3644741 -0.0160148  0.9999802  0.0062852 -0.0062852  0.9999802 
    1   187     4  1.3529107 -0.0202198  0.9999693  0.0078363 -0.0078363  0.9999693 
    1   188     1  1.3621814 -0.0160264  0.9999880  0.0048920 -0.0048920  0.9999880 
    1   188     2  1.3628535 -0.0182872  0.9999598  0.0089625 -0.0089625  0.9999598 
    1   188     3  1.3476714 -0.0206945  0.9999818  0.0060326 -0.0060326  0.9999818 
    1   188     4  1.3493683 -0.0222281  0.9999561  0.0093680 -0.0093680  0.9999561 
    1   189     1  1.3712243 -0.0187384  0.9999882  0.0048607 -0.0048607  0.9999882 
    1   189     2  1.3819587 -0.0154546  0.9999903  0.0043982 -0.0043982  0.9999903 
    1   189     3  1.3717891 -0.0191696  0.9999703  0.0077080 -0.0077080  0.9999703 
    1   189     4  1.3831135 -0.0157259  0.9999732  0.0073240 -0.0073240  0.9999732 
    1   190     1  1.3735369 -0.0203754  0.9999540  0.0095895 -0.0095895  0.9999540 
    1   190     2  1.3721651 -0.0186536  0.9999776  0.0066867 -0.0066867  0.9999776 
    1   190     3  1.3852000 -0.0165710  0.9999631  0.0085923 -0.0085923  0.9999631 
    1   190     4  1.3838898 -0.0147673  0.9999843  0.0055973 -0.0055973  0.9999843 
    1   191     1  1.3269181 -0.0233228  0.9999700  0.0077434 -0.0077434  0.9999700 
    1   191     2  1.3394942 -0.0172744  0.9999879  0.0049209 -0.0049209  0.9999879 
    1   191     3  1.3298617 -0.0278103  0.9999484  0.0101588 -0.0101588  0.9999484 
    1   191     4  1.3406151 -0.0222545  0.9999714  0.0075569 -0.0075569  0.9999714 
    1   192     1  1.3377745 -0.0257106  0.9999342  0.0114696 -0.0114696  0.9999342 
    1   192     2  1.3356460 -0.0217118  0.9999511  0.0098858 -0.0098858  0.9999511 
    1   192     3  1.3461984 -0.0214404  0.9999554  0.0094392 -0.0094392  0.9999554 
    1   192     4  1.3449837 -0.0168487  0.9999713  0.0075731 -0.0075731  0.9999713 
    1   193     1  1.3258060 -0.0228826  0.9999462  0.0103733 -0.0103733  0.9999462 
    1   193     2  1.3169698 -0.0287038  0.9999138  0.0131275 -0.0131275  0.9999138 
    1   193     3  1.3236987 -0.0169511  0.9999602  0.0089258 -0.0089258  0.9999602 
    1   193     4  1.3151937 -0.0235122  0.9999296  0.0118662 -0.0118662  0.9999296 
    1   194     1  1.3142068 -0.0194572  0.9999773  0.0067396 -0.0067396  0.9999773 
    1   194     2  1.3160477 -0.0244602  0.9999673  0.0080859 -0.0080859  0.9999673 
    1   194     3  1.3056437 -0.0246764  0.9999569  0.0092876 -0.0092876  0.9999569 
    1   194     4  1.3074145 -0.0299193  0.9999427  0.0107036 -0.0107036  0.9999427 
    1   195     1  1.4107645 -0.0139577  0.9999547  0.0095161 -0.0095161  0.9999547 
    1   195     2  1.4015726 -0.0183026  0.9999344  0.0114560 -0.0114560  0.9999344 
    1   195     3  1.4083239 -0.0099755  0.9999710  0.0076127 -0.0076127  0.9999710 
    1   195     4  1.4001656 -0.0148956  0.9999516  0.0098426 -0.0098426  0.9999516 
    1   196     1  1.4052740 -0.0126477  0.9999825  0.0059181 -0.0059181  0.9999825 
    1   196     2  1.4067682 -0.0147346  0.9999626  0.0086524 -0.0086524  0.9999626 
    1   196     3  1.3942621 -0.0165284  0.9999740  0.0072148 -0.0072148  0.9999740 
    1   196     4  1.3957658 -0.0185215  0.9999515  0.0098447 -0.0098447  0.9999515 
    1   197     1  1.4134837 -0.0154977  0.9999789  0.0064902 -0.0064902  0.9999789 
    1   197     2  1.4257563 -0.0117135  0.9999827  0.0058748 -0.0058748  0.9999827 
    1   197     3  1.4148156 -0.0158169  0.9999564  0.0093394 -0.0093394  0.9999564 
    1   197     4  1.4250592 -0.0126510  0.9999612  0.0088047 -0.0088047  0.9999612 
    1   198     1  1.4194615 -0.0156837  0.9999504  0.0099609 -0.0099609  0.9999504 
    1   198     2  1.4181616 -0.0142418  0.9999603  0.0089154 -0.0089154  0.9999603 
    1   198     3  1.4246729 -0.0137145  0.9999577  0.0091949 -0.0091949  0.9999577 
    1   198     4  1.4245672 -0.0111507  0.9999716  0.0075425 -0.0075425  0.9999716 
    1   199     1  1.4042072 -0.0145102  0.9999695  0.0078086 -0.0078086  0.9999695 
    1   199     2  1.3929931 -0.0181356  0.9999622  0.0086941 -0.0086941  0.9999622 
    1   199     3  1.4028344 -0.0133178  0.9999876  0.0049826 -0.0049826  0.9999876 
    1   199     4  1.3916431 -0.0169461  0.9999827  0.0058876 -0.0058876  0.9999827 
    1   200     1  1.4001191 -0.0132335  0.9999927  0.0038113 -0.0038113  0.9999927 
    1   200     2  1.4014838 -0.0146255  0.9999788  0.0065098 -0.0065098  0.9999788 
    1   200     3  1.3893767 -0.0167324  0.9999889  0.0047049 -0.0047049  0.9999889 
    1   200     4  1.3904274 -0.0182474  0.9999722  0.0074597 -0.0074597  0.9999722 
    1   201     1  1.4074588 -0.0150722  0.9999899  0.0044885 -0.0044885  0.9999899 
    1   201     2  1.4178288 -0.0114746  0.9999944  0.0033412 -0.0033412  0.9999944 
    1   201     3  1.4087153 -0.0169799  0.9999755  0.0069966 -0.0069966  0.9999755 
    1   201     4  1.4191964 -0.0134001  0.9999826  0.0059024 -0.0059024  0.9999826 
    1   202     1  1.4121925 -0.0170905  0.9999676  0.0080507 -0.0080507  0.9999676 
    1   202     2  1.4107075 -0.0148635  0.9999863  0.0052369 -0.0052369  0.9999863 
    1   202     3  1.4240700 -0.0129635  0.9999773  0.0067337 -0.0067337  0.9999773 
    1   202     4  1.4217035 -0.0111828  0.9999913  0.0041683 -0.0041683  0.9999913 
    1   203     1  1.4726756 -0.0114337  0.9999996 -0.0009213  0.0009213  0.9999996 
    1   203     2  1.4834950 -0.0081757  0.9999997 -0.0007270  0.0007270  0.9999997 
    1   203     3  1.4729040 -0.0108183  0.9999983  0.0018315 -0.0018315  0.9999983 
    1   203     4  1.4836902 -0.0075805  0.9999981  0.0019691 -0.0019691  0.9999981 
    1   204     1  1.4728908 -0.0110138  0.9999969  0.0024920 -0.0024920  0.9999969 
    1   204     2  1.4727226 -0.0111344  1.0000000 -0.0001113  0.0001113  1.0000000 
    1   204     3  1.4833652 -0.0078700  0.9999967  0.0025745 -0.0025745  0.9999967 
    1   204     4  1.4832933 -0.0079606  1.0000000 -5.08e-006  5.08e-006  1.0000000 
    1   205     1  1.4664054 -0.0090784  0.9999964  0.0026802 -0.0026802  0.9999964 
    1   205     2  1.4557638 -0.0122713  0.9999963  0.0027157 -0.0027157  0.9999963 
    1   205     3  1.4662137 -0.0090645  1.0000000  0.0000460 -0.0000460  1.0000000 
    1   205     4  1.4554878 -0.0122827  1.0000000  0.0000831 -0.0000831  1.0000000 
    1   206     1  1.4661009 -0.0091387  0.9999996 -0.0008442  0.0008442  0.9999996 
    1   206     2  1.4661868 -0.0090572  0.9999983  0.0018264 -0.0018264  0.9999983 
    1   206     3  1.4553436 -0.0123658  0.9999996 -0.0008621  0.0008621  0.9999996 
    1   206     4  1.4554551 -0.0122766  0.9999983  0.0018210 -0.0018210  0.9999983 
    2     1     1  1.2193451 -0.0294092  0.9993307  0.0365816 -0.0365816  0.9993307 
    2     1     2  1.2203617 -0.0317989  0.9991398  0.0414695 -0.0414695  0.9991398 
    2     1     3  1.2015640 -0.0350862  0.9992761  0.0380442 -0.0380442  0.9992761 
    2     1     4  1.2016805 -0.0375983  0.9990875  0.0427106 -0.0427106  0.9990875 
    2     2     1  1.2298856 -0.0319941  0.9993514  0.0360118 -0.0360118  0.9993514 
    2     2     2  1.2465846 -0.0263531  0.9994170  0.0341416 -0.0341416  0.9994170 
    2     2     3  1.2309990 -0.0341141  0.9992116  0.0397007 -0.0397007  0.9992116 
    2     2     4  1.2485771 -0.0285613  0.9992655  0.0383214 -0.0383214  0.9992655 
    2     3     1  1.2337511 -0.0361300  0.9990942  0.0425528 -0.0425528  0.9990942 
    2     3     2  1.2323150 -0.0301232  0.9992661  0.0383053 -0.0383053  0.9992661 
    2     3     3  1.2563939 -0.0270639  0.9992622  0.0384059 -0.0384059  0.9992622 
    2     3     4  1.2508172 -0.0227343  0.9993903  0.0349141 -0.0349141  0.9993903 
    2     4     1  1.2201858 -0.0327976  0.9990141  0.0443939 -0.0443939  0.9990141 
    2     4     2  1.1994363 -0.0396606  0.9989167  0.0465352 -0.0465352  0.9989167 
    2     4     3  1.2193474 -0.0296456  0.9992275  0.0392998 -0.0392998  0.9992275 
    2     4     4  1.1994427 -0.0362506  0.9991431  0.0413885 -0.0413885  0.9991431 
    2     5     1  1.2167340 -0.0346801  0.9986852  0.0512622 -0.0512622  0.9986852 
    2     5     2  1.1932716 -0.0433782  0.9984843  0.0550365 -0.0550365  0.9984843 
    2     5     3  1.2175337 -0.0276471  0.9989543  0.0457204 -0.0457204  0.9989543 
    2     5     4  1.1943561 -0.0361645  0.9987795  0.0493905 -0.0493905  0.9987795 
    2     6     1  1.2184923 -0.0292628  0.9991281  0.0417490 -0.0417490  0.9991281 
    2     6     2  1.2186303 -0.0338165  0.9989008  0.0468747 -0.0468747  0.9989008 
    2     6     3  1.1979673 -0.0364028  0.9990134  0.0444092 -0.0444092  0.9990134 
    2     6     4  1.1975380 -0.0411501  0.9987690  0.0496025 -0.0496025  0.9987690 
    2     7     1  1.2337090 -0.0319831  0.9992024  0.0399323 -0.0399323  0.9992024 
    2     7     2  1.2580820 -0.0238069  0.9993048  0.0372812 -0.0372812  0.9993048 
    2     7     3  1.2336285 -0.0366459  0.9989462  0.0458962 -0.0458962  0.9989462 
    2     7     4  1.2563669 -0.0286082  0.9990793  0.0429022 -0.0429022  0.9990793 
    2     8     1  1.2305538 -0.0359262  0.9987985  0.0490056 -0.0490056  0.9987985 
    2     8     2  1.2308088 -0.0313647  0.9990326  0.0439762 -0.0439762  0.9990326 
    2     8     3  1.2515012 -0.0288137  0.9989158  0.0465527 -0.0465527  0.9989158 
    2     8     4  1.2522874 -0.0239362  0.9991463  0.0413107 -0.0413107  0.9991463 
    2     9     1  1.2843357 -0.0242291  0.9990929  0.0425835 -0.0425835  0.9990929 
    2     9     2  1.2645380 -0.0304675  0.9990302  0.0440300 -0.0440300  0.9990302 
    2     9     3  1.2864540 -0.0204919  0.9993001  0.0374077 -0.0374077  0.9993001 
    2     9     4  1.2654513 -0.0271543  0.9992390  0.0390047 -0.0390047  0.9992390 
    2    10     1  1.2937293 -0.0197677  0.9994062  0.0344563 -0.0344563  0.9994062 
    2    10     2  1.2900855 -0.0223262  0.9991853  0.0403567 -0.0403567  0.9991853 
    2    10     3  1.2709666 -0.0266406  0.9993848  0.0350718 -0.0350718  0.9993848 
    2    10     4  1.2692508 -0.0284606  0.9991861  0.0403376 -0.0403376  0.9991861 
    2    11     1  1.3096869 -0.0226379  0.9995007  0.0315952 -0.0315952  0.9995007 
    2    11     2  1.3277472 -0.0172241  0.9995056  0.0314421 -0.0314421  0.9995056 
    2    11     3  1.3064924 -0.0242437  0.9993465  0.0361452 -0.0361452  0.9993465 
    2    11     4  1.3249165 -0.0187262  0.9993518  0.0359987 -0.0359987  0.9993518 
    2    12     1  1.2976878 -0.0256184  0.9992123  0.0396826 -0.0396826  0.9992123 
    2    12     2  1.2999387 -0.0236542  0.9993963  0.0347422 -0.0347422  0.9993963 
    2    12     3  1.3167285 -0.0199007  0.9992287  0.0392683 -0.0392683  0.9992287 
    2    12     4  1.3197698 -0.0177105  0.9994088  0.0343798 -0.0343798  0.9994088 
    2    13     1  1.3004936 -0.0213283  0.9993542  0.0359318 -0.0359318  0.9993542 
    2    13     2  1.2843381 -0.0266246  0.9994072  0.0344287 -0.0344287  0.9994072 
    2    13     3  1.3042319 -0.0226220  0.9994686  0.0325957 -0.0325957  0.9994686 
    2    13     4  1.2911184 -0.0268721  0.9995053  0.0314494 -0.0314494  0.9995053 
    2    14     1  1.3179880 -0.0211972  0.9995751  0.0291498 -0.0291498  0.9995751 
    2    14     2  1.3145432 -0.0222973  0.9994873  0.0320167 -0.0320167  0.9994873 
    2    14     3  1.3063306 -0.0246870  0.9995866  0.0287501 -0.0287501  0.9995866 
    2    14     4  1.3015550 -0.0261924  0.9994879  0.0319990 -0.0319990  0.9994879 
    2    15     1  1.3304193 -0.0216040  0.9996645  0.0259011 -0.0259011  0.9996645 
    2    15     2  1.3461191 -0.0169084  0.9996676  0.0257833 -0.0257833  0.9996676 
    2    15     3  1.3258195 -0.0237458  0.9995449  0.0301677 -0.0301677  0.9995449 
    2    15     4  1.3427152 -0.0186633  0.9995541  0.0298605 -0.0298605  0.9995541 
    2    16     1  1.3143154 -0.0246303  0.9994408  0.0334384 -0.0334384  0.9994408 
    2    16     2  1.3187854 -0.0220277  0.9995879  0.0287044 -0.0287044  0.9995879 
    2    16     3  1.3333788 -0.0189435  0.9994502  0.0331560 -0.0331560  0.9994502 
    2    16     4  1.3369790 -0.0166017  0.9995947  0.0284696 -0.0284696  0.9995947 
    2    17     1  1.2832020 -0.0258435  0.9995347  0.0305031 -0.0305031  0.9995347 
    2    17     2  1.2952869 -0.0225922  0.9995292  0.0306830 -0.0306830  0.9995292 
    2    17     3  1.2802383 -0.0284351  0.9994306  0.0337410 -0.0337410  0.9994306 
    2    17     4  1.2913746 -0.0251272  0.9994446  0.0333228 -0.0333228  0.9994446 
    2    18     1  1.2746049 -0.0258525  0.9993874  0.0349983 -0.0349983  0.9993874 
    2    18     2  1.2689293 -0.0314272  0.9992933  0.0375880 -0.0375880  0.9992933 
    2    18     3  1.2717200 -0.0234009  0.9993497  0.0360584 -0.0360584  0.9993497 
    2    18     4  1.2683527 -0.0281945  0.9992901  0.0376723 -0.0376723  0.9992901 
    2    19     1  1.2708806 -0.0247318  0.9994834  0.0321395 -0.0321395  0.9994834 
    2    19     2  1.2698635 -0.0267710  0.9993684  0.0355359 -0.0355359  0.9993684 
    2    19     3  1.2566659 -0.0295388  0.9994292  0.0337830 -0.0337830  0.9994292 
    2    19     4  1.2576837 -0.0305819  0.9993393  0.0363453 -0.0363453  0.9993393 
    2    20     1  1.3491417 -0.0159096  0.9993502  0.0360430 -0.0360430  0.9993502 
    2    20     2  1.3308238 -0.0214052  0.9993444  0.0362041 -0.0362041  0.9993444 
    2    20     3  1.3516769 -0.0146637  0.9994988  0.0316555 -0.0316555  0.9994988 
    2    20     4  1.3337578 -0.0200148  0.9995021  0.0315508 -0.0315508  0.9995021 
    2    21     1  1.3609279 -0.0127148  0.9996135  0.0277992 -0.0277992  0.9996135 
    2    21     2  1.3586061 -0.0155514  0.9994647  0.0327142 -0.0327142  0.9994647 
    2    21     3  1.3414893 -0.0185752  0.9995947  0.0284679 -0.0284679  0.9995947 
    2    21     4  1.3382997 -0.0217078  0.9994383  0.0335125 -0.0335125  0.9994383 
    2    22     1  1.3730838 -0.0155704  0.9996686  0.0257433 -0.0257433  0.9996686 
    2    22     2  1.3925381 -0.0094284  0.9997014  0.0244342 -0.0244342  0.9997014 
    2    22     3  1.3710813 -0.0190789  0.9995313  0.0306125 -0.0306125  0.9995313 
    2    22     4  1.3913792 -0.0127185  0.9995702  0.0293167 -0.0293167  0.9995702 
    2    23     1  1.3644134 -0.0202381  0.9994519  0.0331046 -0.0331046  0.9994519 
    2    23     2  1.3674389 -0.0152409  0.9996356  0.0269928 -0.0269928  0.9996356 
    2    23     3  1.3906262 -0.0119703  0.9995109  0.0312719 -0.0312719  0.9995109 
    2    23     4  1.3897241 -0.0085043  0.9996650  0.0258816 -0.0258816  0.9996650 
    2    24     1  1.3651130 -0.0157981  0.9995456  0.0301436 -0.0301436  0.9995456 
    2    24     2  1.3464781 -0.0214363  0.9995258  0.0307940 -0.0307940  0.9995258 
    2    24     3  1.3677002 -0.0132330  0.9996740  0.0255328 -0.0255328  0.9996740 
    2    24     4  1.3497352 -0.0186631  0.9996586  0.0261291 -0.0261291  0.9996586 
    2    25     1  1.3747639 -0.0133119  0.9997320  0.0231488 -0.0231488  0.9997320 
    2    25     2  1.3720031 -0.0155022  0.9996189  0.0276046 -0.0276046  0.9996189 
    2    25     3  1.3577951 -0.0184262  0.9997218  0.0235868 -0.0235868  0.9997218 
    2    25     4  1.3544096 -0.0208175  0.9996047  0.0281150 -0.0281150  0.9996047 
    2    26     1  1.3860571 -0.0156724  0.9997712  0.0213908 -0.0213908  0.9997712 
    2    26     2  1.4033921 -0.0104145  0.9997833  0.0208147 -0.0208147  0.9997833 
    2    26     3  1.3835394 -0.0180093  0.9996657  0.0258546 -0.0258546  0.9996657 
    2    26     4  1.4012531 -0.0126465  0.9996804  0.0252806 -0.0252806  0.9996804 
    2    27     1  1.3771294 -0.0186144  0.9996024  0.0281953 -0.0281953  0.9996024 
    2    27     2  1.3794813 -0.0156537  0.9997218  0.0235880 -0.0235880  0.9997218 
    2    27     3  1.3958852 -0.0128581  0.9996275  0.0272922 -0.0272922  0.9996275 
    2    27     4  1.3977414 -0.0100297  0.9997428  0.0226803 -0.0226803  0.9997428 
    2    28     1  1.4232494 -0.0090013  0.9996460  0.0266070 -0.0266070  0.9996460 
    2    28     2  1.4020608 -0.0173466  0.9995528  0.0299047 -0.0299047  0.9995528 
    2    28     3  1.4200298 -0.0031277  0.9997626  0.0217888 -0.0217888  0.9997626 
    2    28     4  1.4008556 -0.0120758  0.9996662  0.0258349 -0.0258349  0.9996662 
    2    29     1  1.4231426 -0.0063953  0.9997757  0.0211776 -0.0211776  0.9997757 
    2    29     2  1.4227441 -0.0103261  0.9996654  0.0258673 -0.0258673  0.9996654 
    2    29     3  1.4040737 -0.0127755  0.9997354  0.0230030 -0.0230030  0.9997354 
    2    29     4  1.4031653 -0.0167260  0.9996202  0.0275586 -0.0275586  0.9996202 
    2    30     1  1.4339076 -0.0109058  0.9997871  0.0206336 -0.0206336  0.9997871 
    2    30     2  1.4514570 -0.0049334  0.9998221  0.0188628 -0.0188628  0.9998221 
    2    30     3  1.4336814 -0.0141588  0.9996972  0.0246073 -0.0246073  0.9996972 
    2    30     4  1.4509027 -0.0085022  0.9997326  0.0231246 -0.0231246  0.9997326 
    2    31     1  1.4376981 -0.0142858  0.9996678  0.0257735 -0.0257735  0.9996678 
    2    31     2  1.4362474 -0.0099686  0.9997275  0.0233443 -0.0233443  0.9997275 
    2    31     3  1.4501933 -0.0091356  0.9997205  0.0236418 -0.0236418  0.9997205 
    2    31     4  1.4499336 -0.0038229  0.9997852  0.0207272 -0.0207272  0.9997852 
    2    32     1  1.4255581 -0.0103392  0.9996988  0.0245436 -0.0245436  0.9996988 
    2    32     2  1.4073248 -0.0159880  0.9996742  0.0255246 -0.0255246  0.9996742 
    2    32     3  1.4271125 -0.0074706  0.9997990  0.0200492 -0.0200492  0.9997990 
    2    32     4  1.4089543 -0.0131523  0.9997769  0.0211230 -0.0211230  0.9997769 
    2    33     1  1.4322311 -0.0078483  0.9998289  0.0184972 -0.0184972  0.9998289 
    2    33     2  1.4303890 -0.0101772  0.9997377  0.0229008 -0.0229008  0.9997377 
    2    33     3  1.4145425 -0.0132375  0.9998163  0.0191648 -0.0191648  0.9998163 
    2    33     4  1.4125628 -0.0155811  0.9997234  0.0235187 -0.0235187  0.9997234 
    2    34     1  1.4434155 -0.0111215  0.9998543  0.0170727 -0.0170727  0.9998543 
    2    34     2  1.4615748 -0.0055983  0.9998646  0.0164553 -0.0164553  0.9998646 
    2    34     3  1.4414348 -0.0131656  0.9997765  0.0211390 -0.0211390  0.9997765 
    2    34     4  1.4584555 -0.0080158  0.9997873  0.0206256 -0.0206256  0.9997873 
    2    35     1  1.4364517 -0.0138422  0.9997363  0.0229625 -0.0229625  0.9997363 
    2    35     2  1.4379337 -0.0109671  0.9998232  0.0188029 -0.0188029  0.9998232 
    2    35     3  1.4537616 -0.0084591  0.9997582  0.0219906 -0.0219906  0.9997582 
    2    35     4  1.4552867 -0.0055068  0.9998429  0.0177273 -0.0177273  0.9998429 
    2    36     1  1.4726298 -0.0067200  0.9997646  0.0216980 -0.0216980  0.9997646 
    2    36     2  1.4589070 -0.0112159  0.9997387  0.0228579 -0.0228579  0.9997387 
    2    36     3  1.4737474 -0.0035051  0.9998334  0.0182557 -0.0182557  0.9998334 
    2    36     4  1.4587104 -0.0084445  0.9998091  0.0195397 -0.0195397  0.9998091 
    2    37     1  1.4778165 -0.0035687  0.9998542  0.0170781 -0.0170781  0.9998542 
    2    37     2  1.4764030 -0.0067660  0.9997821  0.0208723 -0.0208723  0.9997821 
    2    37     3  1.4618514 -0.0086899  0.9998335  0.0182464 -0.0182464  0.9998335 
    2    37     4  1.4611132 -0.0116214  0.9997595  0.0219295 -0.0219295  0.9997595 
    2    38     1  1.4875556 -0.0074599  0.9998785  0.0155864 -0.0155864  0.9998785 
    2    38     2  1.5032418 -0.0027023  0.9998866  0.0150564 -0.0150564  0.9998866 
    2    38     3  1.4860637 -0.0095626  0.9998135  0.0193147 -0.0193147  0.9998135 
    2    38     4  1.5012419 -0.0049420  0.9998241  0.0187550 -0.0187550  0.9998241 
    2    39     1  1.4814554 -0.0092044  0.9997984  0.0200784 -0.0200784  0.9997984 
    2    39     2  1.4828154 -0.0077849  0.9998628  0.0165656 -0.0165656  0.9998628 
    2    39     3  1.4952689 -0.0050376  0.9998049  0.0197546 -0.0197546  0.9998049 
    2    39     4  1.4974549 -0.0034040  0.9998663  0.0163544 -0.0163544  0.9998663 
    2    40     1  1.4806806 -0.0065153  0.9998041  0.0197931 -0.0197931  0.9998041 
    2    40     2  1.4642646 -0.0115569  0.9997892  0.0205331 -0.0205331  0.9997892 
    2    40     3  1.4823933 -0.0039999  0.9998759  0.0157560 -0.0157560  0.9998759 
    2    40     4  1.4656774 -0.0091659  0.9998628  0.0165667 -0.0165667  0.9998628 
    2    41     1  1.4866190 -0.0044637  0.9998954  0.0144645 -0.0144645  0.9998954 
    2    41     2  1.4852473 -0.0064680  0.9998303  0.0184238 -0.0184238  0.9998303 
    2    41     3  1.4724694 -0.0087617  0.9998884  0.0149398 -0.0149398  0.9998884 
    2    41     4  1.4695580 -0.0112146  0.9998211  0.0189141 -0.0189141  0.9998211 
    2    42     1  1.4962606 -0.0078315  0.9999134  0.0131607 -0.0131607  0.9999134 
    2    42     2  1.5138145 -0.0025436  0.9999176  0.0128345 -0.0128345  0.9999176 
    2    42     3  1.4953929 -0.0089816  0.9998537  0.0171068 -0.0171068  0.9998537 
    2    42     4  1.5121023 -0.0039508  0.9998589  0.0167991 -0.0167991  0.9998589 
    2    43     1  1.4909486 -0.0094798  0.9998353  0.0181460 -0.0181460  0.9998353 
    2    43     2  1.4926131 -0.0074925  0.9998972  0.0143418 -0.0143418  0.9998972 
    2    43     3  1.5066984 -0.0047037  0.9998444  0.0176429 -0.0176429  0.9998444 
    2    43     4  1.5085309 -0.0026646  0.9999042  0.0138405 -0.0138405  0.9999042 
    2    44     1  1.5187703 -0.0034513  0.9998378  0.0180121 -0.0180121  0.9998378 
    2    44     2  1.5050085 -0.0075711  0.9998399  0.0178929 -0.0178929  0.9998399 
    2    44     3  1.5212674 -0.0025484  0.9998908  0.0147760 -0.0147760  0.9998908 
    2    44     4  1.5074024 -0.0066939  0.9998954  0.0144648 -0.0144648  0.9998954 
    2    45     1  1.5286104 -0.0018781  0.9999126  0.0132175 -0.0132175  0.9999126 
    2    45     2  1.5263561 -0.0033726  0.9998584  0.0168265 -0.0168265  0.9998584 
    2    45     3  1.5132681 -0.0064580  0.9999114  0.0133107 -0.0133107  0.9999114 
    2    45     4  1.5112063 -0.0079136  0.9998552  0.0170165 -0.0170165  0.9998552 
    2    46     1  1.5390811 -0.0053520  0.9999372  0.0112101 -0.0112101  0.9999372 
    2    46     2  1.5547109 -0.0006904  0.9999370  0.0112286 -0.0112286  0.9999370 
    2    46     3  1.5366505 -0.0067289  0.9998878  0.0149788 -0.0149788  0.9998878 
    2    46     4  1.5523186 -0.0020427  0.9998890  0.0148980 -0.0148980  0.9998890 
    2    47     1  1.5292154 -0.0065415  0.9998745  0.0158455 -0.0158455  0.9998745 
    2    47     2  1.5320061 -0.0057572  0.9999252  0.0122310 -0.0122310  0.9999252 
    2    47     3  1.5442920 -0.0020171  0.9998710  0.0160643 -0.0160643  0.9998710 
    2    47     4  1.5467838 -0.0013168  0.9999208  0.0125865 -0.0125865  0.9999208 
    2    48     1  1.5328500 -0.0032245  0.9998752  0.0158011 -0.0158011  0.9998752 
    2    48     2  1.5168169 -0.0080463  0.9998701  0.0161176 -0.0161176  0.9998701 
    2    48     3  1.5350162 -0.0014723  0.9999278  0.0120132 -0.0120132  0.9999278 
    2    48     4  1.5187313 -0.0063581  0.9999246  0.0122818 -0.0122818  0.9999246 
    2    49     1  1.5412641 -0.0015069  0.9999420  0.0107731 -0.0107731  0.9999420 
    2    49     2  1.5387607 -0.0042665  0.9998928  0.0146407 -0.0146407  0.9998928 
    2    49     3  1.5246627 -0.0065046  0.9999362  0.0112964 -0.0112964  0.9999362 
    2    49     4  1.5222417 -0.0092509  0.9998845  0.0151966 -0.0151966  0.9998845 
    2    50     1  1.5519305 -0.0050334  0.9999584  0.0091244 -0.0091244  0.9999584 
    2    50     2  1.5682082 -0.0001499  0.9999593  0.0090175 -0.0090175  0.9999593 
    2    50     3  1.5498230 -0.0061293  0.9999171  0.0128760 -0.0128760  0.9999171 
    2    50     4  1.5659066 -0.0012993  0.9999191  0.0127210 -0.0127210  0.9999191 
    2    51     1  1.5431972 -0.0070862  0.9999009  0.0140760 -0.0140760  0.9999009 
    2    51     2  1.5455489 -0.0052319  0.9999474  0.0102576 -0.0102576  0.9999474 
    2    51     3  1.5592762 -0.0022636  0.9999048  0.0138002 -0.0138002  0.9999048 
    2    51     4  1.5616460 -0.0004195  0.9999495  0.0100482 -0.0100482  0.9999495 
    2    52     1  1.5716537 -0.0007757  0.9999028  0.0139430 -0.0139430  0.9999028 
    2    52     2  1.5553071 -0.0056768  0.9999055  0.0137457 -0.0137457  0.9999055 
    2    52     3  1.5739403 -0.0000672  0.9999483  0.0101717 -0.0101717  0.9999483 
    2    52     4  1.5579573 -0.0048626  0.9999511  0.0098907 -0.0098907  0.9999511 
    2    53     1  1.5815766  0.0003056  0.9999585  0.0091093 -0.0091093  0.9999585 
    2    53     2  1.5792863 -0.0009203  0.9999169  0.0128933 -0.0128933  0.9999169 
    2    53     3  1.5654879 -0.0044970  0.9999591  0.0090495 -0.0090495  0.9999591 
    2    53     4  1.5630010 -0.0057899  0.9999165  0.0129205 -0.0129205  0.9999165 
    2    54     1  1.5924972 -0.0036726  0.9999760  0.0069280 -0.0069280  0.9999760 
    2    54     2  1.6091806  0.0013134  0.9999760  0.0069224 -0.0069224  0.9999760 
    2    54     3  1.5901467 -0.0050024  0.9999405  0.0109119 -0.0109119  0.9999405 
    2    54     4  1.6070591  0.0000585  0.9999412  0.0108409 -0.0108409  0.9999412 
    2    55     1  1.5828544 -0.0050499  0.9999319  0.0116663 -0.0116663  0.9999319 
    2    55     2  1.5852419 -0.0039478  0.9999709  0.0076315 -0.0076315  0.9999709 
    2    55     3  1.6000363  0.0000899  0.9999314  0.0117110 -0.0117110  0.9999314 
    2    55     4  1.6020919  0.0010903  0.9999700  0.0077435 -0.0077435  0.9999700 
    2    56     1  1.5863289 -0.0007778  0.9999288  0.0119315 -0.0119315  0.9999288 
    2    56     2  1.5699377 -0.0056891  0.9999271  0.0120748 -0.0120748  0.9999271 
    2    56     3  1.5885789  0.0006109  0.9999669  0.0081360 -0.0081360  0.9999669 
    2    56     4  1.5722793 -0.0042635  0.9999663  0.0082094 -0.0082094  0.9999663 
    2    57     1  1.5951865  0.0008115  0.9999746  0.0071235 -0.0071235  0.9999746 
    2    57     2  1.5926715 -0.0016246  0.9999391  0.0110347 -0.0110347  0.9999391 
    2    57     3  1.5788241 -0.0040887  0.9999721  0.0074756 -0.0074756  0.9999721 
    2    57     4  1.5759662 -0.0066487  0.9999344  0.0114574 -0.0114574  0.9999344 
    2    58     1  1.6056870 -0.0032122  0.9999848  0.0055072 -0.0055072  0.9999848 
    2    58     2  1.6222873  0.0017658  0.9999853  0.0054286 -0.0054286  0.9999853 
    2    58     3  1.6036250 -0.0042924  0.9999560  0.0093801 -0.0093801  0.9999560 
    2    58     4  1.6201767  0.0006759  0.9999572  0.0092472 -0.0092472  0.9999572 
    2    59     1  1.5969073 -0.0051502  0.9999479  0.0102110 -0.0102110  0.9999479 
    2    59     2  1.5992834 -0.0034588  0.9999803  0.0062734 -0.0062734  0.9999803 
    2    59     3  1.6136799 -0.0001243  0.9999499  0.0100071 -0.0100071  0.9999499 
    2    59     4  1.6158786  0.0015033  0.9999812  0.0061312 -0.0061312  0.9999812 
    2    60     1  1.6289250  0.0009275  0.9999548  0.0095044 -0.0095044  0.9999548 
    2    60     2  1.6112757 -0.0043529  0.9999549  0.0094980 -0.0094980  0.9999549 
    2    60     3  1.6306083  0.0018961  0.9999852  0.0054351 -0.0054351  0.9999852 
    2    60     4  1.6132667 -0.0032905  0.9999855  0.0053793 -0.0053793  0.9999855 
    2    61     1  1.6371045  0.0019604  0.9999884  0.0048226 -0.0048226  0.9999884 
    2    61     2  1.6352774  0.0007759  0.9999611  0.0088194 -0.0088194  0.9999611 
    2    61     3  1.6200745 -0.0031314  0.9999883  0.0048404 -0.0048404  0.9999883 
    2    61     4  1.6179903 -0.0043982  0.9999604  0.0088960 -0.0088960  0.9999604 
    2    62     1  1.6479143 -0.0026094  0.9999960  0.0028230 -0.0028230  0.9999960 
    2    62     2  1.6652255  0.0025733  0.9999963  0.0027225 -0.0027225  0.9999963 
    2    62     3  1.6461294 -0.0039366  0.9999760  0.0069317 -0.0069317  0.9999760 
    2    62     4  1.6637156  0.0013332  0.9999770  0.0067861 -0.0067861  0.9999770 
    2    63     1  1.6400441 -0.0039521  0.9999726  0.0073998 -0.0073998  0.9999726 
    2    63     2  1.6416816 -0.0027613  0.9999948  0.0032106 -0.0032106  0.9999948 
    2    63     3  1.6580937  0.0014534  0.9999734  0.0072941 -0.0072941  0.9999734 
    2    63     4  1.6594219  0.0025477  0.9999950  0.0031524 -0.0031524  0.9999950 
    2    64     1  1.6415431  0.0008999  0.9999665  0.0081807 -0.0081807  0.9999665 
    2    64     2  1.6244664 -0.0042183  0.9999655  0.0083111 -0.0083111  0.9999655 
    2    64     3  1.6434897  0.0021635  0.9999910  0.0042462 -0.0042462  0.9999910 
    2    64     4  1.6265686 -0.0029018  0.9999907  0.0043208 -0.0043208  0.9999907 
    2    65     1  1.6497971  0.0023308  0.9999936  0.0035706 -0.0035706  0.9999936 
    2    65     2  1.6475113  0.0000332  0.9999713  0.0075771 -0.0075771  0.9999713 
    2    65     3  1.6328840 -0.0027340  0.9999925  0.0038829 -0.0038829  0.9999925 
    2    65     4  1.6303067 -0.0051356  0.9999684  0.0079512 -0.0079512  0.9999684 
    2    66     1  1.6603529 -0.0022002  0.9999980  0.0019900 -0.0019900  0.9999980 
    2    66     2  1.6773820  0.0029073  0.9999982  0.0019221 -0.0019221  0.9999982 
    2    66     3  1.6584746 -0.0031763  0.9999824  0.0059268 -0.0059268  0.9999824 
    2    66     4  1.6753409  0.0018852  0.9999831  0.0058181 -0.0058181  0.9999831 
    2    67     1  1.6521207 -0.0040679  0.9999788  0.0065042 -0.0065042  0.9999788 
    2    67     2  1.6541352 -0.0024689  0.9999969  0.0024744 -0.0024744  0.9999969 
    2    67     3  1.6693541  0.0011004  0.9999802  0.0062945 -0.0062945  0.9999802 
    2    67     4  1.6711712  0.0026335  0.9999973  0.0023098 -0.0023098  0.9999973 
    2    68     1  1.6932963  0.0028085  0.9999997  0.0007357 -0.0007357  0.9999997 
    2    68     2  1.6923128  0.0018046  0.9999883  0.0048340 -0.0048340  0.9999883 
    2    68     3  1.6758409 -0.0024189  0.9999997  0.0008161 -0.0008161  0.9999997 
    2    68     4  1.6745104 -0.0035306  0.9999877  0.0049576 -0.0049576  0.9999877 
    2    69     1  1.7037589 -0.0022788  0.9999994 -0.0011027  0.0011027  0.9999994 
    2    69     2  1.7215284  0.0030513  0.9999992 -0.0012360  0.0012360  0.9999992 
    2    69     3  1.7029833 -0.0032512  0.9999953  0.0030797 -0.0030797  0.9999953 
    2    69     4  1.7211545  0.0022019  0.9999958  0.0029136 -0.0029136  0.9999958 
    2    70     1  1.6984161 -0.0033634  0.9999948  0.0032208 -0.0032208  0.9999948 
    2    70     2  1.6991155 -0.0023611  0.9999995 -0.0010431  0.0010431  0.9999995 
    2    70     3  1.7171631  0.0022629  0.9999954  0.0030395 -0.0030395  0.9999954 
    2    70     4  1.7175273  0.0031611  0.9999993 -0.0011866  0.0011866  0.9999993 
    2    71     1  1.6874842  0.0020072  0.9999866  0.0051762 -0.0051762  0.9999866 
    2    71     2  1.6691558 -0.0034839  0.9999862  0.0052617 -0.0052617  0.9999862 
    2    71     3  1.6883035  0.0028525  0.9999995  0.0009969 -0.0009969  0.9999995 
    2    71     4  1.6702949 -0.0025407  0.9999995  0.0010429 -0.0010429  0.9999995 
    2    72     1  1.6971114  0.0015737  0.9999900  0.0044694 -0.0044694  0.9999900 
    2    72     2  1.6799412 -0.0035749  0.9999893  0.0046310 -0.0046310  0.9999893 
    2    72     3  1.6983887  0.0027724  0.9999999  0.0004773 -0.0004773  0.9999999 
    2    72     4  1.6815696 -0.0022662  0.9999998  0.0005967 -0.0005967  0.9999998 
    2    73     1  1.7047021  0.0029316  1.0000000  0.0002285 -0.0002285  1.0000000 
    2    73     2  1.7023478  0.0008963  0.9999909  0.0042709 -0.0042709  0.9999909 
    2    73     3  1.6878837 -0.0021085  0.9999999  0.0004652 -0.0004652  0.9999999 
    2    73     4  1.6853928 -0.0041936  0.9999896  0.0045510 -0.0045510  0.9999896 
    2    74     1  1.7142772 -0.0018432  0.9999991 -0.0013227  0.0013227  0.9999991 
    2    74     2  1.7284512  0.0024081  0.9999990 -0.0013946  0.0013946  0.9999990 
    2    74     3  1.7126898 -0.0028126  0.9999969  0.0024746 -0.0024746  0.9999969 
    2    74     4  1.7279140  0.0017555  0.9999972  0.0023718 -0.0023718  0.9999972 
    2    75     1  1.7074139 -0.0033855  0.9999957  0.0029158 -0.0029158  0.9999957 
    2    75     2  1.7084469 -0.0021839  0.9999993 -0.0011663  0.0011663  0.9999993 
    2    75     3  1.7248250  0.0018392  0.9999963  0.0027276 -0.0027276  0.9999963 
    2    75     4  1.7253070  0.0028728  0.9999991 -0.0013222  0.0013222  0.9999991 
    2    76     1  1.6353087 -0.0028138  0.9999937  0.0035533 -0.0035533  0.9999937 
    2    76     2  1.6535635  0.0026493  0.9999938  0.0035134 -0.0035134  0.9999938 
    2    76     3  1.6338029 -0.0039327  0.9999686  0.0079214 -0.0079214  0.9999686 
    2    76     4  1.6523749  0.0016268  0.9999692  0.0078438 -0.0078438  0.9999692 
    2    77     1  1.6274302 -0.0039314  0.9999647  0.0084051 -0.0084051  0.9999647 
    2    77     2  1.6287931 -0.0028034  0.9999925  0.0038738 -0.0038738  0.9999925 
    2    77     3  1.6466535  0.0018220  0.9999654  0.0083213 -0.0083213  0.9999654 
    2    77     4  1.6476656  0.0028431  0.9999927  0.0038329 -0.0038329  0.9999927 
    2    78     1  1.6157219  0.0013962  0.9999396  0.0109902 -0.0109902  0.9999396 
    2    78     2  1.5968800 -0.0042386  0.9999407  0.0108864 -0.0108864  0.9999407 
    2    78     3  1.6171349  0.0021839  0.9999784  0.0065769 -0.0065769  0.9999784 
    2    78     4  1.5986742 -0.0033382  0.9999793  0.0064271 -0.0064271  0.9999793 
    2    79     1  1.6239734  0.0019176  0.9999819  0.0060161 -0.0060161  0.9999819 
    2    79     2  1.6224137  0.0010662  0.9999473  0.0102641 -0.0102641  0.9999473 
    2    79     3  1.6061599 -0.0034110  0.9999826  0.0059017 -0.0059017  0.9999826 
    2    79     4  1.6042340 -0.0043725  0.9999479  0.0102035 -0.0102035  0.9999479 
    2    80     1  1.6774349  0.0022691  0.9999831  0.0058171 -0.0058171  0.9999831 
    2    80     2  1.6581377 -0.0035114  0.9999826  0.0059066 -0.0059066  0.9999826 
    2    80     3  1.6779945  0.0030874  0.9999991  0.0013348 -0.0013348  0.9999991 
    2    80     4  1.6589611 -0.0026159  0.9999990  0.0014110 -0.0014110  0.9999990 
    2    81     1  1.6832245  0.0029263  0.9999993  0.0011849 -0.0011849  0.9999993 
    2    81     2  1.6825165  0.0021188  0.9999847  0.0055331 -0.0055331  0.9999847 
    2    81     3  1.6646969 -0.0026219  0.9999993  0.0012202 -0.0012202  0.9999993 
    2    81     4  1.6636897 -0.0035206  0.9999843  0.0056068 -0.0056068  0.9999843 
    2    82     1  1.6942779 -0.0024462  0.9999995 -0.0010240  0.0010240  0.9999995 
    2    82     2  1.7131177  0.0032034  0.9999993 -0.0011604  0.0011604  0.9999993 
    2    82     3  1.6936602 -0.0034251  0.9999943  0.0033826 -0.0033826  0.9999943 
    2    82     4  1.7127771  0.0023113  0.9999949  0.0032061 -0.0032061  0.9999949 
    2    83     1  1.6887575 -0.0034397  0.9999938  0.0035102 -0.0035102  0.9999938 
    2    83     2  1.6892817 -0.0023887  0.9999995 -0.0009701  0.0009701  0.9999995 
    2    83     3  1.7082174  0.0023997  0.9999945  0.0033120 -0.0033120  0.9999945 
    2    83     4  1.7085573  0.0033940  0.9999993 -0.0011425  0.0011425  0.9999993 
    2    84     1  1.6841040 -0.0024652  0.9999996 -0.0009235  0.0009235  0.9999996 
    2    84     2  1.7037589  0.0034603  0.9999992 -0.0012525  0.0012525  0.9999992 
    2    84     3  1.6839421 -0.0034574  0.9999932  0.0036869 -0.0036869  0.9999932 
    2    84     4  1.7035006  0.0024235  0.9999941  0.0034271 -0.0034271  0.9999941 
    2    85     1  1.6821382 -0.0036031  0.9999924  0.0038926 -0.0038926  0.9999924 
    2    85     2  1.6810487 -0.0015331  1.0000000 -0.0001925  0.0001925  1.0000000 
    2    85     3  1.6993008  0.0016881  0.9999950  0.0031761 -0.0031761  0.9999950 
    2    85     4  1.6995655  0.0042753  0.9999994 -0.0011332  0.0011332  0.9999994 
    2    86     1  1.6696947  0.0034518  0.9999836  0.0057329 -0.0057329  0.9999836 
    2    86     2  1.6464951 -0.0037193  0.9999774  0.0067226 -0.0067226  0.9999774 
    2    86     3  1.6681195  0.0058424  1.0000000 -0.0000477  0.0000477  1.0000000 
    2    86     4  1.6465653 -0.0011862  0.9999987  0.0016303 -0.0016303  0.9999987 
    2    87     1  1.6729495  0.0033624  0.9999992  0.0012804 -0.0012804  0.9999992 
    2    87     2  1.6727520  0.0023675  0.9999818  0.0060344 -0.0060344  0.9999818 
    2    87     3  1.6533434 -0.0025236  0.9999989  0.0014815 -0.0014815  0.9999989 
    2    87     4  1.6528199 -0.0036112  0.9999806  0.0062311 -0.0062311  0.9999806 
    2    88     1  1.6219796 -0.0026932  0.9999923  0.0039320 -0.0039320  0.9999923 
    2    88     2  1.6418435  0.0032506  0.9999925  0.0038831 -0.0038831  0.9999925 
    2    88     3  1.6207889 -0.0038288  0.9999611  0.0088221 -0.0088221  0.9999611 
    2    88     4  1.6411278  0.0022578  0.9999619  0.0087346 -0.0087346  0.9999619 
    2    89     1  1.6139948 -0.0040157  0.9999599  0.0089605 -0.0089605  0.9999599 
    2    89     2  1.6159605 -0.0034355  0.9999941  0.0034220 -0.0034220  0.9999941 
    2    89     3  1.6361631  0.0026306  0.9999566  0.0093208 -0.0093208  0.9999566 
    2    89     4  1.6362838  0.0026727  0.9999901  0.0044438 -0.0044438  0.9999901 
    2    90     1  1.5994386  0.0023905  0.9999200  0.0126492 -0.0126492  0.9999200 
    2    90     2  1.5820698 -0.0028815  0.9999262  0.0121496 -0.0121496  0.9999262 
    2    90     3  1.6009330  0.0020058  0.9999643  0.0084540 -0.0084540  0.9999643 
    2    90     4  1.5829402 -0.0034739  0.9999691  0.0078602 -0.0078602  0.9999691 
    2    91     1  1.6100505  0.0026286  0.9999746  0.0071208 -0.0071208  0.9999746 
    2    91     2  1.6088163  0.0018702  0.9999312  0.0117284 -0.0117284  0.9999312 
    2    91     3  1.5909869 -0.0030656  0.9999765  0.0068599 -0.0068599  0.9999765 
    2    91     4  1.5893417 -0.0039492  0.9999330  0.0115792 -0.0115792  0.9999330 
    2    92     1  1.5950717  0.0045328  0.9999673  0.0080872 -0.0080872  0.9999673 
    2    92     2  1.5930183  0.0028343  0.9999183  0.0127787 -0.0127787  0.9999183 
    2    92     3  1.5759486 -0.0013257  0.9999607  0.0088617 -0.0088617  0.9999607 
    2    92     4  1.5766023 -0.0020504  0.9999178  0.0128247 -0.0128247  0.9999178 
    2    93     1  1.6072279 -0.0043980  0.9999816  0.0060634 -0.0060634  0.9999816 
    2    93     2  1.6165400  0.0018935  0.9999638  0.0085140 -0.0085140  0.9999638 
    2    93     3  1.6061298  0.0011258  0.9999681  0.0079867 -0.0079867  0.9999681 
    2    93     4  1.6137445  0.0048315  0.9999550  0.0094880 -0.0094880  0.9999550 
    2    94     1  1.5979010  0.0052872  0.9999517  0.0098307 -0.0098307  0.9999517 
    2    94     2  1.5798349 -0.0032520  0.9999126  0.0132183 -0.0132183  0.9999126 
    2    94     3  1.5888420  0.0099929  0.9999723  0.0074470 -0.0074470  0.9999723 
    2    94     4  1.5767163  0.0022455  0.9999432  0.0106555 -0.0106555  0.9999432 
    2    95     1  1.6336395  0.0002280  0.9999795  0.0063956 -0.0063956  0.9999795 
    2    95     2  1.6379768  0.0086352  0.9999895  0.0045764 -0.0045764  0.9999895 
    2    95     3  1.6336327 -0.0065289  0.9999845  0.0055619 -0.0055619  0.9999845 
    2    95     4  1.6377819  0.0017043  0.9999926  0.0038538 -0.0038538  0.9999926 
    2    96     1  1.6572268 -0.0064666  0.9999977  0.0021489 -0.0021489  0.9999977 
    2    96     2  1.6568162  0.0002665  0.9999954  0.0030172 -0.0030172  0.9999954 
    2    96     3  1.6621847  0.0021910  1.0000000  0.0000878 -0.0000878  1.0000000 
    2    96     4  1.6613057  0.0072562  0.9999994  0.0010621 -0.0010621  0.9999994 
    2    97     1  1.6313862  0.0081287  0.9999993  0.0012123 -0.0012123  0.9999993 
    2    97     2  1.6276117  0.0016631  0.9999963  0.0027360 -0.0027360  0.9999963 
    2    97     3  1.6310843  0.0134307  0.9999987  0.0015915 -0.0015915  0.9999987 
    2    97     4  1.6277232  0.0070886  0.9999957  0.0029269 -0.0029269  0.9999957 
    2    98     1  1.6054886  0.0125674  0.9999825  0.0059131 -0.0059131  0.9999825 
    2    98     2  1.6072133  0.0052847  0.9999869  0.0051240 -0.0051240  0.9999869 
    2    98     3  1.5991674  0.0030104  0.9999641  0.0084686 -0.0084686  0.9999641 
    2    98     4  1.6012229 -0.0032047  0.9999716  0.0075372 -0.0075372  0.9999716 
    2    99     1  1.6749191 -0.0033394  0.9999989  0.0014810 -0.0014810  0.9999989 
    2    99     2  1.6800043 -0.0051757  0.9999996 -0.0008423  0.0008423  0.9999996 
    2    99     3  1.6886070  0.0017253  0.9999954  0.0030424 -0.0030424  0.9999954 
    2    99     4  1.6885130 -0.0011734  0.9999997  0.0007894 -0.0007894  0.9999997 
    2   100     1  1.6674159  0.0080010  0.9999999  0.0005415 -0.0005415  0.9999999 
    2   100     2  1.6710141  0.0004375  0.9999939  0.0035023 -0.0035023  0.9999939 
    2   100     3  1.6532928 -0.0017483  0.9999907  0.0043122 -0.0043122  0.9999907 
    2   100     4  1.6589999 -0.0055269  0.9999833  0.0057859 -0.0057859  0.9999833 
    2   101     1  1.6798905 -0.0014611  0.9999996 -0.0008920  0.0008920  0.9999996 
    2   101     2  1.6971121  0.0037147  0.9999990 -0.0014038  0.0014038  0.9999990 
    2   101     3  1.6823886 -0.0032017  0.9999954  0.0030396 -0.0030396  0.9999954 
    2   101     4  1.6971082  0.0014240  0.9999974  0.0022721 -0.0022721  0.9999974 
    2   102     1  1.6450692  0.0149229  1.0000000 -0.0002702  0.0002702  1.0000000 
    2   102     2  1.6425491  0.0082260  0.9999978 -0.0021141  0.0021141  0.9999978 
    2   102     3  1.6408979 -0.0004272  0.9999996  0.0009441 -0.0009441  0.9999996 
    2   102     4  1.6398210 -0.0020163  0.9999994 -0.0010847  0.0010847  0.9999994 
    2   103     1  1.6682202 -0.0025133  0.9999967 -0.0025764  0.0025764  0.9999967 
    2   103     2  1.6865800  0.0032382  0.9999920 -0.0039967  0.0039967  0.9999920 
    2   103     3  1.6763423 -0.0008052  0.9999996  0.0008909 -0.0008909  0.9999996 
    2   103     4  1.6875303  0.0029046  0.9999996 -0.0009051  0.0009051  0.9999996 
    2   104     1  1.6592794 -0.0031690  1.0000000 -0.0002150  0.0002150  1.0000000 
    2   104     2  1.6744248  0.0121031  0.9999584 -0.0091167  0.0091167  0.9999584 
    2   104     3  1.7031305  0.0108446  0.9999933 -0.0036491  0.0036491  0.9999933 
    2   104     4  1.7093931  0.0226467  0.9999357 -0.0113362  0.0113362  0.9999357 
    2   105     1  1.5831118  0.0103908  0.9999652  0.0083475 -0.0083475  0.9999652 
    2   105     2  1.5799706  0.0129189  0.9999530  0.0096905 -0.0096905  0.9999530 
    2   105     3  1.5736662  0.0059219  0.9999785  0.0065612 -0.0065612  0.9999785 
    2   105     4  1.5733595  0.0089482  0.9999678  0.0080293 -0.0080293  0.9999678 
    2   106     1  1.5869507  0.0037238  0.9999705  0.0076793 -0.0076793  0.9999705 
    2   106     2  1.5772202  0.0247892  0.9999992  0.0012614 -0.0012614  0.9999992 
    2   106     3  1.6108082  0.0208854  0.9999995  0.0010048 -0.0010048  0.9999995 
    2   106     4  1.6014465  0.0340698  0.9999957 -0.0029249  0.0029249  0.9999957 
    2   107     1  1.5734226  0.0160158  0.9998898  0.0148446 -0.0148446  0.9998898 
    2   107     2  1.5586448  0.0119617  0.9998909  0.0147724 -0.0147724  0.9998909 
    2   107     3  1.5695161  0.0169380  0.9999319  0.0116682 -0.0116682  0.9999319 
    2   107     4  1.5574705  0.0133801  0.9999280  0.0119973 -0.0119973  0.9999280 
    2   108     1  1.5427119 -0.0049436  0.9998461  0.0175429 -0.0175429  0.9998461 
    2   108     2  1.5404206  0.0004250  0.9999327  0.0115994 -0.0115994  0.9999327 
    2   108     3  1.5696644  0.0039200  0.9998832  0.0152850 -0.0152850  0.9998832 
    2   108     4  1.5647430  0.0080989  0.9999510  0.0098960 -0.0098960  0.9999510 
    2   109     1  1.5264433  0.0029575  0.9997628  0.0217799 -0.0217799  0.9997628 
    2   109     2  1.4999389 -0.0051546  0.9997390  0.0228477 -0.0228477  0.9997390 
    2   109     3  1.5250334  0.0053868  0.9998793  0.0155345 -0.0155345  0.9998793 
    2   109     4  1.5005811 -0.0023459  0.9998543  0.0170681 -0.0170681  0.9998543 
    2   110     1  1.5321952  0.0031986  0.9998893  0.0148764 -0.0148764  0.9998893 
    2   110     2  1.5320040  0.0011731  0.9997948  0.0202560 -0.0202560  0.9997948 
    2   110     3  1.5105523 -0.0032913  0.9998827  0.0153130 -0.0153130  0.9998827 
    2   110     4  1.5092455 -0.0056245  0.9997863  0.0206722 -0.0206722  0.9997863 
    2   111     1  1.5440408 -0.0018357  0.9999324  0.0116299 -0.0116299  0.9999324 
    2   111     2  1.5651977  0.0048044  0.9999453  0.0104548 -0.0104548  0.9999453 
    2   111     3  1.5441768 -0.0044842  0.9998616  0.0166353 -0.0166353  0.9998616 
    2   111     4  1.5661836  0.0022210  0.9998755  0.0157797 -0.0157797  0.9998755 
    2   112     1  1.5230376  0.0064852  0.9998553  0.0170103 -0.0170103  0.9998553 
    2   112     2  1.5264593  0.0010210  0.9997679  0.0215435 -0.0215435  0.9997679 
    2   112     3  1.4974800 -0.0027571  0.9997971  0.0201447 -0.0201447  0.9997971 
    2   112     4  1.5056730 -0.0064916  0.9997100  0.0240803 -0.0240803  0.9997100 
    2   113     1  1.5370786  0.0012601  0.9999248  0.0122608 -0.0122608  0.9999248 
    2   113     2  1.5622232  0.0087572  0.9999281  0.0119921 -0.0119921  0.9999281 
    2   113     3  1.5391024  0.0001613  0.9998425  0.0177484 -0.0177484  0.9998425 
    2   113     4  1.5604916  0.0066438  0.9998528  0.0171577 -0.0171577  0.9998528 
    2   114     1  1.5360436  0.0041124  0.9997982  0.0200902 -0.0200902  0.9997982 
    2   114     2  1.5334092  0.0032200  0.9998589  0.0167966 -0.0167966  0.9998589 
    2   114     3  1.5505595  0.0084699  0.9997954  0.0202270 -0.0202270  0.9997954 
    2   114     4  1.5487620  0.0078256  0.9998584  0.0168264 -0.0168264  0.9998584 
    2   115     1  1.5284588  0.0028249  0.9997325  0.0231295 -0.0231295  0.9997325 
    2   115     2  1.5113879 -0.0023725  0.9997134  0.0239413 -0.0239413  0.9997134 
    2   115     3  1.5249252  0.0021304  0.9998102  0.0194839 -0.0194839  0.9998102 
    2   115     4  1.5061133 -0.0035384  0.9998028  0.0198598 -0.0198598  0.9998028 
    2   116     1  1.4790451 -0.0045366  0.9996970  0.0246163 -0.0246163  0.9996970 
    2   116     2  1.4869974  0.0014739  0.9997551  0.0221318 -0.0221318  0.9997551 
    2   116     3  1.4846204 -0.0063309  0.9997086  0.0241387 -0.0241387  0.9997086 
    2   116     4  1.4888663 -0.0014764  0.9997475  0.0224716 -0.0224716  0.9997475 
    2   117     1  1.4864201 -0.0057416  0.9996362  0.0269698 -0.0269698  0.9996362 
    2   117     2  1.4856742 -0.0042838  0.9997213  0.0236069 -0.0236069  0.9997213 
    2   117     3  1.5020440 -0.0005610  0.9996743  0.0255191 -0.0255191  0.9996743 
    2   117     4  1.4992525 -0.0000910  0.9997363  0.0229645 -0.0229645  0.9997363 
    2   118     1  1.4736834 -0.0037973  0.9995573  0.0297515 -0.0297515  0.9995573 
    2   118     2  1.4603135 -0.0083168  0.9995952  0.0284521 -0.0284521  0.9995952 
    2   118     3  1.4741245 -0.0057753  0.9996404  0.0268138 -0.0268138  0.9996404 
    2   118     4  1.4625220 -0.0093156  0.9996562  0.0262206 -0.0262206  0.9996562 
    2   119     1  1.4756407 -0.0057250  0.9998072  0.0196367 -0.0196367  0.9998072 
    2   119     2  1.4967252  0.0005701  0.9998068  0.0196552 -0.0196552  0.9998068 
    2   119     3  1.4735003 -0.0071801  0.9996904  0.0248823 -0.0248823  0.9996904 
    2   119     4  1.4952498 -0.0006992  0.9996893  0.0249246 -0.0249246  0.9996893 
    2   120     1  1.4639776 -0.0075850  0.9996321  0.0271241 -0.0271241  0.9996321 
    2   120     2  1.4663461 -0.0071337  0.9997680  0.0215411 -0.0215411  0.9997680 
    2   120     3  1.4868123 -0.0007221  0.9996208  0.0275360 -0.0275360  0.9996208 
    2   120     4  1.4874546 -0.0007544  0.9997478  0.0224561 -0.0224561  0.9997478 
    2   121     1  1.4472569 -0.0037964  0.9994811  0.0322102 -0.0322102  0.9994811 
    2   121     2  1.4282023 -0.0095406  0.9994942  0.0318031 -0.0318031  0.9994942 
    2   121     3  1.4493940 -0.0036535  0.9996221  0.0274905 -0.0274905  0.9996221 
    2   121     4  1.4297400 -0.0095845  0.9996343  0.0270410 -0.0270410  0.9996343 
    2   122     1  1.4609536 -0.0025167  0.9997023  0.0243980 -0.0243980  0.9997023 
    2   122     2  1.4588553 -0.0032826  0.9995644  0.0295117 -0.0295117  0.9995644 
    2   122     3  1.4404718 -0.0086552  0.9997107  0.0240541 -0.0240541  0.9997107 
    2   122     4  1.4380965 -0.0094965  0.9995743  0.0291770 -0.0291770  0.9995743 
    2   123     1  1.4541357 -0.0079950  0.9996733  0.0255590 -0.0255590  0.9996733 
    2   123     2  1.4693669 -0.0025129  0.9996230  0.0274573 -0.0274573  0.9996230 
    2   123     3  1.4521747 -0.0046905  0.9995958  0.0284280 -0.0284280  0.9995958 
    2   123     4  1.4644582 -0.0003063  0.9995519  0.0299333 -0.0299333  0.9995519 
    2   124     1  1.4383878 -0.0073433  0.9994966  0.0317260 -0.0317260  0.9994966 
    2   124     2  1.4406427 -0.0065418  0.9995690  0.0293577 -0.0293577  0.9995690 
    2   124     3  1.4483528 -0.0043755  0.9994859  0.0320610 -0.0320610  0.9994859 
    2   124     4  1.4516896 -0.0032307  0.9995682  0.0293827 -0.0293827  0.9995682 
    2   125     1  1.4268347 -0.0063721  0.9993381  0.0363773 -0.0363773  0.9993381 
    2   125     2  1.4118999 -0.0108574  0.9993433  0.0362351 -0.0362351  0.9993433 
    2   125     3  1.4296028 -0.0058282  0.9994835  0.0321354 -0.0321354  0.9994835 
    2   125     4  1.4129354 -0.0108238  0.9994843  0.0321127 -0.0321127  0.9994843 
    2   126     1  1.4405788 -0.0037722  0.9995608  0.0296346 -0.0296346  0.9995608 
    2   126     2  1.4378732 -0.0048709  0.9994098  0.0343510 -0.0343510  0.9994098 
    2   126     3  1.4210500 -0.0096192  0.9995655  0.0294767 -0.0294767  0.9995655 
    2   126     4  1.4195852 -0.0103410  0.9994150  0.0341997 -0.0341997  0.9994150 
    2   127     1  1.3922749 -0.0137863  0.9993127  0.0370681 -0.0370681  0.9993127 
    2   127     2  1.3932329 -0.0117431  0.9995000  0.0316184 -0.0316184  0.9995000 
    2   127     3  1.4137794 -0.0073498  0.9993289  0.0366290 -0.0366290  0.9993289 
    2   127     4  1.4156452 -0.0049909  0.9995177  0.0310542 -0.0310542  0.9995177 
    2   128     1  1.3763373 -0.0095105  0.9991255  0.0418109 -0.0418109  0.9991255 
    2   128     2  1.3505949 -0.0172458  0.9991023  0.0423638 -0.0423638  0.9991023 
    2   128     3  1.3773931 -0.0073476  0.9993922  0.0348613 -0.0348613  0.9993922 
    2   128     4  1.3524076 -0.0150598  0.9993459  0.0361636 -0.0361636  0.9993459 
    2   129     1  1.3876983 -0.0090258  0.9994416  0.0334147 -0.0334147  0.9994416 
    2   129     2  1.3851634 -0.0092851  0.9992363  0.0390746 -0.0390746  0.9992363 
    2   129     3  1.3656384 -0.0156785  0.9994583  0.0329101 -0.0329101  0.9994583 
    2   129     4  1.3628830 -0.0160062  0.9992594  0.0384803 -0.0384803  0.9992594 
    2   130     1  1.4035586 -0.0120567  0.9995933  0.0285185 -0.0285185  0.9995933 
    2   130     2  1.4249320 -0.0056430  0.9995869  0.0287414 -0.0287414  0.9995869 
    2   130     3  1.4010294 -0.0128186  0.9994276  0.0338287 -0.0338287  0.9994276 
    2   130     4  1.4224338 -0.0064015  0.9994155  0.0341853 -0.0341853  0.9994155 
    2   131     1  1.3730028 -0.0068646  0.9993124  0.0370781 -0.0370781  0.9993124 
    2   131     2  1.3746566 -0.0132661  0.9990995  0.0424285 -0.0424285  0.9990995 
    2   131     3  1.3470851 -0.0164122  0.9991703  0.0407265 -0.0407265  0.9991703 
    2   131     4  1.3541344 -0.0206656  0.9989789  0.0451796 -0.0451796  0.9989789 
    2   132     1  1.3865411 -0.0128511  0.9994375  0.0335359 -0.0335359  0.9994375 
    2   132     2  1.4077389 -0.0064335  0.9994568  0.0329558 -0.0329558  0.9994568 
    2   132     3  1.3872285 -0.0137630  0.9992508  0.0387023 -0.0387023  0.9992508 
    2   132     4  1.4069690 -0.0077954  0.9992702  0.0381986 -0.0381986  0.9992702 
    2   133     1  1.3833850 -0.0146444  0.9991594  0.0409934 -0.0409934  0.9991594 
    2   133     2  1.3825200 -0.0106724  0.9993566  0.0358670 -0.0358670  0.9993566 
    2   133     3  1.4014915 -0.0089808  0.9992115  0.0397048 -0.0397048  0.9992115 
    2   133     4  1.4027504 -0.0044349  0.9994028  0.0345541 -0.0345541  0.9994028 
    2   134     1  1.3742713 -0.0117441  0.9990604  0.0433406 -0.0433406  0.9990604 
    2   134     2  1.3584854 -0.0169560  0.9989958  0.0448045 -0.0448045  0.9989958 
    2   134     3  1.3722653 -0.0100903  0.9992227  0.0394219 -0.0394219  0.9992227 
    2   134     4  1.3548947 -0.0155127  0.9991803  0.0404823 -0.0404823  0.9991803 
    2   135     1  1.3283564 -0.0179729  0.9989679  0.0454215 -0.0454215  0.9989679 
    2   135     2  1.3363163 -0.0113499  0.9990965  0.0424993 -0.0424993  0.9990965 
    2   135     3  1.3335265 -0.0203301  0.9989960  0.0448002 -0.0448002  0.9989960 
    2   135     4  1.3378704 -0.0149152  0.9990808  0.0428678 -0.0428678  0.9990808 
    2   136     1  1.3350617 -0.0195382  0.9988328  0.0483007 -0.0483007  0.9988328 
    2   136     2  1.3348448 -0.0169659  0.9990057  0.0445832 -0.0445832  0.9990057 
    2   136     3  1.3496527 -0.0143639  0.9989213  0.0464361 -0.0464361  0.9989213 
    2   136     4  1.3475856 -0.0129138  0.9990486  0.0436108 -0.0436108  0.9990486 
    2   137     1  1.3228130 -0.0169398  0.9986799  0.0513660 -0.0513660  0.9986799 
    2   137     2  1.3087252 -0.0215943  0.9987501  0.0499817 -0.0499817  0.9987501 
    2   137     3  1.3232397 -0.0187374  0.9988676  0.0475774 -0.0475774  0.9988676 
    2   137     4  1.3107909 -0.0225002  0.9988927  0.0470463 -0.0470463  0.9988927 
    2   138     1  1.3271227 -0.0196246  0.9993010  0.0373833 -0.0373833  0.9993010 
    2   138     2  1.3488873 -0.0129918  0.9992700  0.0382025 -0.0382025  0.9992700 
    2   138     3  1.3241694 -0.0193307  0.9990823  0.0428314 -0.0428314  0.9990823 
    2   138     4  1.3462689 -0.0125819  0.9990427  0.0437461 -0.0437461  0.9990427 
    2   139     1  1.3117013 -0.0215115  0.9988723  0.0474786 -0.0474786  0.9988723 
    2   139     2  1.3136399 -0.0219624  0.9991590  0.0410031 -0.0410031  0.9991590 
    2   139     3  1.3358539 -0.0141804  0.9988317  0.0483248 -0.0483248  0.9988317 
    2   139     4  1.3370681 -0.0147522  0.9991018  0.0423742 -0.0423742  0.9991018 
    2   140     1  1.2937331 -0.0188759  0.9985466  0.0538948 -0.0538948  0.9985466 
    2   140     2  1.2709065 -0.0257258  0.9985560  0.0537214 -0.0537214  0.9985560 
    2   140     3  1.2951837 -0.0185831  0.9988515  0.0479142 -0.0479142  0.9988515 
    2   140     4  1.2705801 -0.0259734  0.9988677  0.0475746 -0.0475746  0.9988677 
    2   141     1  1.3066131 -0.0162658  0.9990530  0.0435098 -0.0435098  0.9990530 
    2   141     2  1.3034292 -0.0170837  0.9987263  0.0504561 -0.0504561  0.9987263 
    2   141     3  1.2790657 -0.0245458  0.9990772  0.0429502 -0.0429502  0.9990772 
    2   141     4  1.2781094 -0.0246890  0.9987772  0.0494386 -0.0494386  0.9987772 
    2   142     1  1.3011590 -0.0225871  0.9989414  0.0460002 -0.0460002  0.9989414 
    2   142     2  1.3183558 -0.0164184  0.9988312  0.0483352 -0.0483352  0.9988312 
    2   142     3  1.2998644 -0.0186312  0.9987643  0.0496979 -0.0496979  0.9987643 
    2   142     4  1.3133282 -0.0138383  0.9986731  0.0514974 -0.0514974  0.9986731 
    2   143     1  1.2873543 -0.0206567  0.9985522  0.0537915 -0.0537915  0.9985522 
    2   143     2  1.2889937 -0.0195133  0.9987106  0.0507654 -0.0507654  0.9987106 
    2   143     3  1.2977918 -0.0176194  0.9985393  0.0540299 -0.0540299  0.9985393 
    2   143     4  1.3008269 -0.0159690  0.9987192  0.0505958 -0.0505958  0.9987192 
    2   144     1  1.2773791 -0.0201620  0.9982411  0.0592852 -0.0592852  0.9982411 
    2   144     2  1.2621635 -0.0247308  0.9982505  0.0591268 -0.0591268  0.9982505 
    2   144     3  1.2780546 -0.0204880  0.9985388  0.0540400 -0.0540400  0.9985388 
    2   144     4  1.2603553 -0.0257809  0.9985389  0.0540383 -0.0540383  0.9985389 
    2   145     1  1.2873938 -0.0184798  0.9987054  0.0508678 -0.0508678  0.9987054 
    2   145     2  1.2862487 -0.0193158  0.9983953  0.0566295 -0.0566295  0.9983953 
    2   145     3  1.2650369 -0.0251703  0.9987097  0.0507834 -0.0507834  0.9987097 
    2   145     4  1.2661362 -0.0253313  0.9983975  0.0565894 -0.0565894  0.9983975 
    2   146     1  1.2315265 -0.0318719  0.9987376  0.0502309 -0.0502309  0.9987376 
    2   146     2  1.2628145 -0.0220933  0.9988389  0.0481757 -0.0481757  0.9988389 
    2   146     3  1.2330856 -0.0351976  0.9983282  0.0577989 -0.0577989  0.9983282 
    2   146     4  1.2620997 -0.0256194  0.9984931  0.0548774 -0.0548774  0.9984931 
    2   147     1  1.2316081 -0.0320922  0.9981554  0.0607111 -0.0607111  0.9981554 
    2   147     2  1.2287212 -0.0297948  0.9985115  0.0545419 -0.0545419  0.9985115 
    2   147     3  1.2562148 -0.0245092  0.9982416  0.0592771 -0.0592771  0.9982416 
    2   147     4  1.2554230 -0.0216109  0.9985893  0.0530987 -0.0530987  0.9985893 
    2   148     1  1.2153486 -0.0312168  0.9978492  0.0655520 -0.0655520  0.9978492 
    2   148     2  1.1812982 -0.0418829  0.9976934  0.0678807 -0.0678807  0.9976934 
    2   148     3  1.2120298 -0.0294995  0.9982478  0.0591716 -0.0591716  0.9982478 
    2   148     4  1.1798453 -0.0393894  0.9981438  0.0609009 -0.0609009  0.9981438 
    2   149     1  1.2125508 -0.0284910  0.9984952  0.0548399 -0.0548399  0.9984952 
    2   149     2  1.2139156 -0.0319893  0.9981594  0.0606448 -0.0606448  0.9981594 
    2   149     3  1.1853260 -0.0372880  0.9983537  0.0573569 -0.0573569  0.9983537 
    2   149     4  1.1857197 -0.0413348  0.9979750  0.0636071 -0.0636071  0.9979750 
    2   150     1  1.2327792 -0.0366048  0.9985075  0.0546153 -0.0546153  0.9985075 
    2   150     2  1.2301972 -0.0286686  0.9987893  0.0491933 -0.0491933  0.9987893 
    2   150     3  1.2618680 -0.0243869  0.9988048  0.0488777 -0.0488777  0.9988048 
    2   150     4  1.2544607 -0.0189832  0.9990000  0.0447096 -0.0447096  0.9990000 
    2   151     1  1.2154717 -0.0313884  0.9983411  0.0575757 -0.0575757  0.9983411 
    2   151     2  1.1890726 -0.0405264  0.9981434  0.0609071 -0.0609071  0.9981434 
    2   151     3  1.2141220 -0.0275188  0.9986464  0.0520128 -0.0520128  0.9986464 
    2   151     4  1.1888566 -0.0360498  0.9984905  0.0549255 -0.0549255  0.9984905 
    2   152     1  1.2151031 -0.0257246  0.9988128  0.0487131 -0.0487131  0.9988128 
    2   152     2  1.2157871 -0.0318017  0.9985345  0.0541184 -0.0541184  0.9985345 
    2   152     3  1.1917052 -0.0343053  0.9986288  0.0523508 -0.0523508  0.9986288 
    2   152     4  1.1911719 -0.0408478  0.9983191  0.0579562 -0.0579562  0.9983191 
    2   153     1  1.2285021 -0.0306020  0.9988655  0.0476209 -0.0476209  0.9988655 
    2   153     2  1.2495693 -0.0221942  0.9990391  0.0438285 -0.0438285  0.9990391 
    2   153     3  1.2295995 -0.0362033  0.9986376  0.0521811 -0.0521811  0.9986376 
    2   153     4  1.2515508 -0.0278629  0.9988195  0.0485754 -0.0485754  0.9988195 
    2   154     1  1.2851610 -0.0222772  0.9990456  0.0436793 -0.0436793  0.9990456 
    2   154     2  1.2769856 -0.0305649  0.9988790  0.0473363 -0.0473363  0.9988790 
    2   154     3  1.2808786 -0.0186655  0.9989826  0.0450967 -0.0450967  0.9989826 
    2   154     4  1.2759395 -0.0257768  0.9988736  0.0474495 -0.0474495  0.9988736 
    2   155     1  1.2801234 -0.0203307  0.9991953  0.0401096 -0.0401096  0.9991953 
    2   155     2  1.2790569 -0.0245959  0.9989980  0.0447556 -0.0447556  0.9989980 
    2   155     3  1.2618290 -0.0272299  0.9990755  0.0429909 -0.0429909  0.9990755 
    2   155     4  1.2632990 -0.0299544  0.9989158  0.0465534 -0.0465534  0.9989158 
    2   156     1  1.2945763 -0.0233126  0.9993006  0.0373939 -0.0373939  0.9993006 
    2   156     2  1.3102189 -0.0188734  0.9992719  0.0381542 -0.0381542  0.9992719 
    2   156     3  1.2920153 -0.0251516  0.9991267  0.0417834 -0.0417834  0.9991267 
    2   156     4  1.3061389 -0.0209661  0.9991298  0.0417087 -0.0417087  0.9991298 
    2   157     1  1.3178369 -0.0156832  0.9990056  0.0445852 -0.0445852  0.9990056 
    2   157     2  1.2986571 -0.0225955  0.9991191  0.0419635 -0.0419635  0.9991191 
    2   157     3  1.3215321 -0.0191991  0.9991682  0.0407794 -0.0407794  0.9991682 
    2   157     4  1.3056829 -0.0248286  0.9992511  0.0386935 -0.0386935  0.9992511 
    2   158     1  1.3402903 -0.0172787  0.9993586  0.0358118 -0.0358118  0.9993586 
    2   158     2  1.3370219 -0.0168626  0.9992192  0.0395103 -0.0395103  0.9992192 
    2   158     3  1.3249120 -0.0221919  0.9994015  0.0345916 -0.0345916  0.9994015 
    2   158     4  1.3204115 -0.0219990  0.9992531  0.0386432 -0.0386432  0.9992531 
    2   159     1  1.3583207 -0.0190978  0.9995460  0.0301287 -0.0301287  0.9995460 
    2   159     2  1.3796700 -0.0124687  0.9995101  0.0312969 -0.0312969  0.9995101 
    2   159     3  1.3534600 -0.0187669  0.9993713  0.0354550 -0.0354550  0.9993713 
    2   159     4  1.3746031 -0.0123760  0.9993488  0.0360817 -0.0360817  0.9993488 
    2   160     1  1.3365947 -0.0189976  0.9992351  0.0391042 -0.0391042  0.9992351 
    2   160     2  1.3410425 -0.0189146  0.9994256  0.0338888 -0.0338888  0.9994256 
    2   160     3  1.3581171 -0.0123639  0.9991901  0.0402391 -0.0402391  0.9991901 
    2   160     4  1.3621451 -0.0124153  0.9993891  0.0349479 -0.0349479  0.9993891 
    2   161     1  1.4141994 -0.0114331  0.9995442  0.0301896 -0.0301896  0.9995442 
    2   161     2  1.4174284 -0.0115757  0.9996759  0.0254572 -0.0254572  0.9996759 
    2   161     3  1.4336369 -0.0054567  0.9995155  0.0311258 -0.0311258  0.9995155 
    2   161     4  1.4366536 -0.0056895  0.9996554  0.0262522 -0.0262522  0.9996554 
    2   162     1  1.3969416 -0.0093542  0.9993543  0.0359297 -0.0359297  0.9993543 
    2   162     2  1.3758715 -0.0157397  0.9993819  0.0351541 -0.0351541  0.9993819 
    2   162     3  1.4007675 -0.0087988  0.9995296  0.0306696 -0.0306696  0.9995296 
    2   162     4  1.3799150 -0.0151232  0.9995519  0.0299328 -0.0299328  0.9995519 
    2   163     1  1.4138952 -0.0087332  0.9996183  0.0276254 -0.0276254  0.9996183 
    2   163     2  1.4099319 -0.0063994  0.9994878  0.0320011 -0.0320011  0.9994878 
    2   163     3  1.3972825 -0.0143327  0.9996625  0.0259792 -0.0259792  0.9996625 
    2   163     4  1.3935615 -0.0124541  0.9995598  0.0296676 -0.0296676  0.9995598 
    2   164     1  1.4331316 -0.0117081  0.9997416  0.0227328 -0.0227328  0.9997416 
    2   164     2  1.4507547 -0.0062585  0.9997213  0.0236093 -0.0236093  0.9997213 
    2   164     3  1.4287281 -0.0116273  0.9996251  0.0273808 -0.0273808  0.9996251 
    2   164     4  1.4475090 -0.0059582  0.9996121  0.0278490 -0.0278490  0.9996121 
    2   165     1  1.4352121 -0.0138376  0.9996625  0.0259802 -0.0259802  0.9996625 
    2   165     2  1.4392924 -0.0085734  0.9997740  0.0212611 -0.0212611  0.9997740 
    2   165     3  1.4571457 -0.0062335  0.9997213  0.0236096 -0.0236096  0.9997213 
    2   165     4  1.4540561 -0.0040191  0.9997940  0.0202955 -0.0202955  0.9997940 
    2   166     1  1.4277479 -0.0026082  0.9996680  0.0257670 -0.0257670  0.9996680 
    2   166     2  1.4263337 -0.0105527  0.9997061  0.0242441 -0.0242441  0.9997061 
    2   166     3  1.4239651 -0.0127360  0.9996213  0.0275175 -0.0275175  0.9996213 
    2   166     4  1.4238096 -0.0160590  0.9996606  0.0260532 -0.0260532  0.9996606 
    2   167     1  1.4370548 -0.0100467  0.9997160  0.0238321 -0.0238321  0.9997160 
    2   167     2  1.4501854 -0.0042429  0.9997716  0.0213717 -0.0213717  0.9997716 
    2   167     3  1.4406587 -0.0133379  0.9996671  0.0258007 -0.0258007  0.9996671 
    2   167     4  1.4517711 -0.0081974  0.9997214  0.0236027 -0.0236027  0.9997214 
    2   168     1  1.4692407 -0.0030529  0.9996348  0.0270250 -0.0270250  0.9996348 
    2   168     2  1.4492611 -0.0091016  0.9996523  0.0263685 -0.0263685  0.9996523 
    2   168     3  1.4719241 -0.0028068  0.9997554  0.0221160 -0.0221160  0.9997554 
    2   168     4  1.4523026 -0.0087475  0.9997683  0.0215245 -0.0215245  0.9997683 
    2   169     1  1.4832646 -0.0028519  0.9997948  0.0202577 -0.0202577  0.9997948 
    2   169     2  1.4797694 -0.0016138  0.9996901  0.0248951 -0.0248951  0.9996901 
    2   169     3  1.4647806 -0.0087475  0.9998197  0.0189893 -0.0189893  0.9998197 
    2   169     4  1.4618148 -0.0075333  0.9997298  0.0232461 -0.0232461  0.9997298 
    2   170     1  1.4992879 -0.0066539  0.9998706  0.0160858 -0.0160858  0.9998706 
    2   170     2  1.5162047 -0.0014352  0.9998577  0.0168675 -0.0168675  0.9998577 
    2   170     3  1.4960353 -0.0064428  0.9997964  0.0201801 -0.0201801  0.9997964 
    2   170     4  1.5137125 -0.0009760  0.9997782  0.0210604 -0.0210604  0.9997782 
    2   171     1  1.4839021 -0.0070657  0.9997445  0.0226043 -0.0226043  0.9997445 
    2   171     2  1.4865196 -0.0062024  0.9998420  0.0177769 -0.0177769  0.9998420 
    2   171     3  1.5040824 -0.0010242  0.9997345  0.0230419 -0.0230419  0.9997345 
    2   171     4  1.5062300 -0.0002920  0.9998360  0.0181111 -0.0181111  0.9998360 
    2   172     1  1.4937478 -0.0023855  0.9997617  0.0218290 -0.0218290  0.9997617 
    2   172     2  1.4815382 -0.0074276  0.9998033  0.0198326 -0.0198326  0.9998033 
    2   172     3  1.4961626 -0.0057041  0.9998068  0.0196563 -0.0196563  0.9998068 
    2   172     4  1.4863430 -0.0097644  0.9998370  0.0180532 -0.0180532  0.9998370 
    2   173     1  1.5106617 -0.0047119  0.9998515  0.0172347 -0.0172347  0.9998515 
    2   173     2  1.5083901 -0.0034798  0.9998093  0.0195296 -0.0195296  0.9998093 
    2   173     3  1.5004846 -0.0082794  0.9998701  0.0161190 -0.0161190  0.9998701 
    2   173     4  1.4975383 -0.0070567  0.9998266  0.0186215 -0.0186215  0.9998266 
    2   174     1  1.5230766 -0.0067415  0.9999105  0.0133760 -0.0133760  0.9999105 
    2   174     2  1.5372893 -0.0023028  0.9998997  0.0141596 -0.0141596  0.9998997 
    2   174     3  1.5196453 -0.0065565  0.9998581  0.0168468 -0.0168468  0.9998581 
    2   174     4  1.5347244 -0.0018941  0.9998460  0.0175503 -0.0175503  0.9998460 
    2   175     1  1.5069733 -0.0068278  0.9998280  0.0185446 -0.0185446  0.9998280 
    2   175     2  1.5108049 -0.0067971  0.9998922  0.0146826 -0.0146826  0.9998922 
    2   175     3  1.5238135 -0.0016058  0.9998112  0.0194307 -0.0194307  0.9998112 
    2   175     4  1.5267849 -0.0018317  0.9998792  0.0155401 -0.0155401  0.9998792 
    2   176     1  1.4791055 -0.0081077  0.9998502  0.0173076 -0.0173076  0.9998502 
    2   176     2  1.4905312 -0.0046472  0.9998345  0.0181932 -0.0181932  0.9998345 
    2   176     3  1.4772817 -0.0085499  0.9997917  0.0204121 -0.0204121  0.9997917 
    2   176     4  1.4875480 -0.0054645  0.9997871  0.0206342 -0.0206342  0.9997871 
    2   177     1  1.4727920 -0.0060032  0.9997768  0.0211253 -0.0211253  0.9997768 
    2   177     2  1.4653661 -0.0121562  0.9997211  0.0236147 -0.0236147  0.9997211 
    2   177     3  1.4688404 -0.0034601  0.9997698  0.0214553 -0.0214553  0.9997698 
    2   177     4  1.4644759 -0.0084895  0.9997316  0.0231655 -0.0231655  0.9997316 
    2   178     1  1.4694211 -0.0043332  0.9998171  0.0191233 -0.0191233  0.9998171 
    2   178     2  1.4687268 -0.0067022  0.9997544  0.0221599 -0.0221599  0.9997544 
    2   178     3  1.4569014 -0.0088097  0.9997861  0.0206841 -0.0206841  0.9997861 
    2   178     4  1.4581072 -0.0102430  0.9997326  0.0231226 -0.0231226  0.9997326 
    2   179     1  1.5380203  0.0004916  0.9998170  0.0191320 -0.0191320  0.9998170 
    2   179     2  1.5177970 -0.0055420  0.9998200  0.0189750 -0.0189750  0.9998200 
    2   179     3  1.5393813  0.0014134  0.9998984  0.0142570 -0.0142570  0.9998984 
    2   179     4  1.5197104 -0.0044711  0.9998993  0.0141896 -0.0141896  0.9998993 
    2   180     1  1.5476437  0.0004354  0.9999089  0.0134980 -0.0134980  0.9999089 
    2   180     2  1.5456242  0.0000948  0.9998384  0.0179784 -0.0179784  0.9998384 
    2   180     3  1.5294308 -0.0050525  0.9999145  0.0130752 -0.0130752  0.9999145 
    2   180     4  1.5269077 -0.0055410  0.9998466  0.0175126 -0.0175126  0.9998466 
    2   181     1  1.5601491 -0.0038881  0.9999485  0.0101460 -0.0101460  0.9999485 
    2   181     2  1.5785082  0.0016117  0.9999463  0.0103628 -0.0103628  0.9999463 
    2   181     3  1.5582092 -0.0046481  0.9998931  0.0146220 -0.0146220  0.9998931 
    2   181     4  1.5768534  0.0009325  0.9998901  0.0148237 -0.0148237  0.9998901 
    2   182     1  1.5504382 -0.0044376  0.9998775  0.0156492 -0.0156492  0.9998775 
    2   182     2  1.5516424 -0.0034003  0.9999397  0.0109791 -0.0109791  0.9999397 
    2   182     3  1.5700190  0.0014085  0.9998773  0.0156619 -0.0156619  0.9998773 
    2   182     4  1.5712017  0.0024603  0.9999408  0.0108843 -0.0108843  0.9999408 
    2   183     1  1.5543084 -0.0004563  0.9998623  0.0165969 -0.0165969  0.9998623 
    2   183     2  1.5369119 -0.0057108  0.9998702  0.0161094 -0.0161094  0.9998702 
    2   183     3  1.5565968 -0.0001643  0.9999215  0.0125293 -0.0125293  0.9999215 
    2   183     4  1.5397967 -0.0052473  0.9999277  0.0120214 -0.0120214  0.9999277 
    2   184     1  1.5655842 -0.0003904  0.9999361  0.0113003 -0.0113003  0.9999361 
    2   184     2  1.5632672 -0.0007069  0.9998845  0.0151968 -0.0151968  0.9998845 
    2   184     3  1.5493710 -0.0052932  0.9999413  0.0108356 -0.0108356  0.9999413 
    2   184     4  1.5465140 -0.0057611  0.9998905  0.0147961 -0.0147961  0.9998905 
    2   185     1  1.5774082 -0.0040766  0.9999649  0.0083792 -0.0083792  0.9999649 
    2   185     2  1.5946183  0.0010748  0.9999632  0.0085757 -0.0085757  0.9999632 
    2   185     3  1.5749885 -0.0050351  0.9999211  0.0125604 -0.0125604  0.9999211 
    2   185     4  1.5926097  0.0002379  0.9999193  0.0127044 -0.0127044  0.9999193 
    2   186     1  1.5665677 -0.0049377  0.9999080  0.0135614 -0.0135614  0.9999080 
    2   186     2  1.5689279 -0.0039380  0.9999574  0.0092258 -0.0092258  0.9999574 
    2   186     3  1.5848315  0.0005222  0.9999057  0.0137330 -0.0137330  0.9999057 
    2   186     4  1.5867583  0.0013952  0.9999555  0.0094342 -0.0094342  0.9999555 
    2   187     1  1.2101529 -0.0254866  0.9980937  0.0617168 -0.0617168  0.9980937 
    2   187     2  1.2198010 -0.0273330  0.9976922  0.0678986 -0.0678986  0.9976922 
    2   187     3  1.1826166 -0.0347187  0.9978987  0.0647941 -0.0647941  0.9978987 
    2   187     4  1.1987846 -0.0339828  0.9975700  0.0696714 -0.0696714  0.9975700 
    2   188     1  1.2244955 -0.0311074  0.9984476  0.0556985 -0.0556985  0.9984476 
    2   188     2  1.2507815 -0.0231953  0.9984763  0.0551815 -0.0551815  0.9984763 
    2   188     3  1.2306160 -0.0298557  0.9980540  0.0623552 -0.0623552  0.9980540 
    2   188     4  1.2540852 -0.0227803  0.9980880  0.0618081 -0.0618081  0.9980880 
    2   189     1  1.2354566 -0.0284611  0.9979077  0.0646551 -0.0646551  0.9979077 
    2   189     2  1.2293468 -0.0251829  0.9982672  0.0588446 -0.0588446  0.9982672 
    2   189     3  1.2534618 -0.0228256  0.9980042  0.0631472 -0.0631472  0.9980042 
    2   189     4  1.2507367 -0.0185033  0.9983691  0.0570881 -0.0570881  0.9983691 
    2   190     1  1.2275193 -0.0270664  0.9977195  0.0674969 -0.0674969  0.9977195 
    2   190     2  1.2138191 -0.0318066  0.9976025  0.0692050 -0.0692050  0.9976025 
    2   190     3  1.2214163 -0.0253967  0.9979988  0.0632334 -0.0632334  0.9979988 
    2   190     4  1.2055958 -0.0304901  0.9979043  0.0647072 -0.0647072  0.9979043 
    2   191     1  1.1773281 -0.0330696  0.9975664  0.0697223 -0.0697223  0.9975664 
    2   191     2  1.1767628 -0.0276337  0.9976276  0.0688421 -0.0688421  0.9976276 
    2   191     3  1.1688921 -0.0445609  0.9978989  0.0647905 -0.0647905  0.9978989 
    2   191     4  1.1712096 -0.0362271  0.9978412  0.0656728 -0.0656728  0.9978412 
    2   192     1  1.1918565 -0.0336544  0.9972503  0.0741075 -0.0741075  0.9972503 
    2   192     2  1.1832513 -0.0360171  0.9976755  0.0681446 -0.0681446  0.9976755 
    2   192     3  1.2076280 -0.0288526  0.9973732  0.0724335 -0.0724335  0.9973732 
    2   192     4  1.1985055 -0.0314262  0.9977162  0.0675459 -0.0675459  0.9977162 
    2   193     1  1.1819093 -0.0250738  0.9971172  0.0758771 -0.0758771  0.9971172 
    2   193     2  1.1669905 -0.0322635  0.9973963  0.0721153 -0.0721153  0.9973963 
    2   193     3  1.1739025 -0.0359765  0.9975686  0.0696913 -0.0696913  0.9975686 
    2   193     4  1.1635287 -0.0393134  0.9976816  0.0680552 -0.0680552  0.9976816 
    3     1     1  0.6867919 -0.3741259  0.9465310  0.3226128 -0.3226128  0.9465310 
    3     1     2  0.3778546 -1.0068716  0.9872450  0.1592086 -0.1592086  0.9872450 
    3     1     3  0.9744075 -0.4349351  0.9186111  0.3951627 -0.3951627  0.9186111 
    3     1     4  0.6533292 -1.0288618  0.9653759  0.2608627 -0.2608627  0.9653759 
    3     2     1  0.7071731 -0.7314713  0.9226134  0.3857261 -0.3857261  0.9226134 
    3     2     2  0.5014049 -0.6807480  0.9326530  0.3607746 -0.3607746  0.9326530 
    3     2     3  0.4667835 -1.0758225  0.9579333  0.2869911 -0.2869911  0.9579333 
    3     2     4  0.2509426 -1.0598526  0.9719375  0.2352394 -0.2352394  0.9719375 
    3     3     1  0.4483346 -0.2816524  0.9636331  0.2672289 -0.2672289  0.9636331 
    3     3     2  0.5612592 -0.2439301  0.9324701  0.3612473 -0.3612473  0.9324701 
    3     3     3  0.2388838 -0.3403034  0.9508861  0.3095409 -0.3095409  0.9508861 
    3     3     4  0.3958862 -0.2974731  0.9155467  0.4022116 -0.4022116  0.9155467 
    3     4     1  0.6225584 -0.0515686  0.9914880 -0.1301983  0.1301983  0.9914880 
    3     4     2  1.0881569  0.0912600  0.9955329 -0.0944157  0.0944157  0.9955329 
    3     4     3  0.6506504 -0.0657837  0.9918236  0.1276165 -0.1276165  0.9918236 
    3     4     4  1.0901629  0.0693696  0.9959220  0.0902180 -0.0902180  0.9959220 
    3     5     1  0.3576084 -0.8043585  0.9359465  0.3521423 -0.3521423  0.9359465 
    3     5     2  0.2160951 -1.0785718  0.9611553  0.2760083 -0.2760083  0.9611553 
    3     5     3  0.4567530 -0.9044704  0.9314011  0.3639944 -0.3639944  0.9314011 
    3     5     4  0.3256235 -1.1093259  0.9517309  0.3069338 -0.3069338  0.9517309 
    3     6     1  0.3287401 -0.8712831  0.9172795  0.3982441 -0.3982441  0.9172795 
    3     6     2  0.2418198 -0.8930578  0.9397071  0.3419804 -0.3419804  0.9397071 
    3     6     3  0.2277803 -1.1247832  0.9348921  0.3549320 -0.3549320  0.9348921 
    3     6     4  0.1760507 -1.0990883  0.9482985  0.3173798 -0.3173798  0.9482985 
    3     7     1  0.2457451 -0.6787575  0.9043430  0.4268065 -0.4268065  0.9043430 
    3     7     2  0.3246922 -0.5101174  0.9271732  0.3746330 -0.3746330  0.9271732 
    3     7     3  0.2908449 -0.7131375  0.9253967  0.3790000 -0.3790000  0.9253967 
    3     7     4  0.3395264 -0.5796140  0.9357059  0.3527810 -0.3527810  0.9357059 
    3     8     1  0.1903696 -0.6775865  0.9102465  0.4140668 -0.4140668  0.9102465 
    3     8     2  0.2629361 -0.7098540  0.8752635  0.4836463 -0.4836463  0.8752635 
    3     8     3  0.2844094 -0.4291826  0.8807980  0.4734922 -0.4734922  0.8807980 
    3     8     4  0.3490647 -0.4641821  0.8466064  0.5322196 -0.5322196  0.8466064 
    3     9     1  0.2034400 -0.8474453  0.9288769  0.3703886 -0.3703886  0.9288769 
    3     9     2  0.1304887 -1.0699729  0.9377386  0.3473417 -0.3473417  0.9377386 
    3     9     3  0.2350795 -0.8736965  0.9086884  0.4174750 -0.4174750  0.9086884 
    3     9     4  0.1538190 -1.1195980  0.9201489  0.3915687 -0.3915687  0.9201489 
    3    10     1  0.2395646 -0.8740662  0.8913288  0.4533574 -0.4533574  0.8913288 
    3    10     2  0.1876506 -0.8360006  0.9080273  0.4189110 -0.4189110  0.9080273 
    3    10     3  0.1438238 -1.1044092  0.9126546  0.4087316 -0.4087316  0.9126546 
    3    10     4  0.0937697 -1.0582554  0.9285348  0.3712454 -0.3712454  0.9285348 
    3    11     1  0.2265928 -0.7549527  0.8693991  0.4941104 -0.4941104  0.8693991 
    3    11     2  0.3111487 -0.5939943  0.8390790  0.5440096 -0.5440096  0.8390790 
    3    11     3  0.1701728 -0.7188184  0.8867881  0.4621762 -0.4621762  0.8867881 
    3    11     4  0.2554201 -0.5560016  0.8551112  0.5184447 -0.5184447  0.8551112 
    3    12     1  0.3551517 -0.3657706  0.8223387  0.5689984 -0.5689984  0.8223387 
    3    12     2  0.2922907 -0.3584449  0.8241333  0.5663959 -0.5663959  0.8241333 
    3    12     3  0.2945588 -0.4346860  0.8512054  0.5248327 -0.5248327  0.8512054 
    3    12     4  0.2293568 -0.4275720  0.8559846  0.5170014 -0.5170014  0.8559846 
    3    13     1  0.3539252 -0.2145416  0.8711831  0.4909583 -0.4909583  0.8711831 
    3    13     2  0.3926291 -0.2028056  0.8499040  0.5269375 -0.5269375  0.8499040 
    3    13     3  0.2864094 -0.2344038  0.8605859  0.5093053 -0.5093053  0.8605859 
    3    13     4  0.3274272 -0.2234246  0.8367918  0.5475212 -0.5475212  0.8367918 
    3    14     1  0.3309216 -0.0811523  0.9565467  0.2915792 -0.2915792  0.9565467 
    3    14     2  0.4458967 -0.0430408  0.9658290  0.2591800 -0.2591800  0.9658290 
    3    14     3  0.3615042 -0.0957927  0.9270719  0.3748836 -0.3748836  0.9270719 
    3    14     4  0.4740443 -0.0545215  0.9424029  0.3344798 -0.3344798  0.9424029 
    3    15     1  0.3131845 -0.2146022  0.8853291  0.4649649 -0.4649649  0.8853291 
    3    15     2  0.2523328 -0.2921597  0.9216484  0.3880260 -0.3880260  0.9216484 
    3    15     3  0.4052682 -0.2082971  0.8813764  0.4724147 -0.4724147  0.8813764 
    3    15     4  0.3437908 -0.2790611  0.9119516  0.4102977 -0.4102977  0.9119516 
    3    16     1  0.2853095 -0.3752781  0.8047677  0.5935899 -0.5935899  0.8047677 
    3    16     2  0.3363104 -0.3663701  0.8136535  0.5813501 -0.5813501  0.8136535 
    3    16     3  0.3286967 -0.3545330  0.7855308  0.6188226 -0.6188226  0.7855308 
    3    16     4  0.3790341 -0.3448222  0.7953811  0.6061097 -0.6061097  0.7953811 
    3    17     1  0.2923616 -0.4795969  0.8003255  0.5995657 -0.5995657  0.8003255 
    3    17     2  0.2308295 -0.5396787  0.8262462  0.5633092 -0.5633092  0.8262462 
    3    17     3  0.3435217 -0.4932456  0.8016817  0.5977512 -0.5977512  0.8016817 
    3    17     4  0.2825956 -0.5544019  0.8258228  0.5639297 -0.5639297  0.8258228 
    3    18     1  0.3413964 -0.5771630  0.7890783  0.6142926 -0.6142926  0.7890783 
    3    18     2  0.2905574 -0.5571610  0.7893839  0.6138998 -0.6138998  0.7893839 
    3    18     3  0.2687947 -0.6531466  0.8156440  0.5785541 -0.5785541  0.8156440 
    3    18     4  0.2273604 -0.6257229  0.8150397  0.5794051 -0.5794051  0.8150397 
    3    19     1  0.3357432 -0.4865514  0.7836551  0.6211961 -0.6211961  0.7836551 
    3    19     2  0.3819707 -0.4513422  0.7656148  0.6432992 -0.6432992  0.7656148 
    3    19     3  0.2930390 -0.4838723  0.7808321  0.6247410 -0.6247410  0.7808321 
    3    19     4  0.3392889 -0.4491534  0.7618163  0.6477932 -0.6477932  0.7618163 
    3    20     1  0.1923199 -0.8364620  0.8627111  0.5056971 -0.5056971  0.8627111 
    3    20     2  0.2832379 -0.7369024  0.8363206  0.5482406 -0.5482406  0.8363206 
    3    20     3  0.1409746 -0.7917582  0.8650372  0.5017078 -0.5017078  0.8650372 
    3    20     4  0.2408682 -0.7023052  0.8364682  0.5480154 -0.5480154  0.8364682 
    3    21     1  0.1556774 -0.7606574  0.8719667  0.4895652 -0.4895652  0.8719667 
    3    21     2  0.2087465 -0.8029819  0.8624889  0.5060759 -0.5060759  0.8624889 
    3    21     3  0.2429538 -0.6360935  0.8409207  0.5411583 -0.5411583  0.8409207 
    3    21     4  0.2939892 -0.6744437  0.8336093  0.5523546 -0.5523546  0.8336093 
    3    22     1  0.1780422 -0.8536881  0.8988499  0.4382567 -0.4382567  0.8988499 
    3    22     2  0.0792376 -1.0387971  0.9230449  0.3846922 -0.3846922  0.9230449 
    3    22     3  0.2257713 -0.8976765  0.8878413  0.4601498 -0.4601498  0.8878413 
    3    22     4  0.1315469 -1.0794374  0.9104989  0.4135114 -0.4135114  0.9104989 
    3    23     1  0.2114167 -0.9186829  0.8919044  0.4522240 -0.4522240  0.8919044 
    3    23     2  0.1705357 -0.8765198  0.8977490  0.4405074 -0.4405074  0.8977490 
    3    23     3  0.1303727 -1.0458589  0.9111001  0.4121853 -0.4121853  0.9111001 
    3    23     4  0.0814062 -1.0154755  0.9195895  0.3928807 -0.3928807  0.9195895 
    3    24     1  0.1608399 -0.8311069  0.8707624  0.4917040 -0.4917040  0.8707624 
    3    24     2  0.1712052 -0.8447106  0.8762830  0.4817968 -0.4817968  0.8762830 
    3    24     3  0.2024381 -0.8149848  0.8660917  0.4998852 -0.4998852  0.8660917 
    3    24     4  0.1986548 -0.8294271  0.8715596  0.4902896 -0.4902896  0.8715596 
    3    25     1  0.1663946 -0.8450717  0.9012827  0.4332316 -0.4332316  0.9012827 
    3    25     2  0.0979900 -0.9789774  0.9186497  0.3950731 -0.3950731  0.9186497 
    3    25     3  0.1881331 -0.9114231  0.8968032  0.4424297 -0.4424297  0.8968032 
    3    25     4  0.1290234 -1.0105084  0.9111793  0.4120100 -0.4120100  0.9111793 
    3    26     1  0.1661934 -0.8566081  0.8975108  0.4409926 -0.4409926  0.8975108 
    3    26     2  0.1405843 -0.8588636  0.9084451  0.4180042 -0.4180042  0.9084451 
    3    26     3  0.1276147 -0.9520941  0.9066440  0.4218965 -0.4218965  0.9066440 
    3    26     4  0.1134622 -0.9366053  0.9138359  0.4060837 -0.4060837  0.9138359 
    3    27     1  0.2959336 -0.5967295  0.7833516  0.6215789 -0.6215789  0.7833516 
    3    27     2  0.2370333 -0.6789217  0.8077044  0.5895876 -0.5895876  0.8077044 
    3    27     3  0.3362549 -0.6208982  0.7768175  0.6297258 -0.6297258  0.7768175 
    3    27     4  0.2800040 -0.6947165  0.7984898  0.6020084 -0.6020084  0.7984898 
    3    28     1  0.3329817 -0.6241655  0.7675762  0.6409577 -0.6409577  0.7675762 
    3    28     2  0.2959231 -0.6117877  0.7699095  0.6381531 -0.6381531  0.7699095 
    3    28     3  0.2844563 -0.6793649  0.7862208  0.6179457 -0.6179457  0.7862208 
    3    28     4  0.2454934 -0.6669326  0.7897121  0.6134776 -0.6134776  0.7897121 
    3    29     1  0.3360394 -0.5961797  0.7514377  0.6598041 -0.6598041  0.7514377 
    3    29     2  0.3814475 -0.5585846  0.7348892  0.6781872 -0.6781872  0.7348892 
    3    29     3  0.2994478 -0.5904087  0.7506146  0.6607403 -0.6607403  0.7506146 
    3    29     4  0.3450483 -0.5529540  0.7332814  0.6799253 -0.6799253  0.7332814 
    3    30     1  0.2967311 -0.5497389  0.7643490  0.6448028 -0.6448028  0.7643490 
    3    30     2  0.3380603 -0.5538181  0.7665416  0.6421946 -0.6421946  0.7665416 
    3    30     3  0.3435050 -0.5134902  0.7461563  0.6657708 -0.6657708  0.7461563 
    3    30     4  0.3865734 -0.5163280  0.7488246  0.6627682 -0.6627682  0.7488246 
    3    31     1  0.1798345 -0.7889763  0.8522629  0.5231137 -0.5231137  0.8522629 
    3    31     2  0.2133024 -0.8029521  0.8398570  0.5428077 -0.5428077  0.8398570 
    3    31     3  0.2211176 -0.6998442  0.8374708  0.5464821 -0.5464821  0.8374708 
    3    31     4  0.2485512 -0.7126715  0.8272589  0.5618209 -0.5618209  0.8272589 
    3    32     1  0.1410722 -0.8075119  0.8988543  0.4382476 -0.4382476  0.8988543 
    3    32     2  0.1143981 -0.8762800  0.9056371  0.4240535 -0.4240535  0.9056371 
    3    32     3  0.1584463 -0.8144205  0.8916899  0.4526469 -0.4526469  0.8916899 
    3    32     4  0.1297335 -0.8915571  0.8989689  0.4380125 -0.4380125  0.8989689 
    3    33     1  0.1795209 -0.7469935  0.8769954  0.4804987 -0.4804987  0.8769954 
    3    33     2  0.1508348 -0.7363446  0.8831480  0.4690944 -0.4690944  0.8831480 
    3    33     3  0.1368167 -0.8314133  0.8912460  0.4535201 -0.4535201  0.8912460 
    3    33     4  0.1072168 -0.8165696  0.8975577  0.4408971 -0.4408971  0.8975577 
    3    34     1  0.2161859 -0.7665356  0.8330003  0.5532725 -0.5532725  0.8330003 
    3    34     2  0.2647284 -0.6882204  0.8146536  0.5799479 -0.5799479  0.8146536 
    3    34     3  0.1829260 -0.7495893  0.8403053  0.5421134 -0.5421134  0.8403053 
    3    34     4  0.2326700 -0.6722414  0.8211750  0.5706765 -0.5706765  0.8211750 
    3    35     1  0.2922439 -0.6051997  0.7603701  0.6494901 -0.6494901  0.7603701 
    3    35     2  0.2446759 -0.6528218  0.7787725  0.6273065 -0.6273065  0.7787725 
    3    35     3  0.3219259 -0.6213629  0.7604301  0.6494197 -0.6494197  0.7604301 
    3    35     4  0.2746071 -0.6698147  0.7780973  0.6281438 -0.6281438  0.7780973 
    3    36     1  0.3033430 -0.6014532  0.7528541  0.6581874 -0.6581874  0.7528541 
    3    36     2  0.2714573 -0.5875199  0.7507537  0.6605822 -0.6605822  0.7507537 
    3    36     3  0.2496885 -0.6502491  0.7729941  0.6344132 -0.6344132  0.7729941 
    3    36     4  0.2242352 -0.6315120  0.7698817  0.6381867 -0.6381867  0.7698817 
    3    37     1  0.3096595 -0.6098465  0.7262275  0.6874545 -0.6874545  0.7262275 
    3    37     2  0.3494432 -0.5831483  0.7126030  0.7015675 -0.7015675  0.7126030 
    3    37     3  0.2812808 -0.6062923  0.7223898  0.6914860 -0.6914860  0.7223898 
    3    37     4  0.3214766 -0.5797188  0.7082151  0.7059967 -0.7059967  0.7082151 
    3    38     1  0.2938474 -0.6051986  0.7361395  0.6768298 -0.6768298  0.7361395 
    3    38     2  0.3252571 -0.6106320  0.7397634  0.6728671 -0.6728671  0.7397634 
    3    38     3  0.3372261 -0.5743546  0.7206404  0.6933090 -0.6933090  0.7206404 
    3    38     4  0.3691130 -0.5788221  0.7245409  0.6892318 -0.6892318  0.7245409 
    3    39     1  0.1818171 -0.6897838  0.8266732  0.5626824 -0.5626824  0.8266732 
    3    39     2  0.2436157 -0.6192203  0.8029594  0.5960338 -0.5960338  0.8029594 
    3    39     3  0.1586990 -0.6504888  0.8289473  0.5593268 -0.5593268  0.8289473 
    3    39     4  0.2247857 -0.5881855  0.8035058  0.5952969 -0.5952969  0.8035058 
    3    40     1  0.1732785 -0.7076357  0.8313002  0.5558236 -0.5558236  0.8313002 
    3    40     2  0.2057000 -0.7298611  0.8280234  0.5606936 -0.5606936  0.8280234 
    3    40     3  0.2303796 -0.6401292  0.8095694  0.5870242 -0.5870242  0.8095694 
    3    40     4  0.2611674 -0.6593881  0.8072042  0.5902723 -0.5902723  0.8072042 
    3    41     1  0.1558116 -0.6734222  0.8730316  0.4876637 -0.4876637  0.8730316 
    3    41     2  0.1032065 -0.7532431  0.8914919  0.4530366 -0.4530366  0.8914919 
    3    41     3  0.1812806 -0.6911192  0.8683747  0.4959086 -0.4959086  0.8683747 
    3    41     4  0.1321355 -0.7703446  0.8854658  0.4647046 -0.4647046  0.8854658 
    3    42     1  0.1703909 -0.6498163  0.8663513  0.4994352 -0.4994352  0.8663513 
    3    42     2  0.1510945 -0.6304123  0.8687365  0.4952745 -0.4952745  0.8687365 
    3    42     3  0.1274978 -0.7081444  0.8817177  0.4717773 -0.4717773  0.8817177 
    3    42     4  0.1036032 -0.6934404  0.8861916  0.4633190 -0.4633190  0.8861916 
    3    43     1  0.1622363 -0.5876369  0.8366046  0.5478072 -0.5478072  0.8366046 
    3    43     2  0.1492455 -0.6458410  0.8372857  0.5467657 -0.5467657  0.8372857 
    3    43     3  0.1840339 -0.5725049  0.8207271  0.5713205 -0.5713205  0.8207271 
    3    43     4  0.1681824 -0.6200286  0.8261418  0.5634623 -0.5634623  0.8261418 
    3    44     1  0.1453265 -0.5705785  0.8643136  0.5029534 -0.5029534  0.8643136 
    3    44     2  0.1048301 -0.6335681  0.8815680  0.4720571 -0.4720571  0.8815680 
    3    44     3  0.1570868 -0.6022261  0.8642634  0.5030395 -0.5030395  0.8642634 
    3    44     4  0.1228391 -0.6488281  0.8776591  0.4792854 -0.4792854  0.8776591 
    3    45     1  0.1336850 -0.5590600  0.8644068  0.5027930 -0.5027930  0.8644068 
    3    45     2  0.1178015 -0.5619123  0.8673443  0.4977086 -0.4977086  0.8673443 
    3    45     3  0.1195736 -0.5792252  0.8714175  0.4905421 -0.4905421  0.8714175 
    3    45     4  0.1085672 -0.5780314  0.8726955  0.4882648 -0.4882648  0.8726955 
    3    46     1  0.2491111 -0.5619684  0.7371331  0.6757476 -0.6757476  0.7371331 
    3    46     2  0.2089726 -0.5956921  0.7546155  0.6561673 -0.6561673  0.7546155 
    3    46     3  0.2780808 -0.5679022  0.7400115  0.6725943 -0.6725943  0.7400115 
    3    46     4  0.2405284 -0.5986320  0.7552217  0.6554694 -0.6554694  0.7552217 
    3    47     1  0.2502246 -0.5273235  0.7224919  0.6913794 -0.6913794  0.7224919 
    3    47     2  0.2254420 -0.5262553  0.7181849  0.6958523 -0.6958523  0.7181849 
    3    47     3  0.2183942 -0.5490394  0.7362823  0.6766745 -0.6766745  0.7362823 
    3    47     4  0.1916043 -0.5481162  0.7325476  0.6807159 -0.6807159  0.7325476 
    3    48     1  0.2555581 -0.5675248  0.6944952  0.7194973 -0.7194973  0.6944952 
    3    48     2  0.2899186 -0.5486128  0.6821140  0.7312458 -0.7312458  0.6821140 
    3    48     3  0.2302347 -0.5673849  0.6886882  0.7250576 -0.7250576  0.6886882 
    3    48     4  0.2654695 -0.5483914  0.6757354  0.7371443 -0.7371443  0.6757354 
    3    49     1  0.2574358 -0.5940771  0.7079644  0.7062481 -0.7062481  0.7079644 
    3    49     2  0.2837318 -0.5978615  0.7129693  0.7011953 -0.7011953  0.7129693 
    3    49     3  0.2963682 -0.5694686  0.6937075  0.7202568 -0.7202568  0.6937075 
    3    49     4  0.3227544 -0.5730014  0.6992465  0.7148806 -0.7148806  0.6992465 
    3    50     1  0.1629615 -0.5665305  0.8014590  0.5980497 -0.5980497  0.8014590 
    3    50     2  0.1909254 -0.5603296  0.8035823  0.5951937 -0.5951937  0.8035823 
    3    50     3  0.1804216 -0.5560955  0.7912934  0.6114366 -0.6114366  0.7912934 
    3    50     4  0.2025693 -0.5512361  0.7935087  0.6085589 -0.6085589  0.7935087 
    3    51     1  0.1142170 -0.5243749  0.8521218  0.5233435 -0.5233435  0.8521218 
    3    51     2  0.1059453 -0.5270225  0.8584323  0.5129268 -0.5129268  0.8584323 
    3    51     3  0.1301016 -0.5196303  0.8538029  0.5205964 -0.5205964  0.8538029 
    3    51     4  0.1224925 -0.5221903  0.8607859  0.5089672 -0.5089672  0.8607859 
    3    52     1  0.1341333 -0.4569815  0.8334279  0.5526283 -0.5526283  0.8334279 
    3    52     2  0.1155047 -0.4596748  0.8315193  0.5554958 -0.5554958  0.8315193 
    3    52     3  0.1161487 -0.4710945  0.8453200  0.5342603 -0.5342603  0.8453200 
    3    52     4  0.0956852 -0.4735685  0.8431984  0.5376025 -0.5376025  0.8431984 
    3    53     1  0.1711937 -0.5214370  0.7851729  0.6192766 -0.6192766  0.7851729 
    3    53     2  0.1969509 -0.4992374  0.7715204  0.6362045 -0.6362045  0.7715204 
    3    53     3  0.1479819 -0.5206407  0.7837143  0.6211215 -0.6211215  0.7837143 
    3    53     4  0.1754557 -0.4985250  0.7696454  0.6384716 -0.6384716  0.7696454 
    3    54     1  0.2002306 -0.4759710  0.6982947  0.7158104 -0.7158104  0.6982947 
    3    54     2  0.1685248 -0.4989984  0.7135801  0.7005736 -0.7005736  0.7135801 
    3    54     3  0.2180945 -0.4830465  0.7024782  0.7117053 -0.7117053  0.7024782 
    3    54     4  0.1869733 -0.5064315  0.7172762  0.6967890 -0.6967890  0.7172762 
    3    55     1  0.1807651 -0.4285478  0.6790027  0.7341358 -0.7341358  0.6790027 
    3    55     2  0.1622329 -0.4236173  0.6719063  0.7406362 -0.7406362  0.6719063 
    3    55     3  0.1461376 -0.4506146  0.6967027  0.7173600 -0.7173600  0.6967027 
    3    55     4  0.1313878 -0.4433858  0.6887167  0.7250306 -0.7250306  0.6887167 
    3    56     1  0.1826401 -0.4866139  0.6421922  0.7665436 -0.7665436  0.6421922 
    3    56     2  0.2106421 -0.4750495  0.6316551  0.7752495 -0.7752495  0.6316551 
    3    56     3  0.1642086 -0.4887987  0.6339627  0.7733636 -0.7733636  0.6339627 
    3    56     4  0.1924428 -0.4774234  0.6232928  0.7819885 -0.7819885  0.6232928 
    3    57     1  0.1982400 -0.5314099  0.6647230  0.7470899 -0.7470899  0.6647230 
    3    57     2  0.2193471 -0.5314652  0.6722535  0.7403211 -0.7403211  0.6722535 
    3    57     3  0.2306596 -0.5157712  0.6525214  0.7577703 -0.7577703  0.6525214 
    3    57     4  0.2518184 -0.5153463  0.6600865  0.7511896 -0.7511896  0.6600865 
    3    58     1  0.1102377 -0.4197750  0.7570771  0.6533255 -0.6533255  0.7570771 
    3    58     2  0.1444962 -0.3815911  0.7313846  0.6819653 -0.6819653  0.7313846 
    3    58     3  0.1040757 -0.3902479  0.7588308  0.6512878 -0.6512878  0.7588308 
    3    58     4  0.1394372 -0.3582408  0.7314328  0.6819135 -0.6819135  0.7314328 
    3    59     1  0.1251518 -0.4666047  0.7670361  0.6416039 -0.6416039  0.7670361 
    3    59     2  0.1453303 -0.4722973  0.7703852  0.6375788 -0.6375788  0.7703852 
    3    59     3  0.1585017 -0.4420079  0.7498502  0.6616076 -0.6616076  0.7498502 
    3    59     4  0.1771530 -0.4466505  0.7533611  0.6576071 -0.6576071  0.7533611 
    3    60     1  0.1110030 -0.3918282  0.8150379  0.5794077 -0.5794077  0.8150379 
    3    60     2  0.0860646 -0.4156530  0.8303773  0.5572016 -0.5572016  0.8303773 
    3    60     3  0.1238494 -0.3961467  0.8155377  0.5787040 -0.5787040  0.8155377 
    3    60     4  0.1011201 -0.4197844  0.8299397  0.5578531 -0.5578531  0.8299397 
    3    61     1  0.1045056 -0.3470156  0.8039590  0.5946848 -0.5946848  0.8039590 
    3    61     2  0.0982060 -0.3387712  0.8041372  0.5944437 -0.5944437  0.8041372 
    3    61     3  0.0867173 -0.3668459  0.8170020  0.5766349 -0.5766349  0.8170020 
    3    61     4  0.0783917 -0.3600696  0.8188968  0.5739407 -0.5739407  0.8188968 
    3    62     1  0.0973946 -0.3040087  0.7609898  0.6487638 -0.6487638  0.7609898 
    3    62     2  0.0790296 -0.3652108  0.7569104  0.6535186 -0.6535186  0.7569104 
    3    62     3  0.0990075 -0.3026194  0.7263355  0.6873403 -0.6873403  0.7263355 
    3    62     4  0.0847198 -0.3486520  0.7346201  0.6784787 -0.6784787  0.7346201 
    3    63     1  0.0868703 -0.2866744  0.7853044  0.6191098 -0.6191098  0.7853044 
    3    63     2  0.0667103 -0.3088686  0.8038868  0.5947823 -0.5947823  0.8038868 
    3    63     3  0.0916105 -0.2988391  0.7895184  0.6137269 -0.6137269  0.7895184 
    3    63     4  0.0748467 -0.3152238  0.8033467  0.5955116 -0.5955116  0.8033467 
    3    64     1  0.0672631 -0.2626868  0.7850726  0.6194038 -0.6194038  0.7850726 
    3    64     2  0.0576533 -0.2673337  0.7790405  0.6269736 -0.6269736  0.7790405 
    3    64     3  0.0626573 -0.2574315  0.7891058  0.6142572 -0.6142572  0.7891058 
    3    64     4  0.0551998 -0.2623602  0.7831227  0.6218672 -0.6218672  0.7831227 
    3    65     1  0.1240721 -0.3722641  0.6321044  0.7748833 -0.7748833  0.6321044 
    3    65     2  0.0993151 -0.3797791  0.6441217  0.7649230 -0.7649230  0.6441217 
    3    65     3  0.1422261 -0.3668956  0.6433320  0.7655873 -0.7655873  0.6433320 
    3    65     4  0.1198096 -0.3739489  0.6540325  0.7564664 -0.7564664  0.6540325 
    3    66     1  0.0992417 -0.3092855  0.5849592  0.8110627 -0.8110627  0.5849592 
    3    66     2  0.0886585 -0.3086581  0.5760441  0.8174186 -0.8174186  0.5760441 
    3    66     3  0.0815530 -0.3177755  0.5969660  0.8022666 -0.8022666  0.5969660 
    3    66     4  0.0699309 -0.3171517  0.5880708  0.8088095 -0.8088095  0.5880708 
    3    67     1  0.0965759 -0.3787339  0.5475825  0.8367517 -0.8367517  0.5475825 
    3    67     2  0.1179652 -0.3721130  0.5383731  0.8427066 -0.8427066  0.5383731 
    3    67     3  0.0827706 -0.3826272  0.5345107  0.8451617 -0.8451617  0.5345107 
    3    67     4  0.1046643 -0.3760646  0.5251849  0.8509882 -0.8509882  0.5251849 
    3    68     1  0.1234159 -0.4414796  0.5959440  0.8030260 -0.8030260  0.5959440 
    3    68     2  0.1389506 -0.4415916  0.6056417  0.7957375 -0.7957375  0.6056417 
    3    68     3  0.1501589 -0.4297587  0.5836543  0.8120023 -0.8120023  0.5836543 
    3    68     4  0.1659048 -0.4296121  0.5936952  0.8046900 -0.8046900  0.5936952 
    3    69     1  0.0740416 -0.3014306  0.6910502  0.7228067 -0.7228067  0.6910502 
    3    69     2  0.0961367 -0.2834272  0.7115445  0.7026411 -0.7026411  0.7115445 
    3    69     3  0.0817309 -0.3183141  0.6877859  0.7259136 -0.7259136  0.6877859 
    3    69     4  0.0995142 -0.3031125  0.7037893  0.7104087 -0.7104087  0.7037893 
    3    70     1  0.0466313 -0.2397068  0.7501854  0.6612276 -0.6612276  0.7501854 
    3    70     2  0.0431469 -0.2259921  0.7526539  0.6584163 -0.6584163  0.7526539 
    3    70     3  0.0587451 -0.2296310  0.7644324  0.6447039 -0.6447039  0.7644324 
    3    70     4  0.0563291 -0.2134582  0.7697068  0.6383976 -0.6383976  0.7697068 
    3    71     1  0.0458992 -0.1792511  0.7158302  0.6982744 -0.6982744  0.7158302 
    3    71     2  0.0383996 -0.1831623  0.7067845  0.7074289 -0.7074289  0.7067845 
    3    71     3  0.0379141 -0.1787777  0.7253126  0.6884197 -0.6884197  0.7253126 
    3    71     4  0.0293185 -0.1832710  0.7143593  0.6997791 -0.6997791  0.7143593 
    3    72     1  0.0620444 -0.2496092  0.6539235  0.7565607 -0.7565607  0.6539235 
    3    72     2  0.0750921 -0.2466584  0.6429197  0.7659336 -0.7659336  0.6429197 
    3    72     3  0.0498859 -0.2540989  0.6425127  0.7662750 -0.7662750  0.6425127 
    3    72     4  0.0641781 -0.2508618  0.6324265  0.7746204 -0.7746204  0.6324265 
    3    73     1  0.0422499 -0.3112724  0.4393418  0.8983200 -0.8983200  0.4393418 
    3    73     2  0.0483926 -0.3162204  0.4523834  0.8918235 -0.8918235  0.4523834 
    3    73     3  0.0593218 -0.3032842  0.4266818  0.9044018 -0.9044018  0.4266818 
    3    73     4  0.0650310 -0.3081001  0.4398135  0.8980891 -0.8980891  0.4398135 
    3    74     1  0.0529589 -0.2282866  0.4858602  0.8740365 -0.8740365  0.4858602 
    3    74     2  0.0388973 -0.2403693  0.5121463  0.8588982 -0.8588982  0.5121463 
    3    74     3  0.0533863 -0.2462240  0.4879689  0.8728610 -0.8728610  0.4879689 
    3    74     4  0.0393657 -0.2588804  0.5126335  0.8586075 -0.8586075  0.5126335 
    3    75     1  0.0094920 -0.1732805  0.2595649  0.9657257 -0.9657257  0.2595649 
    3    75     2  0.0201995 -0.1314525  0.2621245  0.9650341 -0.9650341  0.2621245 
    3    75     3  0.0017341 -0.1819686  0.3221503  0.9466885 -0.9466885  0.3221503 
    3    75     4  0.0120537 -0.1425148  0.3370382  0.9414910 -0.9414910  0.3370382 
    3    76     1  0.0009774 -0.2471022  0.2515755  0.9678377 -0.9678377  0.2515755 
    3    76     2  0.0146193 -0.2384095  0.2201188  0.9754731 -0.9754731  0.2201188 
    3    76     3  0.0053822 -0.2231106  0.2380493  0.9712531 -0.9712531  0.2380493 
    3    76     4  0.0194291 -0.2146725  0.2038253  0.9790073 -0.9790073  0.2038253 
    3    77     1  0.0154047 -0.3206316  0.1826524  0.9831776 -0.9831776  0.1826524 
    3    77     2  0.0179906 -0.3053143  0.1636817  0.9865132 -0.9865132  0.1636817 
    3    77     3 -0.0011904 -0.3277406  0.1992918  0.9799402 -0.9799402  0.1992918 
    3    77     4  0.0010445 -0.3124160  0.1808005  0.9835198 -0.9835198  0.1808005 
    3    78     1 -0.0003224 -0.4102705  0.1598701  0.9871381 -0.9871381  0.1598701 
    3    78     2  0.0184029 -0.4046966  0.1570547  0.9875899 -0.9875899  0.1570547 
    3    78     3 -0.0023521 -0.4113435  0.1400417  0.9901456 -0.9901456  0.1400417 
    3    78     4  0.0167420 -0.4057006  0.1381790  0.9904073 -0.9904073  0.1381790 
    3    79     1  0.0412583 -0.4607380  0.3356365  0.9419916 -0.9419916  0.3356365 
    3    79     2  0.0504183 -0.4515341  0.3522977  0.9358880 -0.9358880  0.3522977 
    3    79     3  0.0607496 -0.4572267  0.3344869  0.9424004 -0.9424004  0.3344869 
    3    79     4  0.0697478 -0.4480166  0.3506642  0.9365013 -0.9365013  0.3506642 
    3    80     1  0.0628024 -0.3725376  0.3780342  0.9257916 -0.9257916  0.3780342 
    3    80     2  0.0454456 -0.3806458  0.3889855  0.9212439 -0.9212439  0.3889855 
    3    80     3  0.0666647 -0.3801456  0.3895312  0.9210133 -0.9210133  0.3895312 
    3    80     4  0.0494904 -0.3882643  0.4002116  0.9164228 -0.9164228  0.4002116 
    3    81     1  0.1251187 -0.4353099  0.4918792  0.8706635 -0.8706635  0.4918792 
    3    81     2  0.1156783 -0.4345128  0.4818439  0.8762570 -0.8762570  0.4818439 
    3    81     3  0.1043401 -0.4435720  0.5000659  0.8659874 -0.8659874  0.5000659 
    3    81     4  0.0945380 -0.4427087  0.4899724  0.8717380 -0.8717380  0.4899724 
    3    82     1  0.1076443 -0.4952258  0.4561887  0.8898831 -0.8898831  0.4561887 
    3    82     2  0.1294154 -0.4922089  0.4534294  0.8912922 -0.8912922  0.4534294 
    3    82     3  0.0946201 -0.5057966  0.4423564  0.8968394 -0.8968394  0.4423564 
    3    82     4  0.1163445 -0.5029352  0.4398518  0.8980704 -0.8980704  0.4398518 
    3    83     1  0.1462691 -0.5416651  0.5084541  0.8610891 -0.8610891  0.5084541 
    3    83     2  0.1623885 -0.5307989  0.5207213  0.8537268 -0.8537268  0.5207213 
    3    83     3  0.1705183 -0.5384180  0.5047805  0.8632477 -0.8632477  0.5047805 
    3    83     4  0.1867950 -0.5273291  0.5168765  0.8560600 -0.8560600  0.5168765 
    3    84     1  0.1650278 -0.4843015  0.5417911  0.8405132 -0.8405132  0.5417911 
    3    84     2  0.1403610 -0.4916598  0.5487947  0.8359572 -0.8359572  0.5487947 
    3    84     3  0.1796468 -0.4798964  0.5521571  0.8337401 -0.8337401  0.5521571 
    3    84     4  0.1553529 -0.4873232  0.5593820  0.8289100 -0.8289100  0.5593820 
    3    85     1  0.1701657 -0.5922226  0.4722879  0.8814443 -0.8814443  0.4722879 
    3    85     2  0.1471512 -0.5918750  0.4720418  0.8815762 -0.8815762  0.4720418 
    3    85     3  0.1868112 -0.5748393  0.4849013  0.8745689 -0.8745689  0.4849013 
    3    85     4  0.1638552 -0.5745680  0.4849967  0.8745160 -0.8745160  0.4849967 
    3    86     1  0.1269874 -0.5513567  0.4167686  0.9090126 -0.9090126  0.4167686 
    3    86     2  0.1146664 -0.5650939  0.4042025  0.9146695 -0.9146695  0.4042025 
    3    86     3  0.1068034 -0.5529558  0.4165350  0.9091197 -0.9091197  0.4165350 
    3    86     4  0.0941596 -0.5669564  0.4033813  0.9150320 -0.9150320  0.4033813 
    3    87     1  0.1059386 -0.6034950  0.3835147  0.9235348 -0.9235348  0.3835147 
    3    87     2  0.1273138 -0.6098593  0.3890883  0.9212004 -0.9212004  0.3890883 
    3    87     3  0.0875317 -0.6352001  0.3664421  0.9304408 -0.9304408  0.3664421 
    3    87     4  0.1090269 -0.6410559  0.3727958  0.9279134 -0.9279134  0.3727958 
    3    88     1  0.1436748 -0.6450577  0.4413728  0.8973238 -0.8973238  0.4413728 
    3    88     2  0.1639110 -0.6136524  0.4566160  0.8896639 -0.8896639  0.4566160 
    3    88     3  0.1642149 -0.6554408  0.4465914  0.8947380 -0.8947380  0.4465914 
    3    88     4  0.1851662 -0.6236597  0.4616039  0.8870861 -0.8870861  0.4616039 
    3    89     1  0.0334096 -0.6189799  0.2564808  0.9665493 -0.9665493  0.2564808 
    3    89     2  0.0459853 -0.5907056  0.2717034  0.9623810 -0.9623810  0.2717034 
    3    89     3  0.0513892 -0.6205399  0.2647070  0.9643289 -0.9643289  0.2647070 
    3    89     4  0.0637883 -0.5928007  0.2793518  0.9601888 -0.9601888  0.2793518 
    3    90     1  0.0586082 -0.5295600  0.2962849  0.9550996 -0.9550996  0.2962849 
    3    90     2  0.0408287 -0.5337367  0.2966799  0.9549770 -0.9549770  0.2966799 
    3    90     3  0.0650851 -0.5230184  0.3089236  0.9510868 -0.9510868  0.3089236 
    3    90     4  0.0474763 -0.5271511  0.3096487  0.9508510 -0.9508510  0.3096487 
    3    91     1  0.0169758 -0.4990128  0.1309346  0.9913910 -0.9913910  0.1309346 
    3    91     2  0.0147921 -0.5039911  0.1156703  0.9932877 -0.9932877  0.1156703 
    3    91     3 -0.0009073 -0.5040080  0.1298086  0.9915391 -0.9915391  0.1298086 
    3    91     4 -0.0030808 -0.5089568  0.1143408  0.9934416 -0.9934416  0.1143408 
    3    92     1  0.0016206 -0.5873375  0.1048261  0.9944906 -0.9944906  0.1048261 
    3    92     2  0.0185884 -0.5847968  0.1139453  0.9934870 -0.9934870  0.1139453 
    3    92     3 -0.0055515 -0.6109743  0.0917005  0.9957866 -0.9957866  0.0917005 
    3    92     4  0.0116570 -0.6076726  0.1013194  0.9948540 -0.9948540  0.1013194 
    3    93     1  0.0163424 -0.6781051  0.0978566  0.9952005 -0.9952005  0.0978566 
    3    93     2  0.0090278 -0.7035482  0.0879910  0.9961213 -0.9961213  0.0879910 
    3    93     3  0.0011689 -0.6808376  0.0886464  0.9960632 -0.9960632  0.0886464 
    3    93     4 -0.0060813 -0.7065216  0.0787790  0.9968921 -0.9968921  0.0787790 
    3    94     1  0.0034565 -0.7622266  0.0757532  0.9971266 -0.9971266  0.0757532 
    3    94     2  0.0183620 -0.7617405  0.0877707  0.9961407 -0.9961407  0.0877707 
    3    94     3 -0.0074776 -0.8015755  0.0668829  0.9977608 -0.9977608  0.0668829 
    3    94     4  0.0079173 -0.7994394  0.0791662  0.9968614 -0.9968614  0.0791662 
    3    95     1  0.0249050 -0.7884626  0.2102726  0.9776428 -0.9776428  0.2102726 
    3    95     2  0.0433655 -0.7366301  0.2240893  0.9745686 -0.9745686  0.2240893 
    3    95     3  0.0416821 -0.7952109  0.2243080  0.9745183 -0.9745183  0.2243080 
    3    95     4  0.0601643 -0.7442974  0.2380048  0.9712640 -0.9712640  0.2380048 
    3    96     1  0.0483143 -0.6980274  0.2405233  0.9706434 -0.9706434  0.2405233 
    3    96     2  0.0314274 -0.6973169  0.2317269  0.9727809 -0.9727809  0.2317269 
    3    96     3  0.0607138 -0.6677581  0.2533538  0.9673737 -0.9673737  0.2533538 
    3    96     4  0.0439650 -0.6661449  0.2450119  0.9695201 -0.9695201  0.2450119 
    3    97     1  0.1205753 -0.6748888  0.3639608  0.9314143 -0.9314143  0.3639608 
    3    97     2  0.1024542 -0.7110085  0.3494874  0.9369411 -0.9369411  0.3494874 
    3    97     3  0.1020016 -0.6683449  0.3552619  0.9347668 -0.9347668  0.3552619 
    3    97     4  0.0842656 -0.7042497  0.3406217  0.9402004 -0.9402004  0.3406217 
    3    98     1  0.0990372 -0.7227438  0.3368202  0.9415690 -0.9415690  0.3368202 
    3    98     2  0.1152661 -0.7396484  0.3517094  0.9361092 -0.9361092  0.3517094 
    3    98     3  0.0763603 -0.7772511  0.3213820  0.9469496 -0.9469496  0.3213820 
    3    98     4  0.0919629 -0.7940959  0.3362750  0.9417638 -0.9417638  0.3362750 
    3    99     1  0.1286559 -0.7596356  0.4067009  0.9135614 -0.9135614  0.4067009 
    3    99     2  0.1556629 -0.7023487  0.4243381  0.9055038 -0.9055038  0.4243381 
    3    99     3  0.1441567 -0.7823674  0.4201958  0.9074334 -0.9074334  0.4201958 
    3    99     4  0.1720006 -0.7251970  0.4376246  0.8991578 -0.8991578  0.4376246 
    3   100     1  0.1577324 -0.7126931  0.4308875  0.9024056 -0.9024056  0.4308875 
    3   100     2  0.1388914 -0.6986916  0.4212418  0.9069484 -0.9069484  0.4212418 
    3   100     3  0.1803168 -0.6716930  0.4461932  0.8949366 -0.8949366  0.4461932 
    3   100     4  0.1626973 -0.6551815  0.4380688  0.8989414 -0.8989414  0.4380688 
    3   101     1  0.1262225 -0.8466983  0.4178121  0.9085335 -0.9085335  0.4178121 
    3   101     2  0.1132396 -0.8276736  0.4003199  0.9163755 -0.9163755  0.4003199 
    3   101     3  0.1530711 -0.7849251  0.4332853  0.9012568 -0.9012568  0.4332853 
    3   101     4  0.1397468 -0.7650516  0.4160541  0.9093399 -0.9093399  0.4160541 
    3   102     1  0.0990945 -0.8149136  0.3373962  0.9413627 -0.9413627  0.3373962 
    3   102     2  0.0808538 -0.8597534  0.3264398  0.9452180 -0.9452180  0.3264398 
    3   102     3  0.0853154 -0.8074978  0.3241898  0.9459920 -0.9459920  0.3241898 
    3   102     4  0.0668576 -0.8536396  0.3129755  0.9497612 -0.9497612  0.3129755 
    3   103     1  0.0723841 -0.8757039  0.3182940  0.9479920 -0.9479920  0.3182940 
    3   103     2  0.0817470 -0.8991785  0.3410774  0.9400352 -0.9400352  0.3410774 
    3   103     3  0.0440795 -0.9560933  0.3052380  0.9522761 -0.9522761  0.3052380 
    3   103     4  0.0529215 -0.9787136  0.3275355  0.9448389 -0.9448389  0.3275355 
    3   104     1  0.0886067 -0.9078549  0.4014857  0.9158653 -0.9158653  0.4014857 
    3   104     2  0.1186588 -0.8260174  0.4171916  0.9088185 -0.9088185  0.4171916 
    3   104     3  0.0921619 -0.9440293  0.4255489  0.9049354 -0.9049354  0.4255489 
    3   104     4  0.1245824 -0.8600537  0.4426746  0.8966823 -0.8966823  0.4426746 
    3   105     1  0.0109560 -0.9745632  0.1863875  0.9824763 -0.9824763  0.1863875 
    3   105     2  0.0278086 -0.9227202  0.1946300  0.9808767 -0.9808767  0.1946300 
    3   105     3  0.0240252 -0.9789705  0.1995182  0.9798941 -0.9798941  0.1995182 
    3   105     4  0.0408363 -0.9276125  0.2078452  0.9781617 -0.9781617  0.2078452 
    3   106     1  0.0387583 -0.8649518  0.2073170  0.9782738 -0.9782738  0.2073170 
    3   106     2  0.0246373 -0.8665101  0.2003359  0.9797273 -0.9797273  0.2003359 
    3   106     3  0.0484682 -0.8385253  0.2156851  0.9764630 -0.9764630  0.2156851 
    3   106     4  0.0343128 -0.8401287  0.2087174  0.9779760 -0.9779760  0.2087174 
    3   107     1  0.0147549 -0.8628383  0.0752326  0.9971660 -0.9971660  0.0752326 
    3   107     2  0.0099459 -0.8826732  0.0675583  0.9977153 -0.9977153  0.0675583 
    3   107     3 -0.0001378 -0.8669631  0.0695300  0.9975799 -0.9975799  0.0695300 
    3   107     4 -0.0047452 -0.8863751  0.0620485  0.9980731 -0.9980731  0.0620485 
    3   108     1 -0.0004219 -0.9569257  0.0612309  0.9981236 -0.9981236  0.0612309 
    3   108     2  0.0133777 -0.9538627  0.0662011  0.9978063 -0.9978063  0.0662011 
    3   108     3 -0.0049068 -0.9763456  0.0549960  0.9984866 -0.9984866  0.0549960 
    3   108     4  0.0091036 -0.9729974  0.0600979  0.9981925 -0.9981925  0.0600979 
    3   109     1  0.0071290 -1.0648128  0.0606078  0.9981617 -0.9981617  0.0606078 
    3   109     2  0.0114267 -1.0572403  0.0531311  0.9985875 -0.9985875  0.0531311 
    3   109     3 -0.0094304 -1.0699323  0.0624902  0.9980456 -0.9980456  0.0624902 
    3   109     4 -0.0052858 -1.0624695  0.0550684  0.9984826 -0.9984826  0.0550684 
    3   110     1 -0.0213002 -1.1955293  0.0711307  0.9974670 -0.9974670  0.0711307 
    3   110     2  0.0025798 -1.1861819  0.0636076  0.9979750 -0.9979750  0.0636076 
    3   110     3 -0.0090401 -1.1639145  0.0609445  0.9981412 -0.9981412  0.0609445 
    3   110     4  0.0153311 -1.1551752  0.0534587  0.9985701 -0.9985701  0.0534587 
    3   111     1 -0.0323079 -1.2588462  0.2133333  0.9769795 -0.9769795  0.2133333 
    3   111     2 -0.0007429 -1.1559380  0.2184280  0.9758531 -0.9758531  0.2184280 
    3   111     3 -0.0305929 -1.2797527  0.2360400  0.9717433 -0.9717433  0.2360400 
    3   111     4  0.0014163 -1.1766446  0.2422461  0.9702148 -0.9702148  0.2422461 
    3   112     1  0.0107444 -1.0895678  0.2021878  0.9793468 -0.9793468  0.2021878 
    3   112     2 -0.0014528 -1.0886360  0.1926618  0.9812652 -0.9812652  0.1926618 
    3   112     3  0.0244206 -1.0478275  0.2087437  0.9779704 -0.9779704  0.2087437 
    3   112     4  0.0119219 -1.0474018  0.1989963  0.9800002 -0.9800002  0.1989963 
    3   113     1  0.0488271 -1.0051782  0.3532606  0.9355250 -0.9355250  0.3532606 
    3   113     2  0.0213630 -1.0885425  0.3431622  0.9392761 -0.9392761  0.3431622 
    3   113     3  0.0471197 -0.9864160  0.3298203  0.9440437 -0.9440437  0.3298203 
    3   113     4  0.0203271 -1.0698380  0.3206536  0.9471965 -0.9471965  0.3206536 
    3   114     1  0.0173618 -1.0658628  0.3608984  0.9326051 -0.9326051  0.3608984 
    3   114     2 -0.0074176 -1.1308452  0.4041302  0.9147015 -0.9147015  0.4041302 
    3   114     3 -0.0249397 -1.2164092  0.3508441  0.9364339 -0.9364339  0.3508441 
    3   114     4 -0.0515838 -1.2820167  0.3905655  0.9205751 -0.9205751  0.3905655 
    3   115     1  0.0015024 -1.1030604  0.4610734  0.8873620 -0.8873620  0.4610734 
    3   115     2  0.0412439 -0.9603347  0.4793943  0.8775996 -0.8775996  0.4793943 
    3   115     3 -0.0285629 -1.1874932  0.5018626  0.8649474 -0.8649474  0.5018626 
    3   115     4  0.0138731 -1.0460035  0.5231266  0.8522550 -0.8522550  0.5231266 
    3   116     1  0.0456443 -1.0417244  0.4532690  0.8913738 -0.8913738  0.4532690 
    3   116     2  0.0524132 -1.0000118  0.4222285  0.9064895 -0.9064895  0.4222285 
    3   116     3  0.0789093 -0.9427568  0.4693824  0.8829950 -0.8829950  0.4693824 
    3   116     4  0.0853084 -0.8973393  0.4381861  0.8988843 -0.8988843  0.4381861 
    3   117     1 -0.1399081 -1.3491493  0.5907706  0.8068396 -0.8068396  0.5907706 
    3   117     2 -0.0729042 -1.2138877  0.5362599  0.8440529 -0.8440529  0.5362599 
    3   117     3 -0.0972368 -1.1689104  0.6200588  0.7845553 -0.7845553  0.6200588 
    3   117     4 -0.0335698 -1.0222514  0.5612879  0.8276206 -0.8276206  0.5612879 
    3   118     1 -0.0925562 -1.2851105  0.4884729  0.8725791 -0.8725791  0.4884729 
    3   118     2 -0.1437408 -1.4808305  0.4718614  0.8816727 -0.8816727  0.4718614 
    3   118     3 -0.0437665 -1.1903121  0.4344045  0.9007179 -0.9007179  0.4344045 
    3   118     4 -0.0921663 -1.3879815  0.4222690  0.9064706 -0.9064706  0.4222690 
    3   119     1 -0.1463994 -1.2581732  0.5722014  0.8201132 -0.8201132  0.5722014 
    3   119     2 -0.3192333 -1.6030113  0.6749690  0.7378461 -0.7378461  0.6749690 
    3   119     3 -0.1923168 -1.6118490  0.5443774  0.8388404 -0.8388404  0.5443774 
    3   119     4 -0.3591136 -1.8934819  0.6259435  0.7798684 -0.7798684  0.6259435 
    3   120     1 -0.1752779 -1.2440684  0.6583751  0.7526900 -0.7526900  0.6583751 
    3   120     2 -0.1638399 -1.0811449  0.6877088  0.7259866 -0.7259866  0.6877088 
    3   120     3 -0.2726097 -1.4350650  0.7097890  0.7044143 -0.7044143  0.7097890 
    3   120     4 -0.2544132 -1.2745006  0.7428773  0.6694276 -0.6694276  0.7428773 
    3   121     1 -0.2033759 -1.8612632  0.3806078  0.9247366 -0.9247366  0.3806078 
    3   121     2 -0.1033197 -1.4907627  0.3839448  0.9233561 -0.9233561  0.3839448 
    3   121     3 -0.2841743 -2.0033899  0.4469988  0.8945346 -0.8945346  0.4469988 
    3   121     4 -0.1761020 -1.6266626  0.4532821  0.8913671 -0.8913671  0.4532821 
    3   122     1 -0.1118601 -1.5097591  0.3062286  0.9519580 -0.9519580  0.3062286 
    3   122     2 -0.0835379 -1.4773915  0.2768984  0.9608992 -0.9608992  0.2768984 
    3   122     3 -0.0723748 -1.3669021  0.3064119  0.9518990 -0.9518990  0.3064119 
    3   122     4 -0.0436083 -1.3331213  0.2747891  0.9615045 -0.9615045  0.2747891 
    3   123     1 -0.0131071 -1.3908526  0.0763759  0.9970791 -0.9970791  0.0763759 
    3   123     2  0.0334072 -1.2628795  0.0556560  0.9984500 -0.9984500  0.0556560 
    3   123     3 -0.0568867 -1.4060265  0.1006580  0.9949211 -0.9949211  0.1006580 
    3   123     4 -0.0143679 -1.2817037  0.0824266  0.9965971 -0.9965971  0.0824266 
    3   124     1 -0.1115098 -1.7011357  0.1438054  0.9896060 -0.9896060  0.1438054 
    3   124     2 -0.0645368 -1.6763377  0.1060147  0.9943646 -0.9943646  0.1060147 
    3   124     3 -0.0431553 -1.4873406  0.1276631  0.9918176 -0.9918176  0.1276631 
    3   124     4  0.0100191 -1.4567830  0.0844178  0.9964304 -0.9964304  0.0844178 
    3   125     1 -0.0078996 -2.2077205  0.2108903  0.9775097 -0.9775097  0.2108903 
    3   125     2  0.1211884 -1.8766353  0.1591304  0.9872576 -0.9872576  0.1591304 
    3   125     3 -0.2286358 -2.2871880  0.2569890  0.9664143 -0.9664143  0.2569890 
    3   125     4 -0.1328421 -1.9884362  0.2153751  0.9765314 -0.9765314  0.2153751 
    3   126     1 -0.3842927 -2.9599870  0.4363379  0.8997829 -0.8997829  0.4363379 
    3   126     2 -1.0569099 -3.7433865  0.6632731  0.7483774 -0.7483774  0.6632731 
    3   126     3 -0.7226214 -4.4377023  0.4661124  0.8847255 -0.8847255  0.4661124 
    3   126     4 -1.3915884 -5.3865259  0.5984706  0.8011447 -0.8011447  0.5984706 
    3   127     1 -0.7815516 -3.1950017  0.8229243  0.5681510 -0.5681510  0.8229243 
    3   127     2 -0.6505621 -2.1405822  0.8402094  0.5422620 -0.5422620  0.8402094 
    3   127     3 -1.3041682 -4.1098476  0.9042158  0.4270759 -0.4270759  0.9042158 
    3   127     4 -1.0593207 -2.9685569  0.9314941  0.3637563 -0.3637563  0.9314941 
    3   128     1 -0.7188870 -2.9714128  0.6739867  0.7387434 -0.7387434  0.6739867 
    3   128     2 -0.4346480 -2.6421533  0.5759990  0.8174504 -0.8174504  0.5759990 
    3   128     3 -0.5251046 -2.1458359  0.6895441  0.7242437 -0.7242437  0.6895441 
    3   128     4 -0.2959774 -1.9911149  0.5663265  0.8241810 -0.8241810  0.5663265 
    3   129     1 -0.5276531 -1.6791698  0.8435940  0.5369815 -0.5369815  0.8435940 
    3   129     2 -0.5016274 -1.7615389  0.8112295  0.5847279 -0.5847279  0.8112295 
    3   129     3 -0.4284875 -1.4436350  0.8104639  0.5857886 -0.5857886  0.8104639 
    3   129     4 -0.4044433 -1.5241296  0.7821517  0.6230881 -0.6230881  0.7821517 
    3   130     1 -0.6273946 -1.6213190  0.9808584  0.1947223 -0.1947223  0.9808584 
    3   130     2 -0.6157870 -1.5924476  0.9789482  0.2041088 -0.2041088  0.9789482 
    3   130     3 -0.6468158 -1.6264079  0.9824533  0.1865089 -0.1865089  0.9824533 
    3   130     4 -0.6351382 -1.5946715  0.9805090  0.1964740 -0.1964740  0.9805090 
    3   131     1 -0.5070123 -1.2772792  0.9744985  0.2243940 -0.2243940  0.9744985 
    3   131     2 -0.4875971 -1.2618769  0.9805912  0.1960635 -0.1960635  0.9805912 
    3   131     3 -0.5273092 -1.3578961  0.9741704  0.2258141 -0.2258141  0.9741704 
    3   131     4 -0.5055772 -1.3390195  0.9804229  0.1969032 -0.1969032  0.9804229 
    3   132     1 -0.4336696 -1.4575491  0.8394974  0.5433637 -0.5433637  0.8394974 
    3   132     2 -0.3658370 -1.2557693  0.8089006  0.5879454 -0.5879454  0.8089006 
    3   132     3 -0.4022364 -1.3529594  0.8743931  0.4852182 -0.4852182  0.8743931 
    3   132     4 -0.3413691 -1.1463081  0.8470802  0.5314651 -0.5314651  0.8470802 
    3   133     1 -0.7567943 -1.8657296  0.9805466  0.1962864 -0.1962864  0.9805466 
    3   133     2 -0.7361580 -1.8680957  0.9859566  0.1670017 -0.1670017  0.9859566 
    3   133     3 -0.7822150 -1.9702785  0.9808430  0.1947999 -0.1947999  0.9808430 
    3   133     4 -0.7602798 -1.9550217  0.9852564  0.1710842 -0.1710842  0.9852564 
    3   134     1 -0.6901682 -1.9611903  0.8746737  0.4847123 -0.4847123  0.8746737 
    3   134     2 -0.7532469 -2.2344920  0.8763679  0.4816422 -0.4816422  0.8763679 
    3   134     3 -0.5868998 -1.9244517  0.8333759  0.5527067 -0.5527067  0.8333759 
    3   134     4 -0.6641202 -2.1396470  0.8489943  0.5284020 -0.5284020  0.8489943 
    3   135     1 -0.7708201 -1.8924677  0.9569952  0.2901037 -0.2901037  0.9569952 
    3   135     2 -1.0227050 -2.6411861  0.9821326  0.1881905 -0.1881905  0.9821326 
    3   135     3 -0.8188579 -2.2979330  0.9272735  0.3743846 -0.3743846  0.9272735 
    3   135     4 -1.0310488 -2.8043689  0.9589942  0.2834258 -0.2834258  0.9589942 
    3   136     1 -0.1195434 -0.9051891  0.7583365  0.6518633 -0.6518633  0.7583365 
    3   136     2 -0.1707778 -1.0646119  0.7968668  0.6041551 -0.6041551  0.7968668 
    3   136     3 -0.1473686 -1.0314839  0.7243784  0.6894026 -0.6894026  0.7243784 
    3   136     4 -0.2045816 -1.1875382  0.7639921  0.6452256 -0.6452256  0.7639921 
    3   137     1 -0.0878980 -0.8530398  0.7917740  0.6108142 -0.6108142  0.7917740 
    3   137     2 -0.0552867 -0.7520270  0.8279077  0.5608644 -0.5608644  0.8279077 
    3   137     3 -0.1301974 -0.9994353  0.8208039  0.5712100 -0.5712100  0.8208039 
    3   137     4 -0.0919882 -0.8937440  0.8482742  0.5295572 -0.5295572  0.8482742 
    3   138     1 -0.0178004 -0.9619473  0.7196648  0.6943217 -0.6943217  0.7196648 
    3   138     2  0.0074136 -0.8535255  0.6906662  0.7231737 -0.7231737  0.6906662 
    3   138     3  0.0215775 -0.8653501  0.7487754  0.6628238 -0.6628238  0.7487754 
    3   138     4  0.0438662 -0.7535016  0.7222127  0.6916710 -0.6916710  0.7222127 
    3   139     1 -0.0536948 -1.0107703  0.6940909  0.7198874 -0.7198874  0.6940909 
    3   139     2 -0.0878649 -1.1383026  0.6669686  0.7450858 -0.7450858  0.6669686 
    3   139     3 -0.0087147 -0.8819678  0.6522088  0.7580393 -0.7580393  0.6522088 
    3   139     4 -0.0379863 -1.0108137  0.6247765  0.7808037 -0.7808037  0.6247765 
    3   140     1 -0.2453472 -1.0112614  0.9145669  0.4044346 -0.4044346  0.9145669 
    3   140     2 -0.1941747 -0.8414092  0.8870515  0.4616704 -0.4616704  0.8870515 
    3   140     3 -0.2016350 -0.9005116  0.9450106  0.3270397 -0.3270397  0.9450106 
    3   140     4 -0.1648509 -0.7441255  0.9188832  0.3945297 -0.3945297  0.9188832 
    3   141     1 -0.3017743 -1.1159228  0.9046536  0.4261477 -0.4261477  0.9046536 
    3   141     2 -0.3268849 -1.1951151  0.8793482  0.4761793 -0.4761793  0.8793482 
    3   141     3 -0.2571305 -0.9617085  0.8841039  0.4672904 -0.4672904  0.8841039 
    3   141     4 -0.2760661 -1.0386916  0.8551584  0.5183668 -0.5183668  0.8551584 
    3   142     1 -0.3705779 -1.0136421  0.9872513  0.1591695 -0.1591695  0.9872513 
    3   142     2 -0.3911969 -1.1202535  0.9869794  0.1608470 -0.1608470  0.9869794 
    3   142     3 -0.4035039 -1.0420397  0.9783504  0.2069554 -0.2069554  0.9783504 
    3   142     4 -0.4257472 -1.1472062  0.9785347  0.2060820 -0.2060820  0.9785347 
    3   143     1 -0.3049958 -0.8945195  0.9857327  0.1683183 -0.1683183  0.9857327 
    3   143     2 -0.2737789 -0.8666703  0.9920671  0.1257092 -0.1257092  0.9920671 
    3   143     3 -0.3181279 -0.9690463  0.9857177  0.1684061 -0.1684061  0.9857177 
    3   143     4 -0.2874889 -0.9476619  0.9916203  0.1291865 -0.1291865  0.9916203 
    3   144     1 -0.1425817 -0.7449314  0.9730405  0.2306344 -0.2306344  0.9730405 
    3   144     2 -0.1712629 -0.8829418  0.9611081  0.2761725 -0.2761725  0.9611081 
    3   144     3 -0.0984782 -0.6694119  0.9460513  0.3240169 -0.3240169  0.9460513 
    3   144     4 -0.1308000 -0.7951550  0.9456117  0.3252977 -0.3252977  0.9456117 
    3   145     1 -0.1757361 -0.7257567  0.9970283  0.0770356 -0.0770356  0.9970283 
    3   145     2 -0.1969452 -0.8078974  0.9953231  0.0966020 -0.0966020  0.9953231 
    3   145     3 -0.2168298 -0.7671931  0.9915958  0.1293745 -0.1293745  0.9915958 
    3   145     4 -0.2275336 -0.8277583  0.9909542  0.1342007 -0.1342007  0.9909542 
    3   146     1 -0.1334409 -0.7126722  0.9983722  0.0570353 -0.0570353  0.9983722 
    3   146     2 -0.0860513 -0.6923820  0.9968934  0.0787623 -0.0787623  0.9968934 
    3   146     3 -0.1291041 -0.6843834  0.9959633  0.0897612 -0.0897612  0.9959633 
    3   146     4 -0.0896810 -0.6729982  0.9948456  0.1014017 -0.1014017  0.9948456 
    3   147     1  0.0368796 -0.6274300  0.8705935  0.4920031 -0.4920031  0.8705935 
    3   147     2  0.0268394 -0.7231038  0.8705115  0.4921481 -0.4921481  0.8705115 
    3   147     3 -0.0131796 -0.6861210  0.8421117  0.5393031 -0.5393031  0.8421117 
    3   147     4 -0.0202581 -0.7705916  0.8463601  0.5326112 -0.5326112  0.8463601 
    3   148     1  0.0863986 -0.5581845  0.8847589  0.4660490 -0.4660490  0.8847589 
    3   148     2  0.1345450 -0.5207770  0.9028038  0.4300528 -0.4300528  0.9028038 
    3   148     3  0.0848571 -0.6214746  0.8802292  0.4745488 -0.4745488  0.8802292 
    3   148     4  0.1342667 -0.5831138  0.8977006  0.4406059 -0.4406059  0.8977006 
    3   149     1  0.1362120 -0.6636363  0.8140378  0.5808119 -0.5808119  0.8140378 
    3   149     2  0.1409069 -0.5815353  0.8066928  0.5909710 -0.5909710  0.8066928 
    3   149     3  0.1826776 -0.6040992  0.8385898  0.5447633 -0.5447633  0.8385898 
    3   149     4  0.1865993 -0.5200442  0.8340651  0.5516660 -0.5516660  0.8340651 
    3   150     1  0.0916873 -0.7355938  0.8005999  0.5991993 -0.5991993  0.8005999 
    3   150     2  0.0511556 -0.8178126  0.7725216  0.6349884 -0.6349884  0.7725216 
    3   150     3  0.1097886 -0.6275216  0.7840186  0.6207373 -0.6207373  0.7840186 
    3   150     4  0.0705932 -0.7138635  0.7518042  0.6593864 -0.6593864  0.7518042 
    3   151     1 -0.0032219 -0.6398212  0.9430843  0.3325538 -0.3325538  0.9430843 
    3   151     2 -0.0645040 -0.6564517  0.9440343  0.3298474 -0.3298474  0.9440343 
    3   151     3 -0.0107745 -0.6570112  0.9549219  0.2968572 -0.2968572  0.9549219 
    3   151     4 -0.0617753 -0.6707703  0.9560813  0.2931017 -0.2931017  0.9560813 
    3   152     1  0.0036584 -0.6138917  0.9955055  0.0947036 -0.0947036  0.9955055 
    3   152     2  0.0053807 -0.5792027  0.9929586  0.1184619 -0.1184619  0.9929586 
    3   152     3 -0.0364444 -0.6283130  0.9972256  0.0744383 -0.0744383  0.9972256 
    3   152     4 -0.0377223 -0.5901867  0.9950371  0.0995047 -0.0995047  0.9950371 
    3   153     1  0.0657080 -0.5193280  0.9970447  0.0768234 -0.0768234  0.9970447 
    3   153     2  0.1143376 -0.5049071  0.9966617  0.0816418 -0.0816418  0.9966617 
    3   153     3  0.0574609 -0.5111066  0.9931630  0.1167361 -0.1167361  0.9931630 
    3   153     4  0.1097714 -0.4961451  0.9929797  0.1182851 -0.1182851  0.9929797 
    3   154     1  0.0538103 -0.5707950  0.9468024  0.3218155 -0.3218155  0.9468024 
    3   154     2  0.0586806 -0.5356905  0.9574217  0.2886929 -0.2886929  0.9574217 
    3   154     3  0.1059234 -0.5485949  0.9538733  0.3002094 -0.3002094  0.9538733 
    3   154     4  0.1097738 -0.5152228  0.9633569  0.2682230 -0.2682230  0.9633569 
    3   155     1  0.2454477 -0.4050183  0.9323479  0.3615625 -0.3615625  0.9323479 
    3   155     2  0.2441019 -0.4734230  0.9263593  0.3766411 -0.3766411  0.9263593 
    3   155     3  0.1856030 -0.4489270  0.9136625  0.4064736 -0.4064736  0.9136625 
    3   155     4  0.1840361 -0.5193998  0.9083944  0.4181144 -0.4181144  0.9083944 
    3   156     1  0.2958293 -0.3594936  0.9431902  0.3322534 -0.3322534  0.9431902 
    3   156     2  0.3612791 -0.3232890  0.9550676  0.2963882 -0.2963882  0.9550676 
    3   156     3  0.2981699 -0.4128042  0.9347959  0.3551853 -0.3551853  0.9347959 
    3   156     4  0.3571363 -0.3770774  0.9462311  0.3234914 -0.3234914  0.9462311 
    3   157     1  0.3210754 -0.4315063  0.8913789  0.4532589 -0.4532589  0.8913789 
    3   157     2  0.3153427 -0.3619467  0.8957353  0.4445877 -0.4445877  0.8957353 
    3   157     3  0.3883692 -0.3791645  0.9113585  0.4116135 -0.4116135  0.9113585 
    3   157     4  0.3761146 -0.3170161  0.9149642  0.4035351 -0.4035351  0.9149642 
    3   158     1  0.2778078 -0.4871413  0.8746034  0.4848390 -0.4848390  0.8746034 
    3   158     2  0.2245727 -0.5395559  0.8532921  0.5214332 -0.5214332  0.8532921 
    3   158     3  0.2764105 -0.4180075  0.8770049  0.4804814 -0.4804814  0.8770049 
    3   158     4  0.2225695 -0.4705921  0.8534392  0.5211924 -0.5211924  0.8534392 
    3   159     1  0.2198609 -0.4535505  0.9669859  0.2548297 -0.2548297  0.9669859 
    3   159     2  0.1607375 -0.4822322  0.9588135  0.2840365 -0.2840365  0.9588135 
    3   159     3  0.2247185 -0.4102607  0.9748062  0.2230533 -0.2230533  0.9748062 
    3   159     4  0.1675977 -0.4360315  0.9679891  0.2509924 -0.2509924  0.9679891 
    3   160     1  0.2286094 -0.4036030  0.9981748  0.0603916 -0.0603916  0.9981748 
    3   160     2  0.2213029 -0.4196361  0.9948843  0.1010211 -0.1010211  0.9948843 
    3   160     3  0.1741889 -0.4206633  0.9976395  0.0686691 -0.0686691  0.9976395 
    3   160     4  0.1628216 -0.4385543  0.9936803  0.1122476 -0.1122476  0.9936803 
    3   161     1  0.2811342 -0.3470338  0.9983864  0.0567851 -0.0567851  0.9983864 
    3   161     2  0.3373724 -0.3285546  0.9989756  0.0452528 -0.0452528  0.9989756 
    3   161     3  0.2743278 -0.3679652  0.9953571  0.0962510 -0.0962510  0.9953571 
    3   161     4  0.3318649 -0.3489702  0.9964814  0.0838141 -0.0838141  0.9964814 
    3   162     1  0.2769316 -0.4008395  0.9721489  0.2343642 -0.2343642  0.9721489 
    3   162     2  0.2843664 -0.3368598  0.9796752  0.2005903 -0.2005903  0.9796752 
    3   162     3  0.3483254 -0.3631042  0.9807017  0.1955103 -0.1955103  0.9807017 
    3   162     4  0.3482823 -0.3061686  0.9862350  0.1653496 -0.1653496  0.9862350 
    3   163     1  0.4827401 -0.2990955  0.9404926  0.3398141 -0.3398141  0.9404926 
    3   163     2  0.4226347 -0.3546557  0.9241419  0.3820494 -0.3820494  0.9241419 
    3   163     3  0.4795555 -0.2180399  0.9431686  0.3323145 -0.3323145  0.9431686 
    3   163     4  0.4191386 -0.2931872  0.9245930  0.3809563 -0.3809563  0.9245930 
    3   164     1  0.4663703 -0.2615085  0.9663721  0.2571478 -0.2571478  0.9663721 
    3   164     2  0.4739557 -0.2721988  0.9567929  0.2907703 -0.2907703  0.9567929 
    3   164     3  0.4044741 -0.2821004  0.9633265  0.2683322 -0.2683322  0.9633265 
    3   164     4  0.4092676 -0.2910504  0.9552868  0.2956809 -0.2956809  0.9552868 
    3   165     1  0.5194865 -0.2236901  0.9726825  0.2321395 -0.2321395  0.9726825 
    3   165     2  0.5747231 -0.2025823  0.9761299  0.2171876 -0.2171876  0.9761299 
    3   165     3  0.5216202 -0.2415743  0.9671409  0.2542412 -0.2542412  0.9671409 
    3   165     4  0.5800840 -0.2199000  0.9709036  0.2394707 -0.2394707  0.9709036 
    3   166     1  0.5289665 -0.2623486  0.9518680  0.3065082 -0.3065082  0.9518680 
    3   166     2  0.5257591 -0.2247936  0.9547012  0.2975662 -0.2975662  0.9547012 
    3   166     3  0.5751964 -0.2328362  0.9596472  0.2812066 -0.2812066  0.9596472 
    3   166     4  0.5752077 -0.1908307  0.9632781  0.2685058 -0.2685058  0.9632781 
    3   167     1  0.5182967 -0.2217377  0.9237401  0.3830200 -0.3830200  0.9237401 
    3   167     2  0.4992307 -0.2690571  0.9358161  0.3524887 -0.3524887  0.9358161 
    3   167     3  0.4972071 -0.2968736  0.9222054  0.3867003 -0.3867003  0.9222054 
    3   167     4  0.4886496 -0.3107514  0.9314237  0.3639366 -0.3639366  0.9314237 
    3   168     1  0.5230612 -0.2326462  0.9437377  0.3306948 -0.3306948  0.9437377 
    3   168     2  0.5783590 -0.2029292  0.9523616  0.3049710 -0.3049710  0.9523616 
    3   168     3  0.5428342 -0.2592940  0.9413698  0.3373765 -0.3373765  0.9413698 
    3   168     4  0.5851327 -0.2320276  0.9485243  0.3167044 -0.3167044  0.9485243 
    3   169     1  0.5350322 -0.2427243  0.9292392  0.3694786 -0.3694786  0.9292392 
    3   169     2  0.5351282 -0.2294737  0.9365858  0.3504384 -0.3504384  0.9365858 
    3   169     3  0.5836743 -0.2246952  0.9335747  0.3583829 -0.3583829  0.9335747 
    3   169     4  0.5753910 -0.2164988  0.9389658  0.3440105 -0.3440105  0.9389658 
    3   170     1  0.3382701 -0.3808756  0.8510828  0.5250315 -0.5250315  0.8510828 
    3   170     2  0.4021542 -0.3325497  0.8730798  0.4875773 -0.4875773  0.8730798 
    3   170     3  0.3502706 -0.4369721  0.8471472  0.5313583 -0.5313583  0.8471472 
    3   170     4  0.4075658 -0.3911551  0.8660329  0.4999869 -0.4999869  0.8660329 
    3   171     1  0.3725299 -0.4438916  0.8069344  0.5906410 -0.5906410  0.8069344 
    3   171     2  0.3615716 -0.3895352  0.8049087  0.5933986 -0.5933986  0.8049087 
    3   171     3  0.4235324 -0.3936057  0.8279770  0.5607620 -0.5607620  0.8279770 
    3   171     4  0.4124825 -0.3353977  0.8281163  0.5605563 -0.5605563  0.8281163 
    3   172     1  0.3530925 -0.4868071  0.7862326  0.6179307 -0.6179307  0.7862326 
    3   172     2  0.3038628 -0.5504451  0.7618077  0.6478032 -0.6478032  0.7618077 
    3   172     3  0.3441196 -0.4233830  0.7801707  0.6255667 -0.6255667  0.7801707 
    3   172     4  0.2951780 -0.4885690  0.7530085  0.6580108 -0.6580108  0.7530085 
    3   173     1  0.3119167 -0.4184600  0.8257930  0.5639733 -0.5639733  0.8257930 
    3   173     2  0.3156768 -0.4911408  0.8295057  0.5584983 -0.5584983  0.8295057 
    3   173     3  0.2608805 -0.4818228  0.7982126  0.6023758 -0.6023758  0.7982126 
    3   173     4  0.2641201 -0.5541609  0.8048019  0.5935435 -0.5935435  0.8048019 
    3   174     1  0.4839964 -0.2707466  0.9006646  0.4345150 -0.4345150  0.9006646 
    3   174     2  0.4959086 -0.2882439  0.8891579  0.4576006 -0.4576006  0.8891579 
    3   174     3  0.4271741 -0.2924859  0.8934880  0.4490872 -0.4490872  0.8934880 
    3   174     4  0.4381878 -0.3062273  0.8840634  0.4673671 -0.4673671  0.8840634 
    3   175     1  0.5175948 -0.2294061  0.9208243  0.3899778 -0.3899778  0.9208243 
    3   175     2  0.5678492 -0.2121256  0.9246973  0.3807031 -0.3807031  0.9246973 
    3   175     3  0.5266111 -0.2363115  0.9128288  0.4083425 -0.4083425  0.9128288 
    3   175     4  0.5832993 -0.2175509  0.9166977  0.3995814 -0.3995814  0.9166977 
    3   176     1  0.5161215 -0.2679568  0.8887183  0.4584536 -0.4584536  0.8887183 
    3   176     2  0.5084077 -0.2332612  0.8931882  0.4496831 -0.4496831  0.8931882 
    3   176     3  0.5725300 -0.2333565  0.9022433  0.4312274 -0.4312274  0.9022433 
    3   176     4  0.5632902 -0.1937607  0.9077086  0.4196011 -0.4196011  0.9077086 
    3   177     1  0.4978702 -0.3130306  0.8677541  0.4969938 -0.4969938  0.8677541 
    3   177     2  0.4409580 -0.3562409  0.8495831  0.5274547 -0.5274547  0.8495831 
    3   177     3  0.4870330 -0.2606535  0.8723877  0.4888146 -0.4888146  0.8723877 
    3   177     4  0.4300112 -0.3086224  0.8524307  0.5228402 -0.5228402  0.8524307 
    3   178     1  0.3706840 -0.4190316  0.7435065  0.6687287 -0.6687287  0.7435065 
    3   178     2  0.3817808 -0.4766093  0.7527200  0.6583408 -0.6583408  0.7527200 
    3   178     3  0.3256485 -0.4864203  0.7174372  0.6966232 -0.6966232  0.7174372 
    3   178     4  0.3361566 -0.5413539  0.7289291  0.6845892 -0.6845892  0.7289291 
    3   179     1  0.3794887 -0.3969974  0.7727897  0.6346622 -0.6346622  0.7727897 
    3   179     2  0.4261157 -0.3348905  0.7967133  0.6043575 -0.6043575  0.7967133 
    3   179     3  0.3908096 -0.4513208  0.7789487  0.6270876 -0.6270876  0.7789487 
    3   179     4  0.4392209 -0.3905016  0.8013604  0.5981818 -0.5981818  0.8013604 
    3   180     1  0.4038482 -0.4507060  0.7544171  0.6563953 -0.6563953  0.7544171 
    3   180     2  0.3918112 -0.3871596  0.7441572  0.6680045 -0.6680045  0.7441572 
    3   180     3  0.4603644 -0.3713414  0.7823424  0.6228485 -0.6228485  0.7823424 
    3   180     4  0.4410391 -0.3193454  0.7717432  0.6359343 -0.6359343  0.7717432 
    3   181     1  0.3998790 -0.4767872  0.7229829  0.6908660 -0.6908660  0.7229829 
    3   181     2  0.3593781 -0.5357572  0.7020241  0.7121532 -0.7121532  0.7020241 
    3   181     3  0.3884893 -0.4273631  0.7156277  0.6984819 -0.6984819  0.7156277 
    3   181     4  0.3486810 -0.4865779  0.6931023  0.7208392 -0.7208392  0.6931023 
    3   182     1  0.5095813 -0.2815736  0.8336430  0.5523036 -0.5523036  0.8336430 
    3   182     2  0.4632353 -0.3694574  0.8124650  0.5830100 -0.5830100  0.8124650 
    3   182     3  0.4935092 -0.2303917  0.8193757  0.5732569 -0.5732569  0.8193757 
    3   182     4  0.4553500 -0.3246566  0.8020895  0.5972038 -0.5972038  0.8020895 
    3   183     1  0.4908296 -0.2444356  0.8445268  0.5355133 -0.5355133  0.8445268 
    3   183     2  0.5014317 -0.3050238  0.8470535  0.5315076 -0.5315076  0.8470535 
    3   183     3  0.4415101 -0.3132858  0.8213637  0.5704048 -0.5704048  0.8213637 
    3   183     4  0.4500381 -0.3671178  0.8253167  0.5646702 -0.5646702  0.8253167 
    3   184     1  0.5088825 -0.2442491  0.8705779  0.4920306 -0.4920306  0.8705779 
    3   184     2  0.5612421 -0.1789196  0.8906597  0.4546705 -0.4546705  0.8906597 
    3   184     3  0.5151675 -0.2904424  0.8709089  0.4914444 -0.4914444  0.8709089 
    3   184     4  0.5658992 -0.2351653  0.8886914  0.4585058 -0.4585058  0.8886914 
    3   185     1  0.5328957 -0.2810758  0.8674977  0.4974411 -0.4974411  0.8674977 
    3   185     2  0.5250584 -0.2502819  0.8624946  0.5060663 -0.5060663  0.8624946 
    3   185     3  0.5606898 -0.2367427  0.8784831  0.4777735 -0.4777735  0.8784831 
    3   185     4  0.5589108 -0.1893093  0.8766467  0.4811346 -0.4811346  0.8766467 
    3   186     1  0.5247020 -0.2343291  0.8269496  0.5622760 -0.5622760  0.8269496 
    3   186     2  0.5089007 -0.2402980  0.8365183  0.5479390 -0.5479390  0.8365183 
    3   186     3  0.5120274 -0.2737183  0.8317291  0.5551817 -0.5551817  0.8317291 
    3   186     4  0.5009583 -0.2755569  0.8384455  0.5449854 -0.5449854  0.8384455 
    3   187     1  0.5616060 -0.2266351  0.8747097  0.4846473 -0.4846473  0.8747097 
    3   187     2  0.5643561 -0.2181274  0.8753324  0.4835216 -0.4835216  0.8753324 
    3   187     3  0.5630195 -0.2266552  0.8761345  0.4820668 -0.4820668  0.8761345 
    3   187     4  0.5679959 -0.2137268  0.8778668  0.4789049 -0.4789049  0.8778668 
    3   188     1  0.5952518 -0.1638906  0.9022146  0.4312874 -0.4312874  0.9022146 
    3   188     2  0.6161221 -0.1552586  0.9054952  0.4243565 -0.4243565  0.9054952 
    3   188     3  0.5865781 -0.1892111  0.8943189  0.4474302 -0.4474302  0.8943189 
    3   188     4  0.6134923 -0.1752202  0.8995093  0.4369016 -0.4369016  0.8995093 
    3   189     1  0.5336932 -0.2138200  0.8559076  0.5171288 -0.5171288  0.8559076 
    3   189     2  0.5333619 -0.1968808  0.8663080  0.4995101 -0.4995101  0.8663080 
    3   189     3  0.5709720 -0.1992348  0.8615854  0.5076126 -0.5076126  0.8615854 
    3   189     4  0.5666620 -0.1845363  0.8708432  0.4915608 -0.4915608  0.8708432 
    3   190     1  0.4885116 -0.2830124  0.7909539  0.6118757 -0.6118757  0.7909539 
    3   190     2  0.5018742 -0.3036596  0.7807591  0.6248322 -0.6248322  0.7807591 
    3   190     3  0.4433511 -0.3051862  0.7793877  0.6265419 -0.6265419  0.7793877 
    3   190     4  0.4564711 -0.3228107  0.7708368  0.6370326 -0.6370326  0.7708368 
    3   191     1  0.4895054 -0.2239312  0.8304195  0.5571386 -0.5571386  0.8304195 
    3   191     2  0.5300803 -0.2066081  0.8384261  0.5450152 -0.5450152  0.8384261 
    3   191     3  0.4994902 -0.2393389  0.8208017  0.5712133 -0.5712133  0.8208017 
    3   191     4  0.5432788 -0.2208210  0.8293196  0.5587745 -0.5587745  0.8293196 
    3   192     1  0.4705686 -0.2797253  0.7855431  0.6188069 -0.6188069  0.7855431 
    3   192     2  0.4543931 -0.2584527  0.7937152  0.6082896 -0.6082896  0.7937152 
    3   192     3  0.5168558 -0.2549921  0.7984736  0.6020299 -0.6020299  0.7984736 
    3   192     4  0.4999620 -0.2340543  0.8068178  0.5908004 -0.5908004  0.8068178 
    3   193     1  0.4868568 -0.3432890  0.7538645  0.6570299 -0.6570299  0.7538645 
    3   193     2  0.4407219 -0.3731900  0.7383930  0.6743707 -0.6743707  0.7383930 
    3   193     3  0.4699508 -0.3191953  0.7600462  0.6498690 -0.6498690  0.7600462 
    3   193     4  0.4228057 -0.3486752  0.7439792  0.6682028 -0.6682028  0.7439792 
    3   194     1  0.5585343 -0.1694911  0.8552675  0.5181868 -0.5181868  0.8552675 
    3   194     2  0.5014812 -0.2052701  0.8381657  0.5454156 -0.5454156  0.8381657 
    3   194     3  0.5444225 -0.1360962  0.8646097  0.5024441 -0.5024441  0.8646097 
    3   194     4  0.4878312 -0.1698022  0.8476529  0.5305511 -0.5305511  0.8476529 
    3   195     1  0.5890479 -0.1139880  0.8908503  0.4542970 -0.4542970  0.8908503 
    3   195     2  0.5990957 -0.1527917  0.8819382  0.4713650 -0.4713650  0.8819382 
    3   195     3  0.5294385 -0.1490594  0.8750016  0.4841201 -0.4841201  0.8750016 
    3   195     4  0.5380287 -0.1905608  0.8656083  0.5007218 -0.5007218  0.8656083 
    3   196     1  0.5992476 -0.0852270  0.9292460  0.3694617 -0.3694617  0.9292460 
    3   196     2  0.6756570 -0.0479304  0.9415110  0.3369821 -0.3369821  0.9415110 
    3   196     3  0.6099121 -0.1335217  0.9166439  0.3997049 -0.3997049  0.9166439 
    3   196     4  0.6836408 -0.0893980  0.9308693  0.3653525 -0.3653525  0.9308693 
    3   197     1  0.5514050 -0.1296298  0.8968923  0.4422490 -0.4422490  0.8968923 
    3   197     2  0.5392574 -0.0911543  0.9088291  0.4171685 -0.4171685  0.9088291 
    3   197     3  0.6193179 -0.0940577  0.9112386  0.4118790 -0.4118790  0.9112386 
    3   197     4  0.6079770 -0.0565956  0.9228307  0.3852057 -0.3852057  0.9228307 
    3   198     1  0.6371855 -0.1468306  0.9037319  0.4280988 -0.4280988  0.9037319 
    3   198     2  0.5827754 -0.1801321  0.8912203  0.4535707 -0.4535707  0.8912203 
    3   198     3  0.6308399 -0.1063792  0.9122433  0.4096487 -0.4096487  0.9122433 
    3   198     4  0.5835758 -0.1328711  0.9018973  0.4319505 -0.4319505  0.9018973 
    3   199     1  0.6753362 -0.0904756  0.9331181  0.3595700 -0.3595700  0.9331181 
    3   199     2  0.6786215 -0.1323561  0.9243766  0.3814813 -0.3814813  0.9243766 
    3   199     3  0.6356861 -0.1117085  0.9262204  0.3769825 -0.3769825  0.9262204 
    3   199     4  0.6312721 -0.1591303  0.9156638  0.4019451 -0.4019451  0.9156638 
    3   200     1  0.6872532 -0.0897059  0.9458218  0.3246863 -0.3246863  0.9458218 
    3   200     2  0.7309635 -0.0666970  0.9517123  0.3069912 -0.3069912  0.9517123 
    3   200     3  0.6965710 -0.1215249  0.9372890  0.3485532 -0.3485532  0.9372890 
    3   200     4  0.7453515 -0.0973424  0.9436237  0.3310200 -0.3310200  0.9436237 
    3   201     1  0.6540939 -0.1402468  0.9287056  0.3708178 -0.3708178  0.9287056 
    3   201     2  0.6420671 -0.0738160  0.9379038  0.3468954 -0.3468954  0.9379038 
    3   201     3  0.7367348 -0.0817937  0.9446119  0.3281896 -0.3281896  0.9446119 
    3   201     4  0.7058276 -0.0315924  0.9501655  0.3117458 -0.3117458  0.9501655 
    3   202     1  0.7177344 -0.0401044  0.9579085  0.2870739 -0.2870739  0.9579085 
    3   202     2  0.6311919 -0.0797952  0.9474502  0.3199033 -0.3199033  0.9474502 
    3   202     3  0.7108589 -0.0017227  0.9681114  0.2505202 -0.2505202  0.9681114 
    3   202     4  0.6242684 -0.0382442  0.9593674  0.2821598 -0.2821598  0.9593674 
    3   203     1  0.7810340 -0.0000897  0.9741833  0.2257586 -0.2257586  0.9741833 
    3   203     2  0.7869495 -0.0384128  0.9642301  0.2650665 -0.2650665  0.9642301 
    3   203     3  0.6950178 -0.0332151  0.9681655  0.2503111 -0.2503111  0.9681655 
    3   203     4  0.7004129 -0.0696532  0.9578833  0.2871576 -0.2871576  0.9578833 
    3   204     1  0.8200060 -0.0161871  0.9891769  0.1467276 -0.1467276  0.9891769 
    3   204     2  0.9094718  0.0156666  0.9916815  0.1287164 -0.1287164  0.9916815 
    3   204     3  0.8224847 -0.0455717  0.9828116  0.1846116 -0.1846116  0.9828116 
    3   204     4  0.9150543 -0.0114340  0.9863309  0.1647768 -0.1647768  0.9863309 
    3   205     1  0.7542863 -0.0480513  0.9808850  0.1945881 -0.1945881  0.9808850 
    3   205     2  0.7483220 -0.0072611  0.9894899  0.1446017 -0.1446017  0.9894899 
    3   205     3  0.8692073 -0.0041292  0.9862053  0.1655267 -0.1655267  0.9862053 
    3   205     4  0.8543631  0.0287658  0.9924295  0.1228154 -0.1228154  0.9924295 
    3   206     1  0.8519676 -0.0346637  0.9723723  0.2334356 -0.2334356  0.9723723 
    3   206     2  0.7923130 -0.0526655  0.9714339  0.2373103 -0.2373103  0.9714339 
    3   206     3  0.8504197 -0.0261899  0.9786098  0.2057251 -0.2057251  0.9786098 
    3   206     4  0.8045707 -0.0400448  0.9780597  0.2083246 -0.2083246  0.9780597 
    3   207     1  0.9265029 -0.0280849  0.9842925  0.1765456 -0.1765456  0.9842925 
    3   207     2  0.9273886 -0.0397840  0.9802608  0.1977086 -0.1977086  0.9802608 
    3   207     3  0.8890915 -0.0391533  0.9838300  0.1791046 -0.1791046  0.9838300 
    3   207     4  0.8853173 -0.0536649  0.9791089  0.2033368 -0.2033368  0.9791089 
    3   208     1  0.9507393 -0.0216791  0.9915916  0.1294064 -0.1294064  0.9915916 
    3   208     2  1.0076142 -0.0034179  0.9924072  0.1229956 -0.1229956  0.9924072 
    3   208     3  0.9545275 -0.0418748  0.9865957  0.1631835 -0.1631835  0.9865957 
    3   208     4  1.0232215 -0.0188794  0.9880925  0.1538608 -0.1538608  0.9880925 
    3   209     1  0.8832073 -0.0468470  0.9839270  0.1785711 -0.1785711  0.9839270 
    3   209     2  0.8813183 -0.0170891  0.9902641  0.1392011 -0.1392011  0.9902641 
    3   209     3  0.9730167 -0.0156356  0.9866108  0.1630925 -0.1630925  0.9866108 
    3   209     4  0.9611373  0.0100468  0.9920018  0.1262240 -0.1262240  0.9920018 
    3   210     1  0.8209282 -0.0509731  0.9764503  0.2157423 -0.2157423  0.9764503 
    3   210     2  0.8627234 -0.0408321  0.9768547  0.2139041 -0.2139041  0.9768547 
    3   210     3  0.8220709 -0.0705635  0.9705980  0.2407062 -0.2407062  0.9705980 
    3   210     4  0.8593104 -0.0577978  0.9722109  0.2341069 -0.2341069  0.9722109 
    3   211     1  0.7919956 -0.0509127  0.9635048  0.2676910 -0.2676910  0.9635048 
    3   211     2  0.7573396 -0.1071567  0.9562734  0.2924742 -0.2924742  0.9562734 
    3   211     3  0.7691516 -0.0331448  0.9604175  0.2785647 -0.2785647  0.9604175 
    3   211     4  0.7498179 -0.0797976  0.9556609  0.2944694 -0.2944694  0.9556609 
    3   212     1  0.7975733 -0.0267303  0.9666282  0.2561835 -0.2561835  0.9666282 
    3   212     2  0.7963324 -0.0826016  0.9600227  0.2799222 -0.2799222  0.9600227 
    3   212     3  0.7498660 -0.0657293  0.9590842  0.2831208 -0.2831208  0.9590842 
    3   212     4  0.7538350 -0.1080862  0.9542908  0.2988796 -0.2988796  0.9542908 
    3   213     1  1.0176299  0.0087809  0.9967620  0.0804090 -0.0804090  0.9967620 
    3   213     2  0.9033703 -0.0419888  0.9936664  0.1123707 -0.1123707  0.9936664 
    3   213     3  1.0020226  0.0433246  0.9993865  0.0350220 -0.0350220  0.9993865 
    3   213     4  0.8900618 -0.0091965  0.9973603  0.0726122 -0.0726122  0.9973603 
    3   214     1  1.0458564  0.0377524  0.9984827  0.0550656 -0.0550656  0.9984827 
    3   214     2  1.0526720  0.0006004  0.9961158  0.0880524 -0.0880524  0.9961158 
    3   214     3  0.9532860 -0.0012304  0.9968982  0.0787017 -0.0787017  0.9968982 
    3   214     4  0.9542964 -0.0426634  0.9935050  0.1137887 -0.1137887  0.9935050 
    3   215     1  1.0955292 -0.0046597  0.9997267  0.0233771 -0.0233771  0.9997267 
    3   215     2  1.2182199  0.0413957  0.9999987  0.0016366 -0.0016366  0.9999987 
    3   215     3  1.1031335 -0.0300318  0.9984141  0.0562963 -0.0562963  0.9984141 
    3   215     4  1.2150310  0.0130343  0.9993507  0.0360291 -0.0360291  0.9993507 
    3   216     1  1.0717610 -0.0405804  0.9988531  0.0478809 -0.0478809  0.9988531 
    3   216     2  1.0692870 -0.0053856  0.9997745  0.0212348 -0.0212348  0.9997745 
    3   216     3  1.1523988 -0.0042035  0.9996054  0.0280883 -0.0280883  0.9996054 
    3   216     4  1.1598014  0.0338273  0.9999999 -0.0003435  0.0003435  0.9999999 
    3   217     1  0.9840948  0.0327019  0.9992734  0.0381151 -0.0381151  0.9992734 
    3   217     2  1.0010726  0.0018914  0.9989873  0.0449939 -0.0449939  0.9989873 
    3   217     3  0.9472562 -0.0150609  0.9980369  0.0626291 -0.0626291  0.9980369 
    3   217     4  0.9701958 -0.0248618  0.9981740  0.0604038 -0.0604038  0.9981740 
    3   218     1  1.0284074 -0.0074225  0.9999748  0.0071023 -0.0071023  0.9999748 
    3   218     2  1.1113946  0.0187183  0.9999982 -0.0019215  0.0019215  0.9999982 
    3   218     3  1.0459078 -0.0274169  0.9993461  0.0361569 -0.0361569  0.9993461 
    3   218     4  1.1097690 -0.0026621  0.9997206  0.0236374 -0.0236374  0.9997206 
    3   219     1  1.0034908 -0.0080247  0.9998476  0.0174586 -0.0174586  0.9998476 
    3   219     2  1.0120312 -0.0256867  0.9999981 -0.0019264  0.0019264  0.9999981 
    3   219     3  1.0598968  0.0116593  0.9996377  0.0269158 -0.0269158  0.9996377 
    3   219     4  1.0561345 -0.0063574  0.9999565  0.0093239 -0.0093239  0.9999565 
    3   220     1  0.6753091 -0.0134328  0.9884005  0.1518700 -0.1518700  0.9884005 
    3   220     2  0.7783521  0.0179268  0.9899234  0.1416037 -0.1416037  0.9899234 
    3   220     3  0.6812012 -0.0328814  0.9790427  0.2036553 -0.2036553  0.9790427 
    3   220     4  0.7753818 -0.0016581  0.9823255  0.1871805 -0.1871805  0.9823255 
    3   221     1  0.5994236 -0.0265867  0.9762868  0.2164812 -0.2164812  0.9762868 
    3   221     2  0.5917929 -0.0094892  0.9862029  0.1655410 -0.1655410  0.9862029 
    3   221     3  0.6947325  0.0034807  0.9796008  0.2009533 -0.2009533  0.9796008 
    3   221     4  0.6888691  0.0204500  0.9882482  0.1528577 -0.1528577  0.9882482 
    3   222     1  0.5852155 -0.0428595  0.9368992  0.3495996 -0.3495996  0.9368992 
    3   222     2  0.5000363 -0.0806872  0.9225378  0.3859067 -0.3859067  0.9225378 
    3   222     3  0.5703719 -0.0131146  0.9508100  0.3097747 -0.3097747  0.9508100 
    3   222     4  0.4824340 -0.0496488  0.9378882  0.3469376 -0.3469376  0.9378882 
    3   223     1  0.6445670 -0.0043322  0.9617319  0.2739921 -0.2739921  0.9617319 
    3   223     2  0.6570177 -0.0380353  0.9497423  0.3130329 -0.3130329  0.9497423 
    3   223     3  0.5507002 -0.0422271  0.9510770  0.3089539 -0.3089539  0.9510770 
    3   223     4  0.5661939 -0.0788186  0.9370857  0.3490995 -0.3490995  0.9370857 
    3   224     1  0.8979713  0.0087172  0.9980554  0.0623339 -0.0623339  0.9980554 
    3   224     2  0.8958552  0.0227724  0.9956704  0.0929544 -0.0929544  0.9956704 
    3   224     3  0.8309258 -0.0158886  0.9988664  0.0476011 -0.0476011  0.9988664 
    3   224     4  0.8287447 -0.0030382  0.9971998  0.0747834 -0.0747834  0.9971998 
    3   225     1  0.9595960 -0.0313451  0.9999679 -0.0080182  0.0080182  0.9999679 
    3   225     2  1.0135549 -0.0050854  0.9999639  0.0085020 -0.0085020  0.9999639 
    3   225     3  0.9604913 -0.0048407  0.9999329  0.0115843 -0.0115843  0.9999329 
    3   225     4  1.0216078  0.0249613  0.9995267  0.0307638 -0.0307638  0.9995267 
    3   226     1  0.8991690 -0.0078236  0.9998421  0.0177679 -0.0177679  0.9998421 
    3   226     2  0.8948101 -0.0349025  0.9998455 -0.0175770  0.0175770  0.9998455 
    3   226     3  0.9985757  0.0309273  0.9991560  0.0410770 -0.0410770  0.9991560 
    3   226     4  0.9892464  0.0031649  0.9999854  0.0053953 -0.0053953  0.9999854 
    3   227     1  0.8430171  0.0219759  0.9949129  0.1007389 -0.1007389  0.9949129 
    3   227     2  0.7399770 -0.0099758  0.9960636  0.0886419 -0.0886419  0.9960636 
    3   227     3  0.8385875  0.0143373  0.9983472  0.0574699 -0.0574699  0.9983472 
    3   227     4  0.7368131 -0.0183767  0.9991090  0.0422036 -0.0422036  0.9991090 
    3   228     1  0.4952193 -0.0370362  0.9349272  0.3548397 -0.3548397  0.9349272 
    3   228     2  0.5165616 -0.0635349  0.9187297  0.3948871 -0.3948871  0.9187297 
    3   228     3  0.4100486 -0.0738591  0.9183714  0.3957196 -0.3957196  0.9183714 
    3   228     4  0.4342786 -0.1021801  0.9006752  0.4344929 -0.4344929  0.9006752 
    3   229     1  0.5069394 -0.0160818  0.9841890  0.1771217 -0.1771217  0.9841890 
    3   229     2  0.6151172  0.0175318  0.9869622  0.1609520 -0.1609520  0.9869622 
    3   229     3  0.5220461 -0.0341619  0.9694742  0.2451935 -0.2451935  0.9694742 
    3   229     4  0.6291401  0.0011535  0.9750442  0.2220108 -0.2220108  0.9750442 
    3   230     1  0.4401393 -0.0479099  0.9576058  0.2880819 -0.2880819  0.9576058 
    3   230     2  0.4181679 -0.0317961  0.9772478  0.2121007 -0.2121007  0.9772478 
    3   230     3  0.5573060 -0.0080392  0.9665921  0.2563196 -0.2563196  0.9665921 
    3   230     4  0.5364718  0.0060110  0.9822468  0.1875934 -0.1875934  0.9822468 
    3   231     1  0.4523794 -0.1049967  0.8899359  0.4560856 -0.4560856  0.8899359 
    3   231     2  0.3732529 -0.1430165  0.8686860  0.4953631 -0.4953631  0.8686860 
    3   231     3  0.4236157 -0.0864048  0.9078238  0.4193519 -0.4193519  0.9078238 
    3   231     4  0.3429864 -0.1228030  0.8875032  0.4608016 -0.4608016  0.8875032 
    3   232     1  0.7828847  0.0216404  0.9991458  0.0413242 -0.0413242  0.9991458 
    3   232     2  0.7930357  0.0326520  0.9948257  0.1015964 -0.1015964  0.9948257 
    3   232     3  0.6613645 -0.0172025  0.9997340  0.0230657 -0.0230657  0.9997340 
    3   232     4  0.6701934 -0.0050467  0.9960747  0.0885161 -0.0885161  0.9960747 
    3   233     1  0.8486456 -0.0368248  0.9994540 -0.0330424  0.0330424  0.9994540 
    3   233     2  0.9758728  0.0108555  0.9999837 -0.0057172  0.0057172  0.9999837 
    3   233     3  0.8558318 -0.0050445  0.9998608  0.0166870 -0.0166870  0.9998608 
    3   233     4  0.9871201  0.0422865  0.9990726  0.0430581 -0.0430581  0.9990726 
    3   234     1  0.8222653 -0.0082870  0.9998772  0.0156718 -0.0156718  0.9998772 
    3   234     2  0.8137302 -0.0456409  0.9987046 -0.0508843  0.0508843  0.9987046 
    3   234     3  0.9919401  0.0490700  0.9990727  0.0430554 -0.0430554  0.9990727 
    3   234     4  0.9796006  0.0140230  0.9998276 -0.0185688  0.0185688  0.9998276 
    3   235     1  0.7454610  0.0360753  0.9945347  0.1044062 -0.1044062  0.9945347 
    3   235     2  0.6006490 -0.0083109  0.9958918  0.0905513 -0.0905513  0.9958918 
    3   235     3  0.7313711  0.0202393  0.9994644  0.0327239 -0.0327239  0.9994644 
    3   235     4  0.5876177 -0.0264083  0.9999725  0.0074103 -0.0074103  0.9999725 
    3   236     1  0.3659406 -0.2617504  0.7956754  0.6057232 -0.6057232  0.7956754 
    3   236     2  0.3334529 -0.2561845  0.8087339  0.5881747 -0.5881747  0.8087339 
    3   236     3  0.4206350 -0.2348853  0.8124709  0.5830018 -0.5830018  0.8124709 
    3   236     4  0.3880960 -0.2300827  0.8256741  0.5641474 -0.5641474  0.8256741 
    3   237     1  0.4178707 -0.3504198  0.7657966  0.6430828 -0.6430828  0.7657966 
    3   237     2  0.3731423 -0.3656438  0.7551275  0.6555780 -0.6555780  0.7551275 
    3   237     3  0.3815984 -0.3595629  0.7785640  0.6275653 -0.6275653  0.7785640 
    3   237     4  0.3364945 -0.3742775  0.7681961  0.6402146 -0.6402146  0.7681961 
    3   238     1  0.4224549 -0.2683563  0.7896052  0.6136152 -0.6136152  0.7896052 
    3   238     2  0.4505973 -0.2772329  0.7809934  0.6245393 -0.6245393  0.7809934 
    3   238     3  0.3735213 -0.2955758  0.7732821  0.6340621 -0.6340621  0.7732821 
    3   238     4  0.4021060 -0.3048626  0.7650635  0.6439548 -0.6439548  0.7650635 
    3   239     1  0.3790909 -0.1815747  0.8324371  0.5541195 -0.5541195  0.8324371 
    3   239     2  0.4407257 -0.1463409  0.8535229  0.5210553 -0.5210553  0.8535229 
    3   239     3  0.4058279 -0.2033504  0.8216957  0.5699265 -0.5699265  0.8216957 
    3   239     4  0.4662837 -0.1669339  0.8423707  0.5388985 -0.5388985  0.8423707 
    3   240     1  0.4813236 -0.1093908  0.8859603  0.4637611 -0.4637611  0.8859603 
    3   240     2  0.5505843 -0.0723700  0.9036734  0.4282224 -0.4282224  0.9036734 
    3   240     3  0.4995230 -0.1431595  0.8748274  0.4844347 -0.4844347  0.8748274 
    3   240     4  0.5681510 -0.1043232  0.8927500  0.4505523 -0.4505523  0.8927500 
    3   241     1  0.4512624 -0.1651006  0.8485521  0.5291119 -0.5291119  0.8485521 
    3   241     2  0.4291763 -0.1348449  0.8595294  0.5110862 -0.5110862  0.8595294 
    3   241     3  0.5163343 -0.1264254  0.8687279  0.4952896 -0.4952896  0.8687279 
    3   241     4  0.4950365 -0.0968201  0.8803312  0.4743595 -0.4743595  0.8803312 
    3   242     1  0.4856002 -0.2264051  0.8030240  0.5959467 -0.5959467  0.8030240 
    3   242     2  0.4337196 -0.2591595  0.7851232  0.6193396 -0.6193396  0.7851232 
    3   242     3  0.4609973 -0.2065405  0.8111651  0.5848172 -0.5848172  0.8111651 
    3   242     4  0.4088938 -0.2389707  0.7925181  0.6098484 -0.6098484  0.7925181 
    3   243     1  0.5014399 -0.1662170  0.8368719  0.5473988 -0.5473988  0.8368719 
    3   243     2  0.5213275 -0.1921954  0.8290716  0.5591425 -0.5591425  0.8290716 
    3   243     3  0.4439506 -0.2019469  0.8173175  0.5761876 -0.5761876  0.8173175 
    3   243     4  0.4648464 -0.2282853  0.8103666  0.5859231 -0.5859231  0.8103666 
    3   244     1  0.4267876 -0.3456255  0.7405064  0.6720493 -0.6720493  0.7405064 
    3   244     2  0.3982019 -0.3372818  0.7480519  0.6636402 -0.6636402  0.7480519 
    3   244     3  0.4732476 -0.3207447  0.7541346  0.6567199 -0.6567199  0.7541346 
    3   244     4  0.4454630 -0.3130003  0.7617334  0.6478906 -0.6478906  0.7617334 
    3   245     1  0.4596188 -0.4013444  0.7184782  0.6955495 -0.6955495  0.7184782 
    3   245     2  0.4175426 -0.4267816  0.7050114  0.7091960 -0.7091960  0.7050114 
    3   245     3  0.4323279 -0.3929638  0.7240203  0.6897787 -0.6897787  0.7240203 
    3   245     4  0.3902188 -0.4184299  0.7100159  0.7041856 -0.7041856  0.7100159 
    3   246     1  0.4503148 -0.3531236  0.7355931  0.6774236 -0.6774236  0.7355931 
    3   246     2  0.4768721 -0.3671572  0.7299432  0.6835078 -0.6835078  0.7299432 
    3   246     3  0.4049327 -0.3813018  0.7201992  0.6937673 -0.6937673  0.7201992 
    3   246     4  0.4304768 -0.3950764  0.7152397  0.6988792 -0.6988792  0.7152397 
    3   247     1  0.4226094 -0.2959119  0.7635271  0.6457758 -0.6457758  0.7635271 
    3   247     2  0.4732117 -0.2659439  0.7802047  0.6255243 -0.6255243  0.7802047 
    3   247     3  0.4469208 -0.3134556  0.7573881  0.6529650 -0.6529650  0.7573881 
    3   247     4  0.4983908 -0.2831760  0.7735567  0.6337271 -0.6337271  0.7735567 
    3   248     1  0.4079142 -0.4460109  0.7214148  0.6925032 -0.6925032  0.7214148 
    3   248     2  0.4413930 -0.4434039  0.7132173  0.7009430 -0.7009430  0.7132173 
    3   248     3  0.3685625 -0.4635545  0.7107681  0.7034264 -0.7034264  0.7107681 
    3   248     4  0.4020500 -0.4612448  0.7027255  0.7114611 -0.7114611  0.7027255 
    3   249     1  0.3715276 -0.3900516  0.7377432  0.6750814 -0.6750814  0.7377432 
    3   249     2  0.4157686 -0.3717029  0.7488768  0.6627092 -0.6627092  0.7488768 
    3   249     3  0.4045056 -0.3875438  0.7282990  0.6852595 -0.6852595  0.7282990 
    3   249     4  0.4499244 -0.3686828  0.7390834  0.6736139 -0.6736139  0.7390834 
    3   250     1  0.3785455 -0.4453793  0.7304011  0.6830184 -0.6830184  0.7304011 
    3   250     2  0.3393508 -0.4614738  0.7436719  0.6685447 -0.6685447  0.7436719 
    3   250     3  0.4207220 -0.4358639  0.7378001  0.6750192 -0.6750192  0.7378001 
    3   250     4  0.3816863 -0.4523731  0.7506398  0.6607117 -0.6607117  0.7506398 
    3   251     1  0.4157881 -0.4959881  0.7181926  0.6958444 -0.6958444  0.7181926 
    3   251     2  0.3778837 -0.5037367  0.7113707  0.7028170 -0.7028170  0.7113707 
    3   251     3  0.3779486 -0.5123727  0.7297896  0.6836718 -0.6836718  0.7297896 
    3   251     4  0.3399198 -0.5197622  0.7232744  0.6905608 -0.6905608  0.7232744 
    3   252     1  0.3596304 -0.5195090  0.6875353  0.7261510 -0.7261510  0.6875353 
    3   252     2  0.3927310 -0.5025183  0.6979934  0.7161042 -0.7161042  0.6979934 
    3   252     3  0.3906674 -0.5184893  0.6812168  0.7320818 -0.7320818  0.6812168 
    3   252     4  0.4235432 -0.5012467  0.6915559  0.7223230 -0.7223230  0.6915559 
    3   253     1  0.3697161 -0.5445673  0.6952257  0.7187915 -0.7187915  0.6952257 
    3   253     2  0.3345180 -0.5589547  0.7056439  0.7085667 -0.7085667  0.7056439 
    3   253     3  0.4014331 -0.5384089  0.7022005  0.7119793 -0.7119793  0.7022005 
    3   253     4  0.3661806 -0.5531783  0.7124607  0.7017120 -0.7017120  0.7124607 
    3   254     1  0.3802253 -0.5620604  0.6865874  0.7270472 -0.7270472  0.6865874 
    3   254     2  0.3512706 -0.5679419  0.6792087  0.7339452 -0.7339452  0.6792087 
    3   254     3  0.3456069 -0.5758102  0.6963662  0.7176866 -0.7176866  0.6963662 
    3   254     4  0.3166097 -0.5813526  0.6890877  0.7246779 -0.7246779  0.6890877 
    3   255     1  0.3700676 -0.5432749  0.6763223  0.7366058 -0.7366058  0.6763223 
    3   255     2  0.4004275 -0.5412008  0.6703464  0.7420483 -0.7420483  0.6703464 
    3   255     3  0.3401354 -0.5590132  0.6661222  0.7458427 -0.7458427  0.6661222 
    3   255     4  0.3705767 -0.5571281  0.6603379  0.7509686 -0.7509686  0.6603379 
    3   256     1  0.4026503 -0.4954739  0.6768635  0.7361086 -0.7361086  0.6768635 
    3   256     2  0.3779326 -0.4853803  0.6798351  0.7333650 -0.7333650  0.6798351 
    3   256     3  0.4373407 -0.4695812  0.6897702  0.7240284 -0.7240284  0.6897702 
    3   256     4  0.4120697 -0.4596877  0.6931133  0.7208286 -0.7208286  0.6931133 
    3   257     1  0.4112182 -0.5231143  0.6630533  0.7485722 -0.7485722  0.6630533 
    3   257     2  0.3795511 -0.5487116  0.6504880  0.7595166 -0.7595166  0.6504880 
    3   257     3  0.3862830 -0.5140817  0.6656688  0.7462473 -0.7462473  0.6656688 
    3   257     4  0.3542057 -0.5400029  0.6524766  0.7578089 -0.7578089  0.6524766 
    3   258     1  0.3958285 -0.4872374  0.6651904  0.7466738 -0.7466738  0.6651904 
    3   258     2  0.4160393 -0.5079252  0.6651159  0.7467402 -0.7467402  0.6651159 
    3   258     3  0.3614196 -0.5225401  0.6491832  0.7606321 -0.7606321  0.6491832 
    3   258     4  0.3815574 -0.5432446  0.6498011  0.7601043 -0.7601043  0.6498011 
    3   259     1  0.3885812 -0.4560487  0.6836200  0.7298382 -0.7298382  0.6836200 
    3   259     2  0.4246562 -0.4235732  0.6993060  0.7148224 -0.7148224  0.6993060 
    3   259     3  0.4095630 -0.4775344  0.6827772  0.7306267 -0.7306267  0.6827772 
    3   259     4  0.4458113 -0.4446656  0.6978696  0.7162248 -0.7162248  0.6978696 
    3   260     1  0.3495934 -0.5860865  0.6244976  0.7810267 -0.7810267  0.6244976 
    3   260     2  0.3255623 -0.5775119  0.6257604  0.7800154 -0.7800154  0.6257604 
    3   260     3  0.3770004 -0.5610638  0.6366282  0.7711709 -0.7711709  0.6366282 
    3   260     4  0.3525344 -0.5528825  0.6381260  0.7699319 -0.7699319  0.6381260 
    3   261     1  0.3381639 -0.5833336  0.6080716  0.7938822 -0.7938822  0.6080716 
    3   261     2  0.3126517 -0.6069409  0.5959121  0.8030497 -0.8030497  0.5959121 
    3   261     3  0.3137160 -0.5769363  0.6095759  0.7927277 -0.7927277  0.6095759 
    3   261     4  0.2877707 -0.6008450  0.5968264  0.8023704 -0.8023704  0.5968264 
    3   262     1  0.3183618 -0.5764108  0.5968762  0.8023333 -0.8023333  0.5968762 
    3   262     2  0.3383567 -0.5936758  0.5989074  0.8008183 -0.8008183  0.5989074 
    3   262     3  0.2900087 -0.6118739  0.5816762  0.8134204 -0.8134204  0.5816762 
    3   262     4  0.3098625 -0.6290975  0.5843019  0.8115363 -0.8115363  0.5843019 
    3   263     1  0.3306349 -0.5738467  0.6164324  0.7874078 -0.7874078  0.6164324 
    3   263     2  0.3595660 -0.5389805  0.6311144  0.7756898 -0.7756898  0.6311144 
    3   263     3  0.3495687 -0.5939862  0.6186065  0.7857010 -0.7857010  0.6186065 
    3   263     4  0.3784885 -0.5591916  0.6326390  0.7744468 -0.7744468  0.6326390 
    3   264     1  0.3131738 -0.5820330  0.6443410  0.7647383 -0.7647383  0.6443410 
    3   264     2  0.3395233 -0.5673149  0.6545012  0.7560610 -0.7560610  0.6545012 
    3   264     3  0.3425116 -0.5799481  0.6391236  0.7691041 -0.7691041  0.6391236 
    3   264     4  0.3685776 -0.5650630  0.6491408  0.7606682 -0.7606682  0.6491408 
    3   265     1  0.3253622 -0.5753362  0.6617275  0.7497445 -0.7497445  0.6617275 
    3   265     2  0.2923760 -0.5873574  0.6709759  0.7414792 -0.7414792  0.6709759 
    3   265     3  0.3509456 -0.5697823  0.6695070  0.7428058 -0.7428058  0.6695070 
    3   265     4  0.3179546 -0.5821220  0.6786961  0.7344192 -0.7344192  0.6786961 
    3   266     1  0.3158599 -0.5630485  0.6497029  0.7601882 -0.7601882  0.6497029 
    3   266     2  0.2921944 -0.5686107  0.6413873  0.7672173 -0.7672173  0.6413873 
    3   266     3  0.2839257 -0.5743776  0.6586694  0.7524325 -0.7524325  0.6586694 
    3   266     4  0.2599315 -0.5797530  0.6504472  0.7595515 -0.7595515  0.6504472 
    3   267     1  0.3027186 -0.5762943  0.6303345  0.7763236 -0.7763236  0.6303345 
    3   267     2  0.3312587 -0.5735276  0.6252206  0.7804481 -0.7804481  0.6252206 
    3   267     3  0.2785341 -0.5900993  0.6199484  0.7846426 -0.7846426  0.6199484 
    3   267     4  0.3072190 -0.5874761  0.6150336  0.7885009 -0.7885009  0.6150336 
    3   268     1  0.2696863 -0.6140620  0.5627207  0.8266471 -0.8266471  0.5627207 
    3   268     2  0.2450608 -0.6094179  0.5634779  0.8261311 -0.8261311  0.5634779 
    3   268     3  0.2926212 -0.5922141  0.5748990  0.8182244 -0.8182244  0.5748990 
    3   268     4  0.2676825 -0.5879132  0.5758800  0.8175342 -0.8175342  0.5758800 
    3   269     1  0.2427401 -0.5882826  0.5361058  0.8441508 -0.8441508  0.5361058 
    3   269     2  0.2222145 -0.6087018  0.5235508  0.8519945 -0.8519945  0.5235508 
    3   269     3  0.2186190 -0.5853149  0.5367527  0.8437396 -0.8437396  0.5367527 
    3   269     4  0.1977057 -0.6060731  0.5235543  0.8519923 -0.8519923  0.5235543 
    3   270     1  0.2194209 -0.6132018  0.5133755  0.8581641 -0.8581641  0.5133755 
    3   270     2  0.2411911 -0.6241875  0.5164645  0.8563086 -0.8563086  0.5164645 
    3   270     3  0.1958823 -0.6449579  0.4981497  0.8670911 -0.8670911  0.4981497 
    3   270     4  0.2174273 -0.6559440  0.5017525  0.8650112 -0.8650112  0.5017525 
    3   271     1  0.2460091 -0.6344238  0.5435193  0.8393967 -0.8393967  0.5435193 
    3   271     2  0.2708514 -0.6016629  0.5579712  0.8298603 -0.8298603  0.5579712 
    3   271     3  0.2663766 -0.6491088  0.5469151  0.8371881 -0.8371881  0.5469151 
    3   271     4  0.2912990 -0.6164995  0.5607843  0.8279619 -0.8279619  0.5607843 
    3   272     1  0.2382716 -0.5846630  0.5910019  0.8066701 -0.8066701  0.5910019 
    3   272     2  0.2601235 -0.5718646  0.6017752  0.7986655 -0.7986655  0.6017752 
    3   272     3  0.2662752 -0.5815615  0.5863387  0.8100660 -0.8100660  0.5863387 
    3   272     4  0.2879987 -0.5686214  0.5969068  0.8023106 -0.8023106  0.5969068 
    3   273     1  0.2536301 -0.5502092  0.6161748  0.7876094 -0.7876094  0.6161748 
    3   273     2  0.2235881 -0.5595038  0.6245215  0.7810076 -0.7810076  0.6245215 
    3   273     3  0.2748741 -0.5441695  0.6252154  0.7804523 -0.7804523  0.6252154 
    3   273     4  0.2449294 -0.5536945  0.6335796  0.7736775 -0.7736775  0.6335796 
    3   274     1  0.2296674 -0.5160770  0.5940302  0.8044427 -0.8044427  0.5940302 
    3   274     2  0.2107525 -0.5224297  0.5840219  0.8117379 -0.8117379  0.5840219 
    3   274     3  0.2015509 -0.5241658  0.6018681  0.7985955 -0.7985955  0.6018681 
    3   274     4  0.1823048 -0.5303887  0.5917869  0.8060944 -0.8060944  0.5917869 
    3   275     1  0.2133675 -0.5561845  0.5665090  0.8240556 -0.8240556  0.5665090 
    3   275     2  0.2394797 -0.5529824  0.5622213  0.8269869 -0.8269869  0.5622213 
    3   275     3  0.1944349 -0.5680523  0.5553247  0.8316336 -0.8316336  0.5553247 
    3   275     4  0.2205957 -0.5649775  0.5512747  0.8343238 -0.8343238  0.5512747 
    3   276     1  0.3328337 -0.6052641  0.5990232  0.8007316 -0.8007316  0.5990232 
    3   276     2  0.3015381 -0.6527155  0.5822361  0.8130198 -0.8130198  0.5822361 
    3   276     3  0.3182866 -0.5745591  0.5934677  0.8048578 -0.8048578  0.5934677 
    3   276     4  0.2883082 -0.6206824  0.5764426  0.8171377 -0.8171377  0.5764426 
    3   277     1  0.3108126 -0.5774706  0.5992111  0.8005911 -0.8005911  0.5992111 
    3   277     2  0.3220667 -0.6168145  0.6087314  0.7933763 -0.7933763  0.6087314 
    3   277     3  0.2790184 -0.6328508  0.5804771  0.8142766 -0.8142766  0.5804771 
    3   277     4  0.2898639 -0.6714749  0.5909686  0.8066946 -0.8066946  0.5909686 
    3   278     1  0.3206548 -0.5682334  0.6258961  0.7799064 -0.7799064  0.6258961 
    3   278     2  0.3566268 -0.5105376  0.6466521  0.7627851 -0.7627851  0.6466521 
    3   278     3  0.3305697 -0.6110604  0.6346719  0.7727817 -0.7727817  0.6346719 
    3   278     4  0.3667848 -0.5541253  0.6541091  0.7564002 -0.7564002  0.6541091 
    3   279     1  0.3429755 -0.6029565  0.6218935  0.7831018 -0.7831018  0.6218935 
    3   279     2  0.3301108 -0.5699066  0.6165759  0.7872955 -0.7872955  0.6165759 
    3   279     3  0.3748024 -0.5572952  0.6383343  0.7697593 -0.7697593  0.6383343 
    3   279     4  0.3624384 -0.5228020  0.6342911  0.7730943 -0.7730943  0.6342911 
    3   280     1  0.2308421 -0.6887269  0.5301850  0.8478820 -0.8478820  0.5301850 
    3   280     2  0.2626244 -0.6298565  0.5493609  0.8355852 -0.8355852  0.5493609 
    3   280     3  0.2431598 -0.7226089  0.5420114  0.8403711 -0.8403711  0.5420114 
    3   280     4  0.2755543 -0.6642188  0.5604260  0.8282045 -0.8282045  0.5604260 
    3   281     1  0.2578054 -0.6863316  0.5400845  0.8416108 -0.8416108  0.5400845 
    3   281     2  0.2419310 -0.6597663  0.5327834  0.8462517 -0.8462517  0.5327834 
    3   281     3  0.2866073 -0.6406202  0.5563524  0.8309465 -0.8309465  0.5563524 
    3   281     4  0.2714307 -0.6121719  0.5503833  0.8349121 -0.8349121  0.5503833 
    3   282     1  0.2356521 -0.6628590  0.5055352  0.8628060 -0.8628060  0.5055352 
    3   282     2  0.2079416 -0.7089581  0.4886657  0.8724711 -0.8724711  0.4886657 
    3   282     3  0.2172546 -0.6404547  0.4977523  0.8673192 -0.8673192  0.4977523 
    3   282     4  0.1905240 -0.6857260  0.4805957  0.8769423 -0.8769423  0.4805957 
    3   283     1  0.2103604 -0.6739330  0.4913927  0.8709381 -0.8709381  0.4913927 
    3   283     2  0.2242568 -0.7032464  0.5040121  0.8636966 -0.8636966  0.5040121 
    3   283     3  0.1830470 -0.7280959  0.4743546  0.8803338 -0.8803338  0.4743546 
    3   283     4  0.1961908 -0.7573033  0.4873846  0.8731874 -0.8731874  0.4873846 
    3   284     1  0.2193701 -0.7612439  0.5513940  0.8342450 -0.8342450  0.5513940 
    3   284     2  0.2099275 -0.7238822  0.5345399  0.8451432 -0.8451432  0.5345399 
    3   284     3  0.2529051 -0.6944460  0.5706692  0.8211800 -0.8211800  0.5706692 
    3   284     4  0.2419009 -0.6575878  0.5540431  0.8324880 -0.8324880  0.5540431 
    3   285     1  0.2034434 -0.7479945  0.5089687  0.8607850 -0.8607850  0.5089687 
    3   285     2  0.1740246 -0.8103081  0.4919622  0.8706166 -0.8706166  0.4919622 
    3   285     3  0.1915942 -0.7165901  0.4914339  0.8709148 -0.8709148  0.4914339 
    3   285     4  0.1625289 -0.7804993  0.4738306  0.8806160 -0.8806160  0.4738306 
    3   286     1  0.1649897 -0.7604964  0.5004144  0.8657860 -0.8657860  0.5004144 
    3   286     2  0.1688139 -0.8031971  0.5240844  0.8516663 -0.8516663  0.5240844 
    3   286     3  0.1337736 -0.8397811  0.4818844  0.8762348 -0.8762348  0.4818844 
    3   286     4  0.1366414 -0.8808097  0.5056463  0.8627409 -0.8627409  0.5056463 
    3   287     1  0.1790848 -0.7636582  0.5481342  0.8363904 -0.8363904  0.5481342 
    3   287     2  0.2132769 -0.6843677  0.5696075  0.8219168 -0.8219168  0.5696075 
    3   287     3  0.1817121 -0.8131287  0.5700423  0.8216154 -0.8216154  0.5700423 
    3   287     4  0.2171332 -0.7352363  0.5909000  0.8067448 -0.8067448  0.5909000 
    3   288     1  0.2632492 -0.6017614  0.6318250  0.7751111 -0.7751111  0.6318250 
    3   288     2  0.2688387 -0.6562853  0.6492313  0.7605911 -0.7605911  0.6492313 
    3   288     3  0.2261846 -0.6772727  0.6082301  0.7937608 -0.7937608  0.6082301 
    3   288     4  0.2304409 -0.7307072  0.6267703  0.7792041 -0.7792041  0.6267703 
    3   289     1  0.2750312 -0.5838543  0.6639835  0.7477473 -0.7477473  0.6639835 
    3   289     2  0.3151355 -0.5139663  0.6888225  0.7249301 -0.7249301  0.6888225 
    3   289     3  0.2820545 -0.6384238  0.6788438  0.7342827 -0.7342827  0.6788438 
    3   289     4  0.3242580 -0.5680283  0.7025446  0.7116397 -0.7116397  0.7025446 
    3   290     1  0.3122231 -0.6210396  0.6538287  0.7566426 -0.7566426  0.6538287 
    3   290     2  0.3018214 -0.5742179  0.6416657  0.7669845 -0.7669845  0.6416657 
    3   290     3  0.3525797 -0.5561858  0.6758033  0.7370820 -0.7370820  0.6758033 
    3   290     4  0.3415144 -0.5082598  0.6651843  0.7466792 -0.7466792  0.6651843 
    3   291     1  0.3015251 -0.6321496  0.6253396  0.7803527 -0.7803527  0.6253396 
    3   291     2  0.2669301 -0.6951795  0.6057623  0.7956457 -0.7956457  0.6057623 
    3   291     3  0.2915101 -0.5886792  0.6113797  0.7913374 -0.7913374  0.6113797 
    3   291     4  0.2570221 -0.6539766  0.5903840  0.8071225 -0.8071225  0.5903840 
    3   292     1  0.2225288 -0.6839159  0.6851539  0.7283984 -0.7283984  0.6851539 
    3   292     2  0.1828417 -0.7657713  0.6605251  0.7508039 -0.7508039  0.6605251 
    3   292     3  0.2243217 -0.6145394  0.6649166  0.7469176 -0.7469176  0.6649166 
    3   292     4  0.1863708 -0.6980069  0.6388495  0.7693317 -0.7693317  0.6388495 
    3   293     1  0.1730426 -0.6257402  0.7142615  0.6998789 -0.6998789  0.7142615 
    3   293     2  0.1645539 -0.7105952  0.7343144  0.6788095 -0.6788095  0.7343144 
    3   293     3  0.1343751 -0.7121925  0.6854639  0.7281066 -0.7281066  0.6854639 
    3   293     4  0.1238275 -0.7952532  0.7076960  0.7065171 -0.7065171  0.7076960 
    3   294     1  0.1938430 -0.5941812  0.7435519  0.6686782 -0.6686782  0.7435519 
    3   294     2  0.2370353 -0.5210485  0.7722292  0.6353441 -0.6353441  0.7722292 
    3   294     3  0.1907201 -0.6720063  0.7580093  0.6522437 -0.6522437  0.7580093 
    3   294     4  0.2350686 -0.6008452  0.7838276  0.6209785 -0.6209785  0.7838276 
    3   295     1  0.2407446 -0.6576579  0.7129520  0.7012128 -0.7012128  0.7129520 
    3   295     2  0.2385758 -0.5914521  0.6972208  0.7168564 -0.7168564  0.6972208 
    3   295     3  0.2838551 -0.5854822  0.7377572  0.6750662 -0.6750662  0.7377572 
    3   295     4  0.2801826 -0.5182379  0.7240769  0.6897192 -0.6897192  0.7240769 
    3   296     1  0.0830294 -0.8373237  0.6222581  0.7828122 -0.7828122  0.6222581 
    3   296     2  0.1178901 -0.7356998  0.6491892  0.7606269 -0.7606269  0.6491892 
    3   296     3  0.0628992 -0.9252871  0.6525253  0.7577669 -0.7577669  0.6525253 
    3   296     4  0.1001818 -0.8266098  0.6786294  0.7344808 -0.7344808  0.6786294 
    3   297     1  0.1302367 -0.8705515  0.6025456  0.7980844 -0.7980844  0.6025456 
    3   297     2  0.1378026 -0.8039637  0.5758012  0.8175897 -0.8175897  0.5758012 
    3   297     3  0.1676441 -0.7800044  0.6258652  0.7799312 -0.7799312  0.6258652 
    3   297     4  0.1733395 -0.7116318  0.5996774  0.8002418 -0.8002418  0.5996774 
    3   298     1  0.1202559 -0.8681973  0.5561859  0.8310579 -0.8310579  0.5561859 
    3   298     2  0.0833012 -0.9667316  0.5346296  0.8450865 -0.8450865  0.5346296 
    3   298     3  0.1265505 -0.8060519  0.5255410  0.8507683 -0.8507683  0.5255410 
    3   298     4  0.0912309 -0.9068467  0.5041402  0.8636218 -0.8636218  0.5041402 
    3   299     1  0.0748971 -0.8484481  0.5738266  0.8189768 -0.8189768  0.5738266 
    3   299     2  0.0497607 -0.9427467  0.6123921  0.7905542 -0.7905542  0.6123921 
    3   299     3  0.0393189 -0.9704040  0.5495541  0.8354581 -0.8354581  0.5495541 
    3   299     4  0.0110587 -1.0627507  0.5872703  0.8093909 -0.8093909  0.5872703 
    3   300     1  0.4159547 -0.4939435  0.6766704  0.7362861 -0.7362861  0.6766704 
    3   300     2  0.3793041 -0.5381031  0.6590254  0.7521207 -0.7521207  0.6590254 
    3   300     3  0.4016342 -0.4603175  0.6751626  0.7376689 -0.7376689  0.6751626 
    3   300     4  0.3653688 -0.5036764  0.6567087  0.7541443 -0.7541443  0.6567087 
    3   301     1  0.3997402 -0.4339776  0.6941566  0.7198240 -0.7198240  0.6941566 
    3   301     2  0.4109227 -0.4809712  0.6997345  0.7144030 -0.7144030  0.6997345 
    3   301     3  0.3611767 -0.4882303  0.6725996  0.7400066 -0.7400066  0.6725996 
    3   301     4  0.3716377 -0.5369769  0.6794938  0.7336812 -0.7336812  0.6794938 
    3   302     1  0.3978846 -0.4022292  0.7234935  0.6903312 -0.6903312  0.7234935 
    3   302     2  0.4489468 -0.3526578  0.7471545  0.6646504 -0.6646504  0.7471545 
    3   302     3  0.4147475 -0.4479973  0.7237009  0.6901138 -0.6901138  0.7237009 
    3   302     4  0.4596659 -0.4000087  0.7436839  0.6685314 -0.6685314  0.7436839 
    3   303     1  0.4127579 -0.4574315  0.6963916  0.7176620 -0.7176620  0.6963916 
    3   303     2  0.3973233 -0.4274724  0.6969677  0.7171025 -0.7171025  0.6969677 
    3   303     3  0.4509244 -0.4216470  0.7128412  0.7013254 -0.7013254  0.7128412 
    3   303     4  0.4358536 -0.3903122  0.7146461  0.6994862 -0.6994862  0.7146461 
    3   304     1  0.6626437  0.0070443  0.9993882  0.0349737 -0.0349737  0.9993882 
    3   304     2  0.6842418  0.0342261  0.9910236  0.1336869 -0.1336869  0.9910236 
    3   304     3  0.4992993 -0.0457024  0.9999909  0.0042559 -0.0042559  0.9999909 
    3   304     4  0.5148437 -0.0174961  0.9929707  0.1183607 -0.1183607  0.9929707 
    3   305     1  0.7761564 -0.0530001  0.9971520 -0.0754175  0.0754175  0.9971520 
    3   305     2  1.0005773  0.0229507  0.9992077 -0.0398003  0.0398003  0.9992077 
    3   305     3  0.7825727 -0.0132149  0.9997992  0.0200400 -0.0200400  0.9997992 
    3   305     4  1.0123103  0.0598195  0.9989377  0.0460806 -0.0460806  0.9989377 
    3   306     1  0.7410934 -0.0329125  0.9990407  0.0437906 -0.0437906  0.9990407 
    3   306     2  0.7173946 -0.0855151  0.9949345 -0.1005257  0.1005257  0.9949345 
    3   306     3  1.0551155  0.0624482  0.9982083  0.0598351 -0.0598351  0.9982083 
    3   306     4  1.0371895  0.0198225  0.9984299 -0.0560152  0.0560152  0.9984299 
    3   307     1  0.6156699 -0.0070138  0.9768188  0.2140680 -0.2140680  0.9768188 
    3   307     2  0.3919850 -0.0772077  0.9684451  0.2492269 -0.2492269  0.9684451 
    3   307     3  0.5684279 -0.0173785  0.9972300  0.0743792 -0.0743792  0.9972300 
    3   307     4  0.3567166 -0.0797234  0.9963876  0.0849221 -0.0849221  0.9963876 
    3   308     1  0.0261292 -0.1247080  0.6478663  0.7617541 -0.7617541  0.6478663 
    3   308     2  0.0201582 -0.1340560  0.6775298  0.7354953 -0.7354953  0.6775298 
    3   308     3  0.0252758 -0.1328408  0.6397138  0.7686132 -0.7686132  0.6397138 
    3   308     4  0.0190648 -0.1434622  0.6664534  0.7455466 -0.7455466  0.6664534 
    3   309     1  0.0042458 -0.0976119  0.5225727  0.8525948 -0.8525948  0.5225727 
    3   309     2  0.0113331 -0.0771766  0.5562867  0.8309905 -0.8309905  0.5562867 
    3   309     3  0.0062339 -0.1056972  0.6022632  0.7982976 -0.7982976  0.6022632 
    3   309     4  0.0156459 -0.0847265  0.6515514  0.7586045 -0.7586045  0.6515514 
    3   310     1  0.0013005 -0.1383494  0.4841245  0.8749991 -0.8749991  0.4841245 
    3   310     2  0.0019986 -0.1333784  0.3317932  0.9433522 -0.9433522  0.3317932 
    3   310     3  0.0212223 -0.0816912  0.5610366  0.8277910 -0.8277910  0.5610366 
    3   310     4  0.0144877 -0.0894102  0.3638405  0.9314613 -0.9314613  0.3638405 
    3   311     1  0.0319871 -0.1859001  0.5888019  0.8082773 -0.8082773  0.5888019 
    3   311     2  0.0320596 -0.1996597  0.5844682  0.8114166 -0.8114166  0.5844682 
    3   311     3  0.0421582 -0.1758388  0.5619589  0.8271651 -0.8271651  0.5619589 
    3   311     4  0.0422873 -0.1877291  0.5594959  0.8288331 -0.8288331  0.5594959 
    3   312     1  0.0060330 -0.0410335  0.4603126  0.8877569 -0.8877569  0.4603126 
    3   312     2  0.0121588 -0.0477431  0.6213741  0.7835140 -0.7835140  0.6213741 
    3   312     3 -0.0010417 -0.0632843  0.4240313  0.9056475 -0.9056475  0.4240313 
    3   312     4  0.0038064 -0.0652787  0.5521721  0.8337302 -0.8337302  0.5521721 
    3   313     1 -0.0146382 -0.0261864  0.0409327 -0.9991619  0.9991619  0.0409327 
    3   313     2  0.0007753 -0.0100903  0.7855752  0.6187662 -0.6187662  0.7855752 
    3   313     3  0.0007673 -0.0259974  0.5414411  0.8407387 -0.8407387  0.5414411 
    3   313     4  0.0124080 -0.0153901  0.7123346  0.7018400 -0.7018400  0.7123346 
    3   314     1  0.0087545 -0.0376877  0.4285329  0.9035262 -0.9035262  0.4285329 
    3   314     2 -0.0013469 -0.0686473  0.5039280  0.8637457 -0.8637457  0.5039280 
    3   314     3  0.0148317 -0.0621686  0.1797311  0.9837158 -0.9837158  0.1797311 
    3   314     4  0.0013921 -0.0769703  0.3311404  0.9435815 -0.9435815  0.3311404 
    3   315     1 -1.7516597 -5.4495798  0.9810666  0.1936706 -0.1936706  0.9810666 
    3   315     2 -1.7402217 -5.9605187  0.9840510  0.1778865 -0.1778865  0.9840510 
    3   315     3 -1.0595927 -5.5329441  0.9674300  0.2531388 -0.2531388  0.9674300 
    3   315     4 -1.2126600 -5.9561458  0.9743606  0.2249922 -0.2249922  0.9743606 
    3   316     1 -1.6926726 -4.7163595  0.9767807  0.2142418 -0.2142418  0.9767807 
    3   316     2 -1.3772598 -4.1911362  0.9435545  0.3312172 -0.3312172  0.9435545 
    3   316     3 -1.3100393 -3.2376706  0.9976575  0.0684067 -0.0684067  0.9976575 
    3   316     4 -1.2197062 -3.2677451  0.9595572  0.2815137 -0.2815137  0.9595572 
    3   317     1 -1.6199465 -5.2511342  0.9133829  0.4071016 -0.4071016  0.9133829 
    3   317     2 -1.7724158 -6.9569061  0.8243902  0.5660219 -0.5660219  0.8243902 
    3   317     3 -1.0858845 -4.0803575  0.8303880  0.5571856 -0.5571856  0.8303880 
    3   317     4 -1.0006753 -5.5632997  0.7506708  0.6606764 -0.6606764  0.7506708 
    3   318     1  0.4577537 -0.2911698  0.9907696  0.1355568 -0.1355568  0.9907696 
    3   318     2  0.3960474 -0.3439470  0.9832292  0.1823739 -0.1823739  0.9832292 
    3   318     3  0.4667739 -0.2066353  0.9931940  0.1164720 -0.1164720  0.9931940 
    3   318     4  0.4040900 -0.2744343  0.9854217  0.1701298 -0.1701298  0.9854217 
    3   319     1  0.4535747 -0.2567458  0.9997037  0.0243421 -0.0243421  0.9997037 
    3   319     2  0.4488082 -0.2843886  0.9981698  0.0604728 -0.0604728  0.9981698 
    3   319     3  0.3894783 -0.2802518  0.9990954  0.0425250 -0.0425250  0.9990954 
    3   319     4  0.3832526 -0.3068633  0.9970190  0.0771559 -0.0771559  0.9970190 
    3   320     1  0.5058021 -0.2273418  0.9995052  0.0314540 -0.0314540  0.9995052 
    3   320     2  0.5702266 -0.2037547  0.9998871  0.0150293 -0.0150293  0.9998871 
    3   320     3  0.5032776 -0.2466913  0.9983851  0.0568076 -0.0568076  0.9983851 
    3   320     4  0.5657027 -0.2258344  0.9990567  0.0434245 -0.0434245  0.9990567 
    3   321     1  0.5171433 -0.2722619  0.9922865  0.1239658 -0.1239658  0.9922865 
    3   321     2  0.5231561 -0.2192625  0.9937945  0.1112320 -0.1112320  0.9937945 
    3   321     3  0.5684303 -0.2362052  0.9958395  0.0911250 -0.0911250  0.9958395 
    3   321     4  0.5811983 -0.1748775  0.9974373  0.0715458 -0.0715458  0.9974373 
    3   322     1  0.5081261 -0.2019697  0.9810382  0.1938143 -0.1938143  0.9810382 
    3   322     2  0.4819888 -0.2661830  0.9870613  0.1603434 -0.1603434  0.9870613 
    3   322     3  0.4848301 -0.2953278  0.9788927  0.2043748 -0.2043748  0.9788927 
    3   322     4  0.4714321 -0.3172375  0.9838956  0.1787441 -0.1787441  0.9838956 
    3   323     1  0.5282398 -0.2243907  0.9890052  0.1478805 -0.1478805  0.9890052 
    3   323     2  0.5804559 -0.1938105  0.9928175  0.1196387 -0.1196387  0.9928175 
    3   323     3  0.5348786 -0.2598883  0.9874120  0.1581694 -0.1581694  0.9874120 
    3   323     4  0.5767626 -0.2297906  0.9909255  0.1344122 -0.1344122  0.9909255 
    3   324     1  0.5265315 -0.2462305  0.9792133  0.2028334 -0.2028334  0.9792133 
    3   324     2  0.5379255 -0.2231876  0.9839602  0.1783880 -0.1783880  0.9839602 
    3   324     3  0.5787637 -0.2250511  0.9822911  0.1873611 -0.1873611  0.9822911 
    3   324     4  0.5791490 -0.2089088  0.9856263  0.1689404 -0.1689404  0.9856263 
    3   325     1  1.1421954 -0.0283988  0.9980567  0.0623129 -0.0623129  0.9980567 
    3   325     2  1.1070773 -0.0062841  0.9994188  0.0340905 -0.0340905  0.9994188 
    3   325     3  1.2498095  0.0157552  0.9991636  0.0408925 -0.0408925  0.9991636 
    3   325     4  1.1867865  0.0244216  0.9998138  0.0192975 -0.0192975  0.9998138 
    3   326     1  1.1012757  0.0003519  0.9949033  0.1008334 -0.1008334  0.9949033 
    3   326     2  1.0081061 -0.0352755  0.9929182  0.1188002 -0.1188002  0.9929182 
    3   326     3  1.0754741  0.0230916  0.9977731  0.0666997 -0.0666997  0.9977731 
    3   326     4  0.9931396 -0.0079176  0.9965692  0.0827634 -0.0827634  0.9965692 
    3   327     1  1.0903845  0.0111997  0.9968714  0.0790410 -0.0790410  0.9968714 
    3   327     2  1.1244184 -0.0035617  0.9938184  0.1110182 -0.1110182  0.9938184 
    3   327     3  1.0257208 -0.0110958  0.9960814  0.0884410 -0.0884410  0.9960814 
    3   327     4  1.0473703 -0.0295924  0.9926252  0.1212235 -0.1212235  0.9926252 
    3   328     1  1.1094917 -0.0136691  0.9984206  0.0561802 -0.0561802  0.9984206 
    3   328     2  1.1711166  0.0076489  0.9988846  0.0472177 -0.0472177  0.9988846 
    3   328     3  1.1430878 -0.0181838  0.9966285  0.0820459 -0.0820459  0.9966285 
    3   328     4  1.2171334  0.0059483  0.9972063  0.0746966 -0.0746966  0.9972063 
    3   329     1  1.2898383  0.0013466  0.9999174  0.0128492 -0.0128492  0.9999174 
    3   329     2  1.2754091 -0.0187523  0.9998053  0.0197302 -0.0197302  0.9998053 
    3   329     3  1.2774088  0.0209626  0.9998663  0.0163535 -0.0163535  0.9998663 
    3   329     4  1.2692405 -0.0022004  0.9997773  0.0211052 -0.0211052  0.9997773 
    3   330     1  1.2585528  0.0080058  0.9998262  0.0186422 -0.0186422  0.9998262 
    3   330     2  1.2934849  0.0102969  0.9989341  0.0461591 -0.0461591  0.9989341 
    3   330     3  1.1926777 -0.0138144  0.9995988  0.0283238 -0.0283238  0.9995988 
    3   330     4  1.2294166 -0.0097344  0.9987302  0.0503786 -0.0503786  0.9987302 
    3   331     1  1.2892147 -0.0298369  0.9999972 -0.0023813  0.0023813  0.9999972 
    3   331     2  1.3449439 -0.0080793  0.9999696  0.0078007 -0.0078007  0.9999696 
    3   331     3  1.3101681 -0.0097973  0.9998085  0.0195698 -0.0195698  0.9998085 
    3   331     4  1.3511966  0.0031439  0.9997469  0.0224955 -0.0224955  0.9997469 
    4     1     1  1.7539250 -0.0003827  1.0000000 -0.0002502  0.0002502  1.0000000 
    4     1     2  1.7562780  0.0003302  1.0000000 -0.0001960  0.0001960  1.0000000 
    4     1     3  1.7535254 -0.0003923  1.0000000  0.0002053 -0.0002053  1.0000000 
    4     1     4  1.7562069  0.0004145  1.0000000  0.0002433 -0.0002433  1.0000000 
    4     2     1  1.7528237 -0.0004933  1.0000000  0.0001995 -0.0001995  1.0000000 
    4     2     2  1.7531468 -0.0004633  1.0000000 -0.0002813  0.0002813  1.0000000 
    4     2     3  1.7560349  0.0004764  1.0000000  0.0002656 -0.0002656  1.0000000 
    4     2     4  1.7561066  0.0004301  1.0000000 -0.0002238  0.0002238  1.0000000 
    4     3     1  1.7508272  0.0004010  1.0000000  0.0002881 -0.0002881  1.0000000 
    4     3     2  1.7478705 -0.0005463  1.0000000  0.0001088 -0.0001088  1.0000000 
    4     3     3  1.7513607  0.0003316  1.0000000 -0.0000978  0.0000978  1.0000000 
    4     3     4  1.7490175 -0.0004147  1.0000000 -0.0002323  0.0002323  1.0000000 
    4     4     1  1.7524940  0.0003711  1.0000000 -0.0001127  0.0001127  1.0000000 
    4     4     2  1.7520830  0.0003348  1.0000000  0.0001967 -0.0001967  1.0000000 
    4     4     3  1.7505508 -0.0002282  1.0000000 -0.0001951  0.0001951  1.0000000 
    4     4     4  1.7498861 -0.0003295  1.0000000  0.0001513 -0.0001513  1.0000000 
    4     5     1  1.7527923 -0.0004711  1.0000000 -0.0002835  0.0002835  1.0000000 
    4     5     2  1.7559524  0.0004794  1.0000000 -0.0002445  0.0002445  1.0000000 
    4     5     3  1.7526032 -0.0004418  1.0000000  0.0001856 -0.0001856  1.0000000 
    4     5     4  1.7559188  0.0005591  1.0000000  0.0002463 -0.0002463  1.0000000 
    4     6     1  1.7522890 -0.0005906  1.0000000  0.0002789 -0.0002789  1.0000000 
    4     6     2  1.7523484 -0.0005318  1.0000000 -0.0002632  0.0002632  1.0000000 
    4     6     3  1.7558946  0.0004906  1.0000000  0.0002724 -0.0002724  1.0000000 
    4     6     4  1.7559208  0.0005398  1.0000000 -0.0002739  0.0002739  1.0000000 
    4     7     1  1.7502203  0.0005409  1.0000000  0.0002963 -0.0002963  1.0000000 
    4     7     2  1.7465965 -0.0005462  1.0000000  0.0002945 -0.0002945  1.0000000 
    4     7     3  1.7502747  0.0005570  1.0000000 -0.0002567  0.0002567  1.0000000 
    4     7     4  1.7466383 -0.0005338  1.0000000 -0.0002550  0.0002550  1.0000000 
    4     8     1  1.7505433  0.0006190  1.0000000 -0.0002400  0.0002400  1.0000000 
    4     8     2  1.7502554  0.0005436  0.9999999  0.0003811 -0.0003811  0.9999999 
    4     8     3  1.7466629 -0.0005457  1.0000000 -0.0002737  0.0002737  1.0000000 
    4     8     4  1.7465421 -0.0005719  1.0000000  0.0002841 -0.0002841  1.0000000 
    4     9     1  1.7522686 -0.0005320  1.0000000 -0.0002628  0.0002628  1.0000000 
    4     9     2  1.7558800  0.0005515  1.0000000 -0.0002688  0.0002688  1.0000000 
    4     9     3  1.7522521 -0.0005483  1.0000000  0.0002834 -0.0002834  1.0000000 
    4     9     4  1.7558729  0.0005380  1.0000000  0.0002781 -0.0002781  1.0000000 
    4    10     1  1.7522199 -0.0005571  1.0000000  0.0002866 -0.0002866  1.0000000 
    4    10     2  1.7522307 -0.0005351  1.0000000 -0.0002586  0.0002586  1.0000000 
    4    10     3  1.7558482  0.0005315  1.0000000  0.0002770 -0.0002770  1.0000000 
    4    10     4  1.7558556  0.0005525  1.0000000 -0.0002675  0.0002675  1.0000000 
    4    11     1  1.7501254  0.0005180  1.0000000  0.0002914 -0.0002914  1.0000000 
    4    11     2  1.7465070 -0.0005680  1.0000000  0.0003079 -0.0003079  1.0000000 
    4    11     3  1.7501421  0.0005541  1.0000000 -0.0002547  0.0002547  1.0000000 
    4    11     4  1.7465247 -0.0005315  1.0000000 -0.0002377  0.0002377  1.0000000 
    4    12     1  1.7501854  0.0005520  1.0000000 -0.0002599  0.0002599  1.0000000 
    4    12     2  1.7501578  0.0005112  1.0000000  0.0002899 -0.0002899  1.0000000 
    4    12     3  1.7465675 -0.0005337  1.0000000 -0.0002448  0.0002448  1.0000000 
    4    12     4  1.7465384 -0.0005749  1.0000000  0.0003041 -0.0003041  1.0000000 
    4    13     1  1.7408252 -0.0006086  1.0000000 -0.0002312  0.0002312  1.0000000 
    4    13     2  1.7447551  0.0005731  1.0000000 -0.0002800  0.0002800  1.0000000 
    4    13     3  1.7409656 -0.0006176  0.9999999  0.0003876 -0.0003876  0.9999999 
    4    13     4  1.7447123  0.0005141  1.0000000  0.0002808 -0.0002808  1.0000000 
    4    14     1  1.7408565 -0.0006162  0.9999999  0.0003237 -0.0003237  0.9999999 
    4    14     2  1.7408875 -0.0005421  1.0000000 -0.0002330  0.0002330  1.0000000 
    4    14     3  1.7444948  0.0004765  1.0000000  0.0002944 -0.0002944  1.0000000 
    4    14     4  1.7445465  0.0005569  1.0000000 -0.0002627  0.0002627  1.0000000 
    4    15     1  1.7388000  0.0005052  1.0000000  0.0002954 -0.0002954  1.0000000 
    4    15     2  1.7351989 -0.0005760  0.9999999  0.0003228 -0.0003228  0.9999999 
    4    15     3  1.7388131  0.0005307  1.0000000 -0.0002519  0.0002519  1.0000000 
    4    15     4  1.7352226 -0.0005470  1.0000000 -0.0002305  0.0002305  1.0000000 
    4    16     1  1.7385061  0.0005021  1.0000000 -0.0002853  0.0002853  1.0000000 
    4    16     2  1.7386151  0.0004154  1.0000000  0.0002222 -0.0002222  1.0000000 
    4    16     3  1.7351870 -0.0004987  1.0000000 -0.0002287  0.0002287  1.0000000 
    4    16     4  1.7351700 -0.0006246  1.0000000  0.0002860 -0.0002860  1.0000000 
    4    17     1  1.7408689 -0.0005329  1.0000000 -0.0002277  0.0002277  1.0000000 
    4    17     2  1.7444852  0.0005530  1.0000000 -0.0002535  0.0002535  1.0000000 
    4    17     3  1.7408399 -0.0005853  0.9999999  0.0003232 -0.0003232  0.9999999 
    4    17     4  1.7444529  0.0004995  1.0000000  0.0002981 -0.0002981  1.0000000 
    4    18     1  1.7408012 -0.0005993  0.9999999  0.0003344 -0.0003344  0.9999999 
    4    18     2  1.7408277 -0.0005315  1.0000000 -0.0002135  0.0002135  1.0000000 
    4    18     3  1.7444138  0.0004860  1.0000000  0.0003019 -0.0003019  1.0000000 
    4    18     4  1.7444413  0.0005543  1.0000000 -0.0002470  0.0002470  1.0000000 
    4    19     1  1.7387112  0.0004593  0.9999999  0.0003185 -0.0003185  0.9999999 
    4    19     2  1.7351005 -0.0006264  0.9999999  0.0003585 -0.0003585  0.9999999 
    4    19     3  1.7387406  0.0005405  1.0000000 -0.0002349  0.0002349  1.0000000 
    4    19     4  1.7351271 -0.0005462  1.0000000 -0.0001931  0.0001931  1.0000000 
    4    20     1  1.7387790  0.0005351  1.0000000 -0.0002453  0.0002453  1.0000000 
    4    20     2  1.7387443  0.0004595  1.0000000  0.0003107 -0.0003107  1.0000000 
    4    20     3  1.7351622 -0.0005519  1.0000000 -0.0002100  0.0002100  1.0000000 
    4    20     4  1.7351288 -0.0006269  0.9999999  0.0003446 -0.0003446  0.9999999 
    4    21     1  1.7407956 -0.0005265  1.0000000 -0.0002027  0.0002027  1.0000000 
    4    21     2  1.7444070  0.0005593  1.0000000 -0.0002425  0.0002425  1.0000000 
    4    21     3  1.7407776 -0.0006010  0.9999999  0.0003473 -0.0003473  0.9999999 
    4    21     4  1.7443860  0.0004837  1.0000000  0.0003091 -0.0003091  1.0000000 
    4    22     1  1.7407644 -0.0006074  0.9999999  0.0003577 -0.0003577  0.9999999 
    4    22     2  1.7407792 -0.0005243  1.0000000 -0.0001899  0.0001899  1.0000000 
    4    22     3  1.7443685  0.0004769  1.0000000  0.0003130 -0.0003130  1.0000000 
    4    22     4  1.7443861  0.0005609  1.0000000 -0.0002351  0.0002351  1.0000000 
    4    23     1  1.7386785  0.0004470  0.9999999  0.0003341 -0.0003341  0.9999999 
    4    23     2  1.7350815 -0.0006366  0.9999999  0.0003884 -0.0003884  0.9999999 
    4    23     3  1.7386961  0.0005480  1.0000000 -0.0002177  0.0002177  1.0000000 
    4    23     4  1.7350942 -0.0005374  1.0000000 -0.0001618  0.0001618  1.0000000 
    4    24     1  1.7387128  0.0005426  1.0000000 -0.0002278  0.0002278  1.0000000 
    4    24     2  1.7386917  0.0004514  0.9999999  0.0003275 -0.0003275  0.9999999 
    4    24     3  1.7351040 -0.0005437  1.0000000 -0.0001791  0.0001791  1.0000000 
    4    24     4  1.7350856 -0.0006339  0.9999999  0.0003751 -0.0003751  0.9999999 
    4    25     1  1.7500723  0.0005136  1.0000000  0.0002988 -0.0002988  1.0000000 
    4    25     2  1.7464580 -0.0005715  0.9999999  0.0003211 -0.0003211  0.9999999 
    4    25     3  1.7500819  0.0005573  1.0000000 -0.0002469  0.0002469  1.0000000 
    4    25     4  1.7464650 -0.0005285  1.0000000 -0.0002240  0.0002240  1.0000000 
    4    26     1  1.7501119  0.0005534  1.0000000 -0.0002520  0.0002520  1.0000000 
    4    26     2  1.7501003  0.0005138  1.0000000  0.0002963 -0.0002963  1.0000000 
    4    26     3  1.7464931 -0.0005328  1.0000000 -0.0002327  0.0002327  1.0000000 
    4    26     4  1.7464819 -0.0005723  1.0000000  0.0003160 -0.0003160  1.0000000 
    4    27     1  1.7521986 -0.0005350  1.0000000 -0.0002582  0.0002582  1.0000000 
    4    27     2  1.7558243  0.0005528  1.0000000 -0.0002677  0.0002677  1.0000000 
    4    27     3  1.7521924 -0.0005561  1.0000000  0.0002897 -0.0002897  1.0000000 
    4    27     4  1.7558180  0.0005317  1.0000000  0.0002797 -0.0002797  1.0000000 
    4    28     1  1.7521652 -0.0005559  1.0000000  0.0002904 -0.0002904  1.0000000 
    4    28     2  1.7521702 -0.0005318  1.0000000 -0.0002535  0.0002535  1.0000000 
    4    28     3  1.7557912  0.0005320  1.0000000  0.0002787 -0.0002787  1.0000000 
    4    28     4  1.7557980  0.0005567  1.0000000 -0.0002651  0.0002651  1.0000000 
    4    29     1  1.7521404 -0.0005282  1.0000000 -0.0002528  0.0002528  1.0000000 
    4    29     2  1.7557603  0.0005581  1.0000000 -0.0002675  0.0002675  1.0000000 
    4    29     3  1.7521380 -0.0005568  1.0000000  0.0002959 -0.0002959  1.0000000 
    4    29     4  1.7557529  0.0005280  1.0000000  0.0002815 -0.0002815  1.0000000 
    4    30     1  1.7521132 -0.0005596  1.0000000  0.0002971 -0.0002971  1.0000000 
    4    30     2  1.7521152 -0.0005285  1.0000000 -0.0002490  0.0002490  1.0000000 
    4    30     3  1.7557193  0.0005227  1.0000000  0.0002806 -0.0002806  1.0000000 
    4    30     4  1.7557272  0.0005554  1.0000000 -0.0002645  0.0002645  1.0000000 
    4    31     1  1.7500316  0.0005058  1.0000000  0.0003061 -0.0003061  1.0000000 
    4    31     2  1.7464377 -0.0005736  0.9999999  0.0003342 -0.0003342  0.9999999 
    4    31     3  1.7500354  0.0005569  1.0000000 -0.0002399  0.0002399  1.0000000 
    4    31     4  1.7464343 -0.0005246  1.0000000 -0.0002117  0.0002117  1.0000000 
    4    32     1  1.7500582  0.0005569  1.0000000 -0.0002460  0.0002460  1.0000000 
    4    32     2  1.7500535  0.0005095  1.0000000  0.0003045 -0.0003045  1.0000000 
    4    32     3  1.7464464 -0.0005276  1.0000000 -0.0002203  0.0002203  1.0000000 
    4    32     4  1.7464467 -0.0005735  0.9999999  0.0003303 -0.0003303  0.9999999 
    4    33     1  1.7407687 -0.0005207  1.0000000 -0.0001815  0.0001815  1.0000000 
    4    33     2  1.7443681  0.0005630  1.0000000 -0.0002314  0.0002314  1.0000000 
    4    33     3  1.7407675 -0.0006070  0.9999999  0.0003704 -0.0003704  0.9999999 
    4    33     4  1.7443596  0.0004743  0.9999999  0.0003215 -0.0003215  0.9999999 
    4    34     1  1.7407793 -0.0006089  0.9999999  0.0003789 -0.0003789  0.9999999 
    4    34     2  1.7407778 -0.0005153  1.0000000 -0.0001684  0.0001684  1.0000000 
    4    34     3  1.7443583  0.0004694  0.9999999  0.0003248 -0.0003248  0.9999999 
    4    34     4  1.7443641  0.0005653  1.0000000 -0.0002232  0.0002232  1.0000000 
    4    35     1  1.7387065  0.0004385  0.9999999  0.0003510 -0.0003510  0.9999999 
    4    35     2  1.7351378 -0.0006390  0.9999999  0.0004172 -0.0004172  0.9999999 
    4    35     3  1.7387052  0.0005526  1.0000000 -0.0002004  0.0002004  1.0000000 
    4    35     4  1.7351265 -0.0005282  1.0000000 -0.0001323  0.0001323  1.0000000 
    4    36     1  1.7386915  0.0005477  1.0000000 -0.0002109  0.0002109  1.0000000 
    4    36     2  1.7386890  0.0004423  0.9999999  0.0003446 -0.0003446  0.9999999 
    4    36     3  1.7350994 -0.0005357  1.0000000 -0.0001497  0.0001497  1.0000000 
    4    36     4  1.7351028 -0.0006392  0.9999999  0.0004049 -0.0004049  0.9999999 
    4    37     1  1.7407949 -0.0005102  1.0000000 -0.0001613  0.0001613  1.0000000 
    4    37     2  1.7443642  0.0005661  1.0000000 -0.0002205  0.0002205  1.0000000 
    4    37     3  1.7408174 -0.0006044  0.9999999  0.0003914 -0.0003914  0.9999999 
    4    37     4  1.7443723  0.0004673  0.9999999  0.0003334 -0.0003334  0.9999999 
    4    38     1  1.7408653 -0.0006047  0.9999999  0.0003984 -0.0003984  0.9999999 
    4    38     2  1.7408407 -0.0005055  1.0000000 -0.0001502  0.0001502  1.0000000 
    4    38     3  1.7443966  0.0004608  0.9999999  0.0003364 -0.0003364  0.9999999 
    4    38     4  1.7443858  0.0005641  1.0000000 -0.0002120  0.0002120  1.0000000 
    4    39     1  1.7388178  0.0004319  0.9999999  0.0003678 -0.0003678  0.9999999 
    4    39     2  1.7353064 -0.0006307  0.9999999  0.0004436 -0.0004436  0.9999999 
    4    39     3  1.7387885  0.0005524  1.0000000 -0.0001820  0.0001820  1.0000000 
    4    39     4  1.7352577 -0.0005163  1.0000000 -0.0001046  0.0001046  1.0000000 
    4    40     1  1.7387326  0.0005490  1.0000000 -0.0001937  0.0001937  1.0000000 
    4    40     2  1.7387583  0.0004351  0.9999999  0.0003619 -0.0003619  0.9999999 
    4    40     3  1.7351746 -0.0005266  1.0000000 -0.0001216  0.0001216  1.0000000 
    4    40     4  1.7352126 -0.0006366  0.9999999  0.0004332 -0.0004332  0.9999999 
    4    41     1  1.7500079  0.0005034  1.0000000  0.0003147 -0.0003147  1.0000000 
    4    41     2  1.7464506 -0.0005652  0.9999999  0.0003447 -0.0003447  0.9999999 
    4    41     3  1.7500019  0.0005552  1.0000000 -0.0002336  0.0002336  1.0000000 
    4    41     4  1.7464319 -0.0005172  1.0000000 -0.0002033  0.0002033  1.0000000 
    4    42     1  1.7500170  0.0005530  1.0000000 -0.0002390  0.0002390  1.0000000 
    4    42     2  1.7500226  0.0005039  1.0000000  0.0003131 -0.0003131  1.0000000 
    4    42     3  1.7464286 -0.0005247  1.0000000 -0.0002108  0.0002108  1.0000000 
    4    42     4  1.7464443 -0.0005709  0.9999999  0.0003422 -0.0003422  0.9999999 
    4    43     1  1.7520858 -0.0005276  1.0000000 -0.0002514  0.0002514  1.0000000 
    4    43     2  1.7556808  0.0005512  1.0000000 -0.0002661  0.0002661  1.0000000 
    4    43     3  1.7520907 -0.0005559  1.0000000  0.0003013 -0.0003013  1.0000000 
    4    43     4  1.7556750  0.0005197  1.0000000  0.0002856 -0.0002856  1.0000000 
    4    44     1  1.7520672 -0.0005509  1.0000000  0.0003004 -0.0003004  1.0000000 
    4    44     2  1.7520624 -0.0005212  1.0000000 -0.0002469  0.0002469  1.0000000 
    4    44     3  1.7556390  0.0005211  1.0000000  0.0002844 -0.0002844  1.0000000 
    4    44     4  1.7556452  0.0005540  1.0000000 -0.0002628  0.0002628  1.0000000 
    4    45     1  1.7520372 -0.0005171  1.0000000 -0.0002492  0.0002492  1.0000000 
    4    45     2  1.7555953  0.0005508  1.0000000 -0.0002668  0.0002668  1.0000000 
    4    45     3  1.7520464 -0.0005488  1.0000000  0.0003055 -0.0003055  1.0000000 
    4    45     4  1.7555894  0.0005146  1.0000000  0.0002878 -0.0002878  1.0000000 
    4    46     1  1.7520221 -0.0005489  1.0000000  0.0003052 -0.0003052  1.0000000 
    4    46     2  1.7520167 -0.0005165  1.0000000 -0.0002473  0.0002473  1.0000000 
    4    46     3  1.7555480  0.0005093  1.0000000  0.0002872 -0.0002872  1.0000000 
    4    46     4  1.7555547  0.0005453  1.0000000 -0.0002638  0.0002638  1.0000000 
    4    47     1  1.7499938  0.0004948  0.9999999  0.0003217 -0.0003217  0.9999999 
    4    47     2  1.7464899 -0.0005578  0.9999999  0.0003518 -0.0003518  0.9999999 
    4    47     3  1.7499842  0.0005445  1.0000000 -0.0002278  0.0002278  1.0000000 
    4    47     4  1.7464638 -0.0005129  1.0000000 -0.0001991  0.0001991  1.0000000 
    4    48     1  1.7499919  0.0005501  1.0000000 -0.0002344  0.0002344  1.0000000 
    4    48     2  1.7500063  0.0005005  0.9999999  0.0003207 -0.0003207  0.9999999 
    4    48     3  1.7464433 -0.0005159  1.0000000 -0.0002042  0.0002042  1.0000000 
    4    48     4  1.7464744 -0.0005606  0.9999999  0.0003517 -0.0003517  0.9999999 
    4    49     1  1.7408906 -0.0005028  1.0000000 -0.0001476  0.0001476  1.0000000 
    4    49     2  1.7444082  0.0005584  1.0000000 -0.0002085  0.0002085  1.0000000 
    4    49     3  1.7409424 -0.0005925  0.9999999  0.0004068 -0.0004068  0.9999999 
    4    49     4  1.7444368  0.0004618  0.9999999  0.0003456 -0.0003456  0.9999999 
    4    50     1  1.7410114 -0.0005869  0.9999999  0.0004084 -0.0004084  0.9999999 
    4    50     2  1.7409677 -0.0004976  1.0000000 -0.0001401  0.0001401  1.0000000 
    4    50     3  1.7444722  0.0004572  0.9999999  0.0003484 -0.0003484  0.9999999 
    4    50     4  1.7444493  0.0005524  1.0000000 -0.0001986  0.0001986  1.0000000 
    4    51     1  1.7390124  0.0004285  0.9999999  0.0003832 -0.0003832  0.9999999 
    4    51     2  1.7355963 -0.0006062  0.9999999  0.0004608 -0.0004608  0.9999999 
    4    51     3  1.7389587  0.0005426  1.0000000 -0.0001611  0.0001611  1.0000000 
    4    51     4  1.7355084 -0.0005022  1.0000000 -0.0000836  0.0000836  1.0000000 
    4    52     1  1.7388570  0.0005445  1.0000000 -0.0001739  0.0001739  1.0000000 
    4    52     2  1.7389173  0.0004314  0.9999999  0.0003784 -0.0003784  0.9999999 
    4    52     3  1.7353652 -0.0005128  1.0000000 -0.0000958  0.0000958  1.0000000 
    4    52     4  1.7354499 -0.0006185  0.9999999  0.0004564 -0.0004564  0.9999999 
    4    53     1  1.7410320 -0.0005026  1.0000000 -0.0001425  0.0001425  1.0000000 
    4    53     2  1.7444779  0.0005354  1.0000000 -0.0001933  0.0001933  1.0000000 
    4    53     3  1.7410930 -0.0005745  0.9999999  0.0004123 -0.0004123  0.9999999 
    4    53     4  1.7445118  0.0004557  0.9999999  0.0003588 -0.0003588  0.9999999 
    4    54     1  1.7411270 -0.0005746  0.9999999  0.0004119 -0.0004119  0.9999999 
    4    54     2  1.7411002 -0.0005076  1.0000000 -0.0001408  0.0001408  1.0000000 
    4    54     3  1.7445200  0.0004465  0.9999999  0.0003676 -0.0003676  0.9999999 
    4    54     4  1.7445076  0.0005172  1.0000000 -0.0001799  0.0001799  1.0000000 
    4    55     1  1.7391894  0.0004150  0.9999999  0.0004036 -0.0004036  0.9999999 
    4    55     2  1.7358742 -0.0005847  0.9999999  0.0004591 -0.0004591  0.9999999 
    4    55     3  1.7391516  0.0004911  1.0000000 -0.0001334  0.0001334  1.0000000 
    4    55     4  1.7358041 -0.0005172  1.0000000 -0.0000843  0.0000843  1.0000000 
    4    56     1  1.7390527  0.0005160  1.0000000 -0.0001512  0.0001512  1.0000000 
    4    56     2  1.7391270  0.0004264  0.9999999  0.0003935 -0.0003935  0.9999999 
    4    56     3  1.7356556 -0.0005103  1.0000000 -0.0000850  0.0000850  1.0000000 
    4    56     4  1.7357653 -0.0005902  0.9999999  0.0004633 -0.0004633  0.9999999 
    4    57     1  1.7499555  0.0004916  0.9999999  0.0003360 -0.0003360  0.9999999 
    4    57     2  1.7464971 -0.0005465  0.9999999  0.0003559 -0.0003559  0.9999999 
    4    57     3  1.7499497  0.0005262  1.0000000 -0.0002184  0.0002184  1.0000000 
    4    57     4  1.7464806 -0.0005150  1.0000000 -0.0002011  0.0002011  1.0000000 
    4    58     1  1.7499696  0.0005319  1.0000000 -0.0002265  0.0002265  1.0000000 
    4    58     2  1.7499878  0.0004942  0.9999999  0.0003303 -0.0003303  0.9999999 
    4    58     3  1.7464748 -0.0005174  1.0000000 -0.0002039  0.0002039  1.0000000 
    4    58     4  1.7465090 -0.0005504  0.9999999  0.0003555 -0.0003555  0.9999999 
    4    59     1  1.7519859 -0.0005173  1.0000000 -0.0002530  0.0002530  1.0000000 
    4    59     2  1.7554987  0.0005368  1.0000000 -0.0002661  0.0002661  1.0000000 
    4    59     3  1.7519973 -0.0005431  1.0000000  0.0003080 -0.0003080  1.0000000 
    4    59     4  1.7554947  0.0005065  1.0000000  0.0002931 -0.0002931  1.0000000 
    4    60     1  1.7519561 -0.0005380  1.0000000  0.0003074 -0.0003074  1.0000000 
    4    60     2  1.7519539 -0.0005121  1.0000000 -0.0002514  0.0002514  1.0000000 
    4    60     3  1.7554461  0.0005093  1.0000000  0.0002948 -0.0002948  1.0000000 
    4    60     4  1.7554519  0.0005375  1.0000000 -0.0002629  0.0002629  1.0000000 
    4    61     1  1.7519031 -0.0005120  1.0000000 -0.0002566  0.0002566  1.0000000 
    4    61     2  1.7553842  0.0005325  1.0000000 -0.0002666  0.0002666  1.0000000 
    4    61     3  1.7519026 -0.0005375  1.0000000  0.0003129 -0.0003129  1.0000000 
    4    61     4  1.7553780  0.0005053  1.0000000  0.0003015 -0.0003015  1.0000000 
    4    62     1  1.7518241 -0.0005396  1.0000000  0.0003160 -0.0003160  1.0000000 
    4    62     2  1.7518378 -0.0005131  1.0000000 -0.0002575  0.0002575  1.0000000 
    4    62     3  1.7553066  0.0005053  1.0000000  0.0003068 -0.0003068  1.0000000 
    4    62     4  1.7553156  0.0005303  1.0000000 -0.0002645  0.0002645  1.0000000 
    4    63     1  1.7498300  0.0004912  0.9999999  0.0003602 -0.0003602  0.9999999 
    4    63     2  1.7463846 -0.0005424  0.9999999  0.0003659 -0.0003659  0.9999999 
    4    63     3  1.7498440  0.0005108  1.0000000 -0.0002059  0.0002059  1.0000000 
    4    63     4  1.7464022 -0.0005217  1.0000000 -0.0002040  0.0002040  1.0000000 
    4    64     1  1.7499076  0.0005152  1.0000000 -0.0002153  0.0002153  1.0000000 
    4    64     2  1.7499121  0.0004923  0.9999999  0.0003490 -0.0003490  0.9999999 
    4    64     3  1.7464548 -0.0005208  1.0000000 -0.0002058  0.0002058  1.0000000 
    4    64     4  1.7464665 -0.0005417  0.9999999  0.0003619 -0.0003619  0.9999999 
    4    65     1  1.7411072 -0.0005208  1.0000000 -0.0001462  0.0001462  1.0000000 
    4    65     2  1.7444911  0.0004951  1.0000000 -0.0001686  0.0001686  1.0000000 
    4    65     3  1.7411288 -0.0005638  0.9999999  0.0004157 -0.0004157  0.9999999 
    4    65     4  1.7445010  0.0004492  0.9999999  0.0003871 -0.0003871  0.9999999 
    4    66     1  1.7410403 -0.0005609  0.9999999  0.0004193 -0.0004193  0.9999999 
    4    66     2  1.7410737 -0.0005218  1.0000000 -0.0001447  0.0001447  1.0000000 
    4    66     3  1.7444167  0.0004523  0.9999999  0.0004058 -0.0004058  0.9999999 
    4    66     4  1.7444423  0.0004887  1.0000000 -0.0001520  0.0001520  1.0000000 
    4    67     1  1.7391190  0.0004148  0.9999999  0.0004543 -0.0004543  0.9999999 
    4    67     2  1.7358268 -0.0005729  0.9999999  0.0004635 -0.0004635  0.9999999 
    4    67     3  1.7391536  0.0004448  1.0000000 -0.0000897  0.0000897  1.0000000 
    4    67     4  1.7358692 -0.0005403  1.0000000 -0.0000901  0.0000901  1.0000000 
    4    68     1  1.7391824  0.0004528  1.0000000 -0.0001142  0.0001142  1.0000000 
    4    68     2  1.7392111  0.0004119  0.9999999  0.0004272 -0.0004272  0.9999999 
    4    68     3  1.7358799 -0.0005388  1.0000000 -0.0000910  0.0000910  1.0000000 
    4    68     4  1.7359215 -0.0005767  0.9999999  0.0004602 -0.0004602  0.9999999 
    4    69     1  1.7409470 -0.0005329  1.0000000 -0.0001507  0.0001507  1.0000000 
    4    69     2  1.7443276  0.0004812  1.0000000 -0.0001423  0.0001423  1.0000000 
    4    69     3  1.7409078 -0.0005467  0.9999999  0.0004277 -0.0004277  0.9999999 
    4    69     4  1.7442999  0.0004709  0.9999999  0.0004306 -0.0004306  0.9999999 
    4    70     1  1.7407105 -0.0005410  0.9999999  0.0004347 -0.0004347  0.9999999 
    4    70     2  1.7407858 -0.0005364  1.0000000 -0.0001524  0.0001524  1.0000000 
    4    70     3  1.7441340  0.0004863  0.9999999  0.0004505 -0.0004505  0.9999999 
    4    70     4  1.7441844  0.0004837  1.0000000 -0.0001324  0.0001324  1.0000000 
    4    71     1  1.7387403  0.0004729  0.9999999  0.0005136 -0.0005136  0.9999999 
    4    71     2  1.7353755 -0.0005386  0.9999999  0.0004773 -0.0004773  0.9999999 
    4    71     3  1.7388224  0.0004453  1.0000000 -0.0000602  0.0000602  1.0000000 
    4    71     4  1.7354898 -0.0005569  1.0000000 -0.0001011  0.0001011  1.0000000 
    4    72     1  1.7390137  0.0004379  1.0000000 -0.0000732  0.0000732  1.0000000 
    4    72     2  1.7389698  0.0004458  0.9999999  0.0004877 -0.0004877  0.9999999 
    4    72     3  1.7357155 -0.0005523  1.0000000 -0.0000975  0.0000975  1.0000000 
    4    72     4  1.7356435 -0.0005524  0.9999999  0.0004712 -0.0004712  0.9999999 
    4    73     1  1.7496075  0.0005109  0.9999999  0.0003905 -0.0003905  0.9999999 
    4    73     2  1.7461286 -0.0005329  0.9999999  0.0003802 -0.0003802  0.9999999 
    4    73     3  1.7496317  0.0005089  1.0000000 -0.0001984  0.0001984  1.0000000 
    4    73     4  1.7461684 -0.0005302  1.0000000 -0.0002112  0.0002112  1.0000000 
    4    74     1  1.7497460  0.0005050  1.0000000 -0.0002032  0.0002032  1.0000000 
    4    74     2  1.7497351  0.0005024  0.9999999  0.0003772 -0.0003772  0.9999999 
    4    74     3  1.7462970 -0.0005297  1.0000000 -0.0002104  0.0002104  1.0000000 
    4    74     4  1.7462770 -0.0005350  0.9999999  0.0003735 -0.0003735  0.9999999 
    4    75     1  1.7517444 -0.0005177  1.0000000 -0.0002649  0.0002649  1.0000000 
    4    75     2  1.7552245  0.0005263  1.0000000 -0.0002679  0.0002679  1.0000000 
    4    75     3  1.7517327 -0.0005373  0.9999999  0.0003217 -0.0003217  0.9999999 
    4    75     4  1.7552176  0.0005082  0.9999999  0.0003166 -0.0003166  0.9999999 
    4    76     1  1.7516188 -0.0005361  0.9999999  0.0003260 -0.0003260  0.9999999 
    4    76     2  1.7516402 -0.0005169  1.0000000 -0.0002674  0.0002674  1.0000000 
    4    76     3  1.7551247  0.0005157  0.9999999  0.0003238 -0.0003238  0.9999999 
    4    76     4  1.7551335  0.0005310  1.0000000 -0.0002684  0.0002684  1.0000000 
    4    77     1  1.7515161 -0.0005215  1.0000000 -0.0002748  0.0002748  1.0000000 
    4    77     2  1.7550249  0.0005311  1.0000000 -0.0002743  0.0002743  1.0000000 
    4    77     3  1.7514959 -0.0005380  0.9999999  0.0003335 -0.0003335  0.9999999 
    4    77     4  1.7550171  0.0005183  0.9999999  0.0003326 -0.0003326  0.9999999 
    4    78     1  1.7513604 -0.0005416  0.9999999  0.0003400 -0.0003400  0.9999999 
    4    78     2  1.7513850 -0.0005253  1.0000000 -0.0002787  0.0002787  1.0000000 
    4    78     3  1.7549073  0.0005224  0.9999999  0.0003404 -0.0003404  0.9999999 
    4    78     4  1.7549160  0.0005339  1.0000000 -0.0002771  0.0002771  1.0000000 
    4    79     1  1.7493226  0.0005267  0.9999999  0.0004173 -0.0004173  0.9999999 
    4    79     2  1.7457967 -0.0005315  0.9999999  0.0003986 -0.0003986  0.9999999 
    4    79     3  1.7493475  0.0005095  1.0000000 -0.0001983  0.0001983  1.0000000 
    4    79     4  1.7458381 -0.0005439  1.0000000 -0.0002186  0.0002186  1.0000000 
    4    80     1  1.7494932  0.0005076  1.0000000 -0.0001998  0.0001998  1.0000000 
    4    80     2  1.7494742  0.0005227  0.9999999  0.0004054 -0.0004054  0.9999999 
    4    80     3  1.7460053 -0.0005392  1.0000000 -0.0002176  0.0002176  1.0000000 
    4    80     4  1.7459722 -0.0005283  0.9999999  0.0003894 -0.0003894  0.9999999 
    4    81     1  1.7405643 -0.0005536  1.0000000 -0.0001588  0.0001588  1.0000000 
    4    81     2  1.7439998  0.0004784  1.0000000 -0.0001285  0.0001285  1.0000000 
    4    81     3  1.7405069 -0.0005297  0.9999999  0.0004449 -0.0004449  0.9999999 
    4    81     4  1.7439620  0.0005079  0.9999999  0.0004723 -0.0004723  0.9999999 
    4    82     1  1.7402791 -0.0005305  0.9999999  0.0004565 -0.0004565  0.9999999 
    4    82     2  1.7403481 -0.0005607  1.0000000 -0.0001579  0.0001579  1.0000000 
    4    82     3  1.7437667  0.0005174  0.9999999  0.0004899 -0.0004899  0.9999999 
    4    82     4  1.7438130  0.0004806  1.0000000 -0.0001228  0.0001228  1.0000000 
    4    83     1  1.7382590  0.0005086  0.9999998  0.0005643 -0.0005643  0.9999998 
    4    83     2  1.7348085 -0.0005315  0.9999999  0.0005079 -0.0005079  0.9999999 
    4    83     3  1.7383303  0.0004383  1.0000000 -0.0000441  0.0000441  1.0000000 
    4    83     4  1.7349041 -0.0005948  1.0000000 -0.0001015  0.0001015  1.0000000 
    4    84     1  1.7385740  0.0004370  1.0000000 -0.0000533  0.0000533  1.0000000 
    4    84     2  1.7385131  0.0005009  0.9999999  0.0005410 -0.0005410  0.9999999 
    4    84     3  1.7351926 -0.0005819  1.0000000 -0.0001064  0.0001064  1.0000000 
    4    84     4  1.7350998 -0.0005271  0.9999999  0.0004904 -0.0004904  0.9999999 
    4    85     1  1.7401089 -0.0005773  1.0000000 -0.0001585  0.0001585  1.0000000 
    4    85     2  1.7436106  0.0004755  1.0000000 -0.0001197  0.0001197  1.0000000 
    4    85     3  1.7400661 -0.0005289  0.9999999  0.0004719 -0.0004719  0.9999999 
    4    85     4  1.7435831  0.0005283  0.9999999  0.0005095 -0.0005095  0.9999999 
    4    86     1  1.7398468 -0.0005324  0.9999999  0.0004876 -0.0004876  0.9999999 
    4    86     2  1.7398916 -0.0005828  1.0000000 -0.0001544  0.0001544  1.0000000 
    4    86     3  1.7433905  0.0005330  0.9999999  0.0005267 -0.0005267  0.9999999 
    4    86     4  1.7434189  0.0004778  1.0000000 -0.0001144  0.0001144  1.0000000 
    4    87     1  1.7377949  0.0005270  0.9999998  0.0006122 -0.0006122  0.9999998 
    4    87     2  1.7342740 -0.0005349  0.9999998  0.0005514 -0.0005514  0.9999998 
    4    87     3  1.7378371  0.0004354  1.0000000 -0.0000272  0.0000272  1.0000000 
    4    87     4  1.7343314 -0.0006222  1.0000000 -0.0000885  0.0000885  1.0000000 
    4    88     1  1.7380723  0.0004326  1.0000000 -0.0000364  0.0000364  1.0000000 
    4    88     2  1.7380307  0.0005219  0.9999998  0.0005901 -0.0005901  0.9999998 
    4    88     3  1.7346003 -0.0006147  1.0000000 -0.0000970  0.0000970  1.0000000 
    4    88     4  1.7345381 -0.0005314  0.9999999  0.0005302 -0.0005302  0.9999999 
    4    89     1  1.7490194  0.0005381  0.9999999  0.0004431 -0.0004431  0.9999999 
    4    89     2  1.7454478 -0.0005340  0.9999999  0.0004211 -0.0004211  0.9999999 
    4    89     3  1.7490347  0.0005114  1.0000000 -0.0001993  0.0001993  1.0000000 
    4    89     4  1.7454765 -0.0005568  1.0000000 -0.0002222  0.0002222  1.0000000 
    4    90     1  1.7491895  0.0005080  1.0000000 -0.0002002  0.0002002  1.0000000 
    4    90     2  1.7491758  0.0005353  0.9999999  0.0004311 -0.0004311  0.9999999 
    4    90     3  1.7456531 -0.0005536  1.0000000 -0.0002229  0.0002229  1.0000000 
    4    90     4  1.7456259 -0.0005303  0.9999999  0.0004095 -0.0004095  0.9999999 
    4    91     1  1.7512420 -0.0005318  1.0000000 -0.0002856  0.0002856  1.0000000 
    4    91     2  1.7547954  0.0005341  1.0000000 -0.0002824  0.0002824  1.0000000 
    4    91     3  1.7512248 -0.0005429  0.9999999  0.0003476 -0.0003476  0.9999999 
    4    91     4  1.7547894  0.0005264  0.9999999  0.0003495 -0.0003495  0.9999999 
    4    92     1  1.7510815 -0.0005445  0.9999999  0.0003551 -0.0003551  0.9999999 
    4    92     2  1.7511000 -0.0005335  1.0000000 -0.0002889  0.0002889  1.0000000 
    4    92     3  1.7546687  0.0005315  0.9999999  0.0003577 -0.0003577  0.9999999 
    4    92     4  1.7546749  0.0005389  1.0000000 -0.0002855  0.0002855  1.0000000 
    4    93     1  1.7509501 -0.0005378  1.0000000 -0.0002936  0.0002936  1.0000000 
    4    93     2  1.7545438  0.0005403  1.0000000 -0.0002898  0.0002898  1.0000000 
    4    93     3  1.7509348 -0.0005477  0.9999999  0.0003634 -0.0003634  0.9999999 
    4    93     4  1.7545385  0.0005333  0.9999999  0.0003661 -0.0003661  0.9999999 
    4    94     1  1.7507793 -0.0005504  0.9999999  0.0003712 -0.0003712  0.9999999 
    4    94     2  1.7507956 -0.0005394  1.0000000 -0.0002962  0.0002962  1.0000000 
    4    94     3  1.7544021  0.0005364  0.9999999  0.0003741 -0.0003741  0.9999999 
    4    94     4  1.7544078  0.0005442  1.0000000 -0.0002925  0.0002925  1.0000000 
    4    95     1  1.7486975  0.0005439  0.9999999  0.0004676 -0.0004676  0.9999999 
    4    95     2  1.7450910 -0.0005386  0.9999999  0.0004457 -0.0004457  0.9999999 
    4    95     3  1.7487084  0.0005155  1.0000000 -0.0001983  0.0001983  1.0000000 
    4    95     4  1.7451121 -0.0005641  1.0000000 -0.0002212  0.0002212  1.0000000 
    4    96     1  1.7488724  0.0005126  1.0000000 -0.0001998  0.0001998  1.0000000 
    4    96     2  1.7488629  0.0005429  0.9999999  0.0004558 -0.0004558  0.9999999 
    4    96     3  1.7452919 -0.0005623  1.0000000 -0.0002230  0.0002230  1.0000000 
    4    96     4  1.7452731 -0.0005347  0.9999999  0.0004334 -0.0004334  0.9999999 
    4    97     1  1.7396660 -0.0005936  1.0000000 -0.0001517  0.0001517  1.0000000 
    4    97     2  1.7432213  0.0004756  1.0000000 -0.0001099  0.0001099  1.0000000 
    4    97     3  1.7396406 -0.0005321  0.9999999  0.0005039 -0.0005039  0.9999999 
    4    97     4  1.7432072  0.0005403  0.9999999  0.0005446 -0.0005446  0.9999999 
    4    98     1  1.7394285 -0.0005334  0.9999999  0.0005198 -0.0005198  0.9999999 
    4    98     2  1.7394556 -0.0005954  1.0000000 -0.0001462  0.0001462  1.0000000 
    4    98     3  1.7430140  0.0005448  0.9999998  0.0005611 -0.0005611  0.9999998 
    4    98     4  1.7430297  0.0004795  1.0000000 -0.0001041  0.0001041  1.0000000 
    4    99     1  1.7373564  0.0005399  0.9999998  0.0006550 -0.0006550  0.9999998 
    4    99     2  1.7337902 -0.0005358  0.9999998  0.0005934 -0.0005934  0.9999998 
    4    99     3  1.7373775  0.0004362  1.0000000 -9.25e-006  9.25e-006  1.0000000 
    4    99     4  1.7338216 -0.0006365  1.0000000 -0.0000715  0.0000715  1.0000000 
    4   100     1  1.7375991  0.0004333  1.0000000 -0.0000187  0.0000187  1.0000000 
    4   100     2  1.7375789  0.0005369  0.9999998  0.0006345 -0.0006345  0.9999998 
    4   100     3  1.7340641 -0.0006332  1.0000000 -0.0000811  0.0000811  1.0000000 
    4   100     4  1.7340309 -0.0005334  0.9999998  0.0005727 -0.0005727  0.9999998 
    4   101     1  1.7371481  0.0004385  1.0000000  1.05e-006 -1.05e-006  1.0000000 
    4   101     2  1.7371328  0.0005446  0.9999998  0.0006748 -0.0006748  0.9999998 
    4   101     3  1.7335740 -0.0006396  1.0000000 -0.0000609  0.0000609  1.0000000 
    4   101     4  1.7335498 -0.0005361  0.9999998  0.0006134 -0.0006134  0.9999998 
    4   102     1  1.7392370 -0.0006022  1.0000000 -0.0001407  0.0001407  1.0000000 
    4   102     2  1.7428301  0.0004786  1.0000000 -0.0000972  0.0000972  1.0000000 
    4   102     3  1.7392153 -0.0005359  0.9999999  0.0005353 -0.0005353  0.9999999 
    4   102     4  1.7428184  0.0005477  0.9999998  0.0005773 -0.0005773  0.9999998 
    4   103     1  1.7389866 -0.0005368  0.9999998  0.0005505 -0.0005505  0.9999998 
    4   103     2  1.7390139 -0.0006031  1.0000000 -0.0001342  0.0001342  1.0000000 
    4   103     3  1.7426052  0.0005515  0.9999998  0.0005938 -0.0005938  0.9999998 
    4   103     4  1.7426225  0.0004824  1.0000000 -0.0000898  0.0000898  1.0000000 
    4   104     1  1.7368953  0.0005442  0.9999998  0.0006943 -0.0006943  0.9999998 
    4   104     2  1.7332985 -0.0005405  0.9999998  0.0006334 -0.0006334  0.9999998 
    4   104     3  1.7369168  0.0004406  1.0000000  0.0000123 -0.0000123  1.0000000 
    4   104     4  1.7333288 -0.0006416  1.0000000 -0.0000499  0.0000499  1.0000000 
    4   105     1  1.7483410  0.0005474  0.9999999  0.0004910 -0.0004910  0.9999999 
    4   105     2  1.7447013 -0.0005451  0.9999999  0.0004694 -0.0004694  0.9999999 
    4   105     3  1.7483547  0.0005211  1.0000000 -0.0001939  0.0001939  1.0000000 
    4   105     4  1.7447261 -0.0005682  1.0000000 -0.0002168  0.0002168  1.0000000 
    4   106     1  1.7485349  0.0005187  1.0000000 -0.0001967  0.0001967  1.0000000 
    4   106     2  1.7485254  0.0005472  0.9999999  0.0004793 -0.0004793  0.9999999 
    4   106     3  1.7449216 -0.0005660  1.0000000 -0.0002193  0.0002193  1.0000000 
    4   106     4  1.7449028 -0.0005402  0.9999999  0.0004575 -0.0004575  0.9999999 
    4   107     1  1.7506326 -0.0005426  1.0000000 -0.0002990  0.0002990  1.0000000 
    4   107     2  1.7542624  0.0005463  1.0000000 -0.0002950  0.0002950  1.0000000 
    4   107     3  1.7506172 -0.0005535  0.9999999  0.0003786 -0.0003786  0.9999999 
    4   107     4  1.7542569  0.0005383  0.9999999  0.0003815 -0.0003815  0.9999999 
    4   108     1  1.7504430 -0.0005565  0.9999999  0.0003860 -0.0003860  0.9999999 
    4   108     2  1.7504609 -0.0005445  1.0000000 -0.0003013  0.0003013  1.0000000 
    4   108     3  1.7541012  0.0005409  0.9999999  0.0003892 -0.0003892  0.9999999 
    4   108     4  1.7541075  0.0005494  1.0000000 -0.0002969  0.0002969  1.0000000 
    4   109     1  1.7502763 -0.0005490  1.0000000 -0.0003026  0.0003026  1.0000000 
    4   109     2  1.7539435  0.0005511  1.0000000 -0.0002967  0.0002967  1.0000000 
    4   109     3  1.7502533 -0.0005612  0.9999999  0.0003919 -0.0003919  0.9999999 
    4   109     4  1.7539362  0.0005436  0.9999999  0.0003960 -0.0003960  0.9999999 
    4   110     1  1.7500410 -0.0005642  0.9999999  0.0003983 -0.0003983  0.9999999 
    4   110     2  1.7500710 -0.0005503  1.0000000 -0.0003045  0.0003045  1.0000000 
    4   110     3  1.7537551  0.0005499  0.9999999  0.0004036 -0.0004036  0.9999999 
    4   110     4  1.7537642  0.0005576  1.0000000 -0.0002980  0.0002980  1.0000000 
    4   111     1  1.7479079  0.0005517  0.9999999  0.0005152 -0.0005152  0.9999999 
    4   111     2  1.7442228 -0.0005546  0.9999999  0.0004915 -0.0004915  0.9999999 
    4   111     3  1.7479396  0.0005300  1.0000000 -0.0001836  0.0001836  1.0000000 
    4   111     4  1.7442729 -0.0005708  1.0000000 -0.0002094  0.0002094  1.0000000 
    4   112     1  1.7481576  0.0005258  1.0000000 -0.0001887  0.0001887  1.0000000 
    4   112     2  1.7481361  0.0005494  0.9999999  0.0005021 -0.0005021  0.9999999 
    4   112     3  1.7445116 -0.0005687  1.0000000 -0.0002124  0.0002124  1.0000000 
    4   112     4  1.7444768 -0.0005490  0.9999999  0.0004799 -0.0004799  0.9999999 
    4   113     1  1.7387743 -0.0006064  1.0000000 -0.0001258  0.0001258  1.0000000 
    4   113     2  1.7423975  0.0004837  1.0000000 -0.0000791  0.0000791  1.0000000 
    4   113     3  1.7387335 -0.0005424  0.9999998  0.0005643 -0.0005643  0.9999998 
    4   113     4  1.7423692  0.0005512  0.9999998  0.0006089 -0.0006089  0.9999998 
    4   114     1  1.7384461 -0.0005443  0.9999998  0.0005790 -0.0005790  0.9999998 
    4   114     2  1.7385030 -0.0006081  1.0000000 -0.0001183  0.0001183  1.0000000 
    4   114     3  1.7420983  0.0005546  0.9999998  0.0006269 -0.0006269  0.9999998 
    4   114     4  1.7421423  0.0004873  1.0000000 -0.0000681  0.0000681  1.0000000 
    4   115     1  1.7363294  0.0005425  0.9999997  0.0007332 -0.0007332  0.9999997 
    4   115     2  1.7327119 -0.0005488  0.9999998  0.0006693 -0.0006693  0.9999998 
    4   115     3  1.7363817  0.0004448  1.0000000  0.0000418 -0.0000418  1.0000000 
    4   115     4  1.7327726 -0.0006445  1.0000000 -0.0000247  0.0000247  1.0000000 
    4   116     1  1.7366643  0.0004448  1.0000000  0.0000266 -0.0000266  1.0000000 
    4   116     2  1.7366284  0.0005439  0.9999997  0.0007126 -0.0007126  0.9999997 
    4   116     3  1.7330643 -0.0006411  1.0000000 -0.0000365  0.0000365  1.0000000 
    4   116     4  1.7330208 -0.0005441  0.9999998  0.0006509 -0.0006509  0.9999998 
    4   117     1  1.7360535  0.0004507  1.0000000  0.0000640 -0.0000640  1.0000000 
    4   117     2  1.7359597  0.0005383  0.9999997  0.0007513 -0.0007513  0.9999997 
    4   117     3  1.7324425 -0.0006400  1.0000000 -6.90e-006  6.90e-006  1.0000000 
    4   117     4  1.7323434 -0.0005533  0.9999998  0.0006835 -0.0006835  0.9999998 
    4   118     1  1.7381968 -0.0006117  1.0000000 -0.0001064  0.0001064  1.0000000 
    4   118     2  1.7418467  0.0004881  1.0000000 -0.0000482  0.0000482  1.0000000 
    4   118     3  1.7381001 -0.0005523  0.9999998  0.0005905 -0.0005905  0.9999998 
    4   118     4  1.7417694  0.0005525  0.9999998  0.0006439 -0.0006439  0.9999998 
    4   119     1  1.7376697 -0.0005493  0.9999998  0.0006036 -0.0006036  0.9999998 
    4   119     2  1.7378135 -0.0006123  1.0000000 -0.0000959  0.0000959  1.0000000 
    4   119     3  1.7413524  0.0005616  0.9999998  0.0006688 -0.0006688  0.9999998 
    4   119     4  1.7414726  0.0004925  1.0000000 -0.0000243  0.0000243  1.0000000 
    4   120     1  1.7355105  0.0005308  0.9999997  0.0007758 -0.0007758  0.9999997 
    4   120     2  1.7319087 -0.0005583  0.9999998  0.0006997 -0.0006997  0.9999998 
    4   120     3  1.7356505  0.0004433  1.0000000  0.0000927 -0.0000927  1.0000000 
    4   120     4  1.7320526 -0.0006460  1.0000000  9.75e-006 -9.75e-006  1.0000000 
    4   121     1  1.7473064  0.0005640  0.9999999  0.0005446 -0.0005446  0.9999999 
    4   121     2  1.7435333 -0.0005692  0.9999999  0.0005115 -0.0005115  0.9999999 
    4   121     3  1.7473893  0.0005479  1.0000000 -0.0001637  0.0001637  1.0000000 
    4   121     4  1.7436568 -0.0005735  1.0000000 -0.0002020  0.0002020  1.0000000 
    4   122     1  1.7476894  0.0005400  1.0000000 -0.0001737  0.0001737  1.0000000 
    4   122     2  1.7476343  0.0005554  0.9999999  0.0005272 -0.0005272  0.9999999 
    4   122     3  1.7439961 -0.0005689  1.0000000 -0.0002028  0.0002028  1.0000000 
    4   122     4  1.7439145 -0.0005613  0.9999999  0.0005008 -0.0005008  0.9999999 
    4   123     1  1.7498436 -0.0005539  1.0000000 -0.0003049  0.0003049  1.0000000 
    4   123     2  1.7535767  0.0005659  1.0000000 -0.0002973  0.0002973  1.0000000 
    4   123     3  1.7497966 -0.0005741  0.9999999  0.0004033 -0.0004033  0.9999999 
    4   123     4  1.7535629  0.0005556  0.9999999  0.0004090 -0.0004090  0.9999999 
    4   124     1  1.7495070 -0.0005857  0.9999999  0.0004096 -0.0004096  0.9999999 
    4   124     2  1.7495740 -0.0005635  1.0000000 -0.0003123  0.0003123  1.0000000 
    4   124     3  1.7533470  0.0005662  0.9999999  0.0004182 -0.0004182  0.9999999 
    4   124     4  1.7533652  0.0005738  1.0000000 -0.0003009  0.0003009  1.0000000 
    4   125     1  1.7492522 -0.0005826  0.9999999 -0.0003218  0.0003218  0.9999999 
    4   125     2  1.7531449  0.0005854  1.0000000 -0.0003030  0.0003030  1.0000000 
    4   125     3  1.7491515 -0.0006030  0.9999999  0.0004119 -0.0004119  0.9999999 
    4   125     4  1.7531206  0.0005879  0.9999999  0.0004272 -0.0004272  0.9999999 
    4   126     1  1.7487194 -0.0006281  0.9999999  0.0004214 -0.0004214  0.9999999 
    4   126     2  1.7488551 -0.0006128  0.9999999 -0.0003370  0.0003370  0.9999999 
    4   126     3  1.7528600  0.0006146  0.9999999  0.0004455 -0.0004455  0.9999999 
    4   126     4  1.7528898  0.0005983  1.0000000 -0.0003102  0.0003102  1.0000000 
    4   127     1  1.7463388  0.0006106  0.9999998  0.0005949 -0.0005949  0.9999998 
    4   127     2  1.7423209 -0.0006019  0.9999999  0.0005209 -0.0005209  0.9999999 
    4   127     3  1.7465165  0.0005497  1.0000000 -0.0001356  0.0001356  1.0000000 
    4   127     4  1.7426123 -0.0006300  1.0000000 -0.0002163  0.0002163  1.0000000 
    4   128     1  1.7470088  0.0005606  1.0000000 -0.0001479  0.0001479  1.0000000 
    4   128     2  1.7468782  0.0005839  0.9999998  0.0005635 -0.0005635  0.9999998 
    4   128     3  1.7432159 -0.0005807  1.0000000 -0.0002023  0.0002023  1.0000000 
    4   128     4  1.7430174 -0.0005771  0.9999999  0.0005157 -0.0005157  0.9999999 
    4   129     1  1.7373362 -0.0006067  1.0000000 -0.0000781  0.0000781  1.0000000 
    4   129     2  1.7409825  0.0004994  1.0000000  0.0000170 -0.0000170  1.0000000 
    4   129     3  1.7370919 -0.0005487  0.9999998  0.0006129 -0.0006129  0.9999998 
    4   129     4  1.7407809  0.0005679  0.9999998  0.0006966 -0.0006966  0.9999998 
    4   130     1  1.7362429 -0.0005463  0.9999998  0.0006125 -0.0006125  0.9999998 
    4   130     2  1.7366421 -0.0006367  1.0000000 -0.0000750  0.0000750  1.0000000 
    4   130     3  1.7399750  0.0005963  0.9999997  0.0007387 -0.0007387  0.9999997 
    4   130     4  1.7402767  0.0004818  1.0000000  0.0000666 -0.0000666  1.0000000 
    4   131     1  1.7339762  0.0005098  0.9999996  0.0008447 -0.0008447  0.9999996 
    4   131     2  1.7306301 -0.0005186  0.9999997  0.0007195 -0.0007195  0.9999997 
    4   131     3  1.7343530  0.0004293  1.0000000  0.0002362 -0.0002362  1.0000000 
    4   131     4  1.7310141 -0.0006060  1.0000000  0.0000826 -0.0000826  1.0000000 
    4   132     1  1.7351261  0.0004362  1.0000000  0.0001438 -0.0001438  1.0000000 
    4   132     2  1.7348925  0.0005215  0.9999997  0.0008031 -0.0008031  0.9999997 
    4   132     3  1.7315866 -0.0006418  1.0000000  0.0000379 -0.0000379  1.0000000 
    4   132     4  1.7313561 -0.0005527  0.9999997  0.0007091 -0.0007091  0.9999997 
    4   133     1  1.7355510 -0.0007672  1.0000000 -0.0000832  0.0000832  1.0000000 
    4   133     2  1.7392740  0.0004100  1.0000000  0.0001196 -0.0001196  1.0000000 
    4   133     3  1.7349002 -0.0006104  0.9999998  0.0005974 -0.0005974  0.9999998 
    4   133     4  1.7388666  0.0006361  0.9999997  0.0007986 -0.0007986  0.9999997 
    4   134     1  1.7330996 -0.0006914  0.9999998  0.0006751 -0.0006751  0.9999998 
    4   134     2  1.7338074 -0.0007768  1.0000000 -0.0000997  0.0000997  1.0000000 
    4   134     3  1.7375994  0.0007131  0.9999996  0.0008959 -0.0008959  0.9999996 
    4   134     4  1.7380959  0.0005591  1.0000000  0.0001030 -0.0001030  1.0000000 
    4   135     1  1.7300294  0.0007532  0.9999995  0.0010385 -0.0010385  0.9999995 
    4   135     2  1.7262485 -0.0006786  0.9999998  0.0005936 -0.0005936  0.9999998 
    4   135     3  1.7307487  0.0002004  0.9999999  0.0004954 -0.0004954  0.9999999 
    4   135     4  1.7276891 -0.0009382  1.0000000  0.0001509 -0.0001509  1.0000000 
    4   136     1  1.7329112  0.0002311  0.9999999  0.0004288 -0.0004288  0.9999999 
    4   136     2  1.7323942  0.0005115  0.9999996  0.0009030 -0.0009030  0.9999996 
    4   136     3  1.7301464 -0.0007397  1.0000000  0.0001603 -0.0001603  1.0000000 
    4   136     4  1.7294248 -0.0004859  0.9999998  0.0006657 -0.0006657  0.9999998 
    4   137     1  1.7449573  0.0006776  0.9999998  0.0006905 -0.0006905  0.9999998 
    4   137     2  1.7404737 -0.0006796  0.9999998  0.0005852 -0.0005852  0.9999998 
    4   137     3  1.7452044  0.0006138  1.0000000 -0.0001109  0.0001109  1.0000000 
    4   137     4  1.7408832 -0.0006943  1.0000000 -0.0002119  0.0002119  1.0000000 
    4   138     1  1.7459028  0.0005520  1.0000000 -0.0001187  0.0001187  1.0000000 
    4   138     2  1.7456756  0.0006336  0.9999998  0.0006387 -0.0006387  0.9999998 
    4   138     3  1.7418117 -0.0006882  1.0000000 -0.0002198  0.0002198  1.0000000 
    4   138     4  1.7414308 -0.0006520  0.9999999  0.0005397 -0.0005397  0.9999999 
    4   139     1  1.7483830 -0.0006367  0.9999999 -0.0003424  0.0003424  0.9999999 
    4   139     2  1.7526038  0.0006303  1.0000000 -0.0003135  0.0003135  1.0000000 
    4   139     3  1.7482099 -0.0006650  0.9999999  0.0004401 -0.0004401  0.9999999 
    4   139     4  1.7525634  0.0006417  0.9999999  0.0004680 -0.0004680  0.9999999 
    4   140     1  1.7476433 -0.0007027  0.9999999  0.0004678 -0.0004678  0.9999999 
    4   140     2  1.7478250 -0.0006691  0.9999999 -0.0003542  0.0003542  0.9999999 
    4   140     3  1.7522226  0.0006716  0.9999999  0.0004967 -0.0004967  0.9999999 
    4   140     4  1.7522660  0.0006638  0.9999999 -0.0003250  0.0003250  0.9999999 
    4   141     1  1.7472580 -0.0006948  0.9999999 -0.0003625  0.0003625  0.9999999 
    4   141     2  1.7519166  0.0007032  0.9999999 -0.0003362  0.0003362  0.9999999 
    4   141     3  1.7470935 -0.0007275  0.9999999  0.0004886 -0.0004886  0.9999999 
    4   141     4  1.7518766  0.0007078  0.9999999  0.0005163 -0.0005163  0.9999999 
    4   142     1  1.7465687 -0.0007568  0.9999999  0.0005143 -0.0005143  0.9999999 
    4   142     2  1.7466984 -0.0007247  0.9999999 -0.0003735  0.0003735  0.9999999 
    4   142     3  1.7515328  0.0007325  0.9999999  0.0005360 -0.0005360  0.9999999 
    4   142     4  1.7515659  0.0007357  0.9999999 -0.0003536  0.0003536  0.9999999 
    4   143     1  1.7436650  0.0007590  0.9999997  0.0007500 -0.0007500  0.9999997 
    4   143     2  1.7387427 -0.0007251  0.9999998  0.0006643 -0.0006643  0.9999998 
    4   143     3  1.7438259  0.0006893  1.0000000 -0.0001386  0.0001386  1.0000000 
    4   143     4  1.7389915 -0.0007674  1.0000000 -0.0002150  0.0002150  1.0000000 
    4   144     1  1.7444841  0.0006704  1.0000000 -0.0001267  0.0001267  1.0000000 
    4   144     2  1.7442646  0.0007419  0.9999997  0.0007272 -0.0007272  0.9999997 
    4   144     3  1.7398383 -0.0007332  1.0000000 -0.0002212  0.0002212  1.0000000 
    4   144     4  1.7394889 -0.0007019  0.9999998  0.0006234 -0.0006234  0.9999998 
    4   145     1  1.7325188 -0.0008201  1.0000000 -0.0000951  0.0000951  1.0000000 
    4   145     2  1.7369506  0.0005574  1.0000000  0.0001000 -0.0001000  1.0000000 
    4   145     3  1.7320012 -0.0006082  0.9999998  0.0006910 -0.0006910  0.9999998 
    4   145     4  1.7365854  0.0008253  0.9999996  0.0009119 -0.0009119  0.9999996 
    4   146     1  1.7306788 -0.0007727  0.9999996  0.0008610 -0.0008610  0.9999996 
    4   146     2  1.7309856 -0.0008501  1.0000000 -0.0000380  0.0000380  1.0000000 
    4   146     3  1.7356903  0.0007493  0.9999995  0.0010029 -0.0010029  0.9999995 
    4   146     4  1.7359771  0.0006618  1.0000000  0.0000809 -0.0000809  1.0000000 
    4   147     1  1.7276199  0.0007690  0.9999993  0.0012199 -0.0012199  0.9999993 
    4   147     2  1.7224993 -0.0007876  0.9999994  0.0010783 -0.0010783  0.9999994 
    4   147     3  1.7279234  0.0006388  1.0000000  0.0002774 -0.0002774  1.0000000 
    4   147     4  1.7227696 -0.0009264  1.0000000  0.0001415 -0.0001415  1.0000000 
    4   148     1  1.7289743  0.0007295  1.0000000  0.0002724 -0.0002724  1.0000000 
    4   148     2  1.7283487  0.0009321  0.9999992  0.0012634 -0.0012634  0.9999992 
    4   148     3  1.7236708 -0.0009162  1.0000000  0.0000391 -0.0000391  1.0000000 
    4   148     4  1.7233465 -0.0006614  0.9999996  0.0009363 -0.0009363  0.9999996 
    4   149     1  1.7270510  0.0006370  1.0000000  0.0002974 -0.0002974  1.0000000 
    4   149     2  1.7268211  0.0007247  0.9999992  0.0012352 -0.0012352  0.9999992 
    4   149     3  1.7219245 -0.0009123  1.0000000  0.0001905 -0.0001905  1.0000000 
    4   149     4  1.7216894 -0.0008270  0.9999994  0.0011230 -0.0011230  0.9999994 
    4   150     1  1.7301102 -0.0008470  1.0000000 -5.22e-007  5.22e-007  1.0000000 
    4   150     2  1.7351942  0.0006858  1.0000000  0.0000870 -0.0000870  1.0000000 
    4   150     3  1.7298855 -0.0007917  0.9999996  0.0009215 -0.0009215  0.9999996 
    4   150     4  1.7349986  0.0007507  0.9999995  0.0010166 -0.0010166  0.9999995 
    4   151     1  1.7291892 -0.0008138  0.9999995  0.0009681 -0.0009681  0.9999995 
    4   151     2  1.7293696 -0.0008489  1.0000000  0.0000266 -0.0000266  1.0000000 
    4   151     3  1.7343710  0.0007454  0.9999995  0.0010413 -0.0010413  0.9999995 
    4   151     4  1.7345211  0.0007011  1.0000000  0.0000965 -0.0000965  1.0000000 
    4   152     1  1.7261226  0.0007196  0.9999992  0.0012697 -0.0012697  0.9999992 
    4   152     2  1.7209500 -0.0008410  0.9999993  0.0011736 -0.0011736  0.9999993 
    4   152     3  1.7263053  0.0006397  0.9999999  0.0003229 -0.0003229  0.9999999 
    4   152     4  1.7211503 -0.0009155  1.0000000  0.0002289 -0.0002289  1.0000000 
    4   153     1  1.7426063  0.0007521  0.9999997  0.0008052 -0.0008052  0.9999997 
    4   153     2  1.7374162 -0.0008059  0.9999997  0.0007655 -0.0007655  0.9999997 
    4   153     3  1.7427046  0.0007515  1.0000000 -0.0001359  0.0001359  1.0000000 
    4   153     4  1.7375588 -0.0007932  1.0000000 -0.0001734  0.0001734  1.0000000 
    4   154     1  1.7432413  0.0007260  1.0000000 -0.0001382  0.0001382  1.0000000 
    4   154     2  1.7431123  0.0007377  0.9999997  0.0007814 -0.0007814  0.9999997 
    4   154     3  1.7382058 -0.0007867  1.0000000 -0.0001876  0.0001876  1.0000000 
    4   154     4  1.7380204 -0.0007921  0.9999997  0.0007264 -0.0007264  0.9999997 
    4   155     1  1.7461969 -0.0007445  0.9999999 -0.0003737  0.0003737  0.9999999 
    4   155     2  1.7512260  0.0007641  0.9999999 -0.0003620  0.0003620  0.9999999 
    4   155     3  1.7460953 -0.0007847  0.9999999  0.0005390 -0.0005390  0.9999999 
    4   155     4  1.7511966  0.0007455  0.9999998  0.0005518 -0.0005518  0.9999998 
    4   156     1  1.7456319 -0.0008109  0.9999998  0.0005662 -0.0005662  0.9999998 
    4   156     2  1.7457140 -0.0007591  0.9999999 -0.0003731  0.0003731  0.9999999 
    4   156     3  1.7508454  0.0007527  0.9999998  0.0005708 -0.0005708  0.9999998 
    4   156     4  1.7508736  0.0007884  0.9999999 -0.0003681  0.0003681  0.9999999 
    4   157     1  1.7452493 -0.0007669  0.9999999 -0.0003730  0.0003730  0.9999999 
    4   157     2  1.7505037  0.0008091  0.9999999 -0.0003718  0.0003718  0.9999999 
    4   157     3  1.7451770 -0.0008239  0.9999998  0.0005859 -0.0005859  0.9999998 
    4   157     4  1.7504762  0.0007654  0.9999998  0.0005862 -0.0005862  0.9999998 
    4   158     1  1.7447162 -0.0008383  0.9999998  0.0006031 -0.0006031  0.9999998 
    4   158     2  1.7447848 -0.0007758  0.9999999 -0.0003750  0.0003750  0.9999999 
    4   158     3  1.7500857  0.0007721  0.9999998  0.0006002 -0.0006002  0.9999998 
    4   158     4  1.7501139  0.0008226  0.9999999 -0.0003760  0.0003760  0.9999999 
    4   159     1  1.7416170  0.0007697  0.9999996  0.0008529 -0.0008529  0.9999996 
    4   159     2  1.7362873 -0.0008294  0.9999997  0.0008252 -0.0008252  0.9999997 
    4   159     3  1.7416946  0.0007816  1.0000000 -0.0001212  0.0001212  1.0000000 
    4   159     4  1.7364017 -0.0008066  1.0000000 -0.0001500  0.0001500  1.0000000 
    4   160     1  1.7421984  0.0007676  1.0000000 -0.0001290  0.0001290  1.0000000 
    4   160     2  1.7421140  0.0007594  0.9999997  0.0008280 -0.0008280  0.9999997 
    4   160     3  1.7369727 -0.0008006  1.0000000 -0.0001604  0.0001604  1.0000000 
    4   160     4  1.7368491 -0.0008205  0.9999997  0.0007969 -0.0007969  0.9999997 
    4   161     1  1.7256119  0.0006466  0.9999999  0.0003523 -0.0003523  0.9999999 
    4   161     2  1.7254497  0.0007149  0.9999991  0.0013091 -0.0013091  0.9999991 
    4   161     3  1.7204173 -0.0009188  1.0000000  0.0002667 -0.0002667  1.0000000 
    4   161     4  1.7202345 -0.0008566  0.9999993  0.0012230 -0.0012230  0.9999993 
    4   162     1  1.7286957 -0.0008505  1.0000000  0.0000524 -0.0000524  1.0000000 
    4   162     2  1.7339046  0.0007154  1.0000000  0.0001130 -0.0001130  1.0000000 
    4   162     3  1.7285355 -0.0008273  0.9999995  0.0010085 -0.0010085  0.9999995 
    4   162     4  1.7337749  0.0007477  0.9999994  0.0010701 -0.0010701  0.9999994 
    4   163     1  1.7278910 -0.0008393  0.9999995  0.0010485 -0.0010485  0.9999995 
    4   163     2  1.7280416 -0.0008545  1.0000000  0.0000757 -0.0000757  1.0000000 
    4   163     3  1.7331839  0.0007510  0.9999994  0.0011036 -0.0011036  0.9999994 
    4   163     4  1.7333045  0.0007270  1.0000000  0.0001315 -0.0001315  1.0000000 
    4   164     1  1.7247829  0.0007172  0.9999991  0.0013529 -0.0013529  0.9999991 
    4   164     2  1.7195272 -0.0008654  0.9999992  0.0012720 -0.0012720  0.9999992 
    4   164     3  1.7249346  0.0006545  0.9999999  0.0003827 -0.0003827  0.9999999 
    4   164     4  1.7197013 -0.0009216  1.0000000  0.0003013 -0.0003013  1.0000000 
    4   165     1  1.7242504  0.0006605  0.9999999  0.0004166 -0.0004166  0.9999999 
    4   165     2  1.7240902  0.0007166  0.9999990  0.0013996 -0.0013996  0.9999990 
    4   165     3  1.7189839 -0.0009254  0.9999999  0.0003353 -0.0003353  0.9999999 
    4   165     4  1.7188005 -0.0008758  0.9999991  0.0013208 -0.0013208  0.9999991 
    4   166     1  1.7273842 -0.0008567  1.0000000  0.0000979 -0.0000979  1.0000000 
    4   166     2  1.7326952  0.0007388  1.0000000  0.0001521 -0.0001521  1.0000000 
    4   166     3  1.7272243 -0.0008505  0.9999994  0.0010880 -0.0010880  0.9999994 
    4   166     4  1.7325675  0.0007545  0.9999993  0.0011403 -0.0011403  0.9999993 
    4   167     1  1.7265166 -0.0008599  0.9999994  0.0011264 -0.0011264  0.9999994 
    4   167     2  1.7266921 -0.0008612  1.0000000  0.0001197 -0.0001197  1.0000000 
    4   167     3  1.7319117  0.0007607  0.9999993  0.0011797 -0.0011797  0.9999993 
    4   167     4  1.7320517  0.0007491  1.0000000  0.0001763 -0.0001763  1.0000000 
    4   168     1  1.7233502  0.0007218  0.9999989  0.0014502 -0.0014502  0.9999989 
    4   168     2  1.7180283 -0.0008806  0.9999991  0.0013689 -0.0013689  0.9999991 
    4   168     3  1.7235265  0.0006679  0.9999999  0.0004548 -0.0004548  0.9999999 
    4   168     4  1.7182315 -0.0009269  0.9999999  0.0003701 -0.0003701  0.9999999 
    4   169     1  1.7405437  0.0007870  0.9999996  0.0009072 -0.0009072  0.9999996 
    4   169     2  1.7350862 -0.0008504  0.9999996  0.0008799 -0.0008799  0.9999996 
    4   169     3  1.7406324  0.0008059  1.0000000 -0.0001033  0.0001033  1.0000000 
    4   169     4  1.7352166 -0.0008191  1.0000000 -0.0001334  0.0001334  1.0000000 
    4   170     1  1.7411793  0.0007931  1.0000000 -0.0001130  0.0001130  1.0000000 
    4   170     2  1.7410975  0.0007761  0.9999996  0.0008796 -0.0008796  0.9999996 
    4   170     3  1.7358254 -0.0008133  1.0000000 -0.0001415  0.0001415  1.0000000 
    4   170     4  1.7357055 -0.0008416  0.9999996  0.0008536 -0.0008536  0.9999996 
    4   171     1  1.7443050 -0.0007832  0.9999999 -0.0003789  0.0003789  0.9999999 
    4   171     2  1.7497008  0.0008351  0.9999999 -0.0003806  0.0003806  0.9999999 
    4   171     3  1.7442330 -0.0008507  0.9999998  0.0006197 -0.0006197  0.9999998 
    4   171     4  1.7496709  0.0007803  0.9999998  0.0006158 -0.0006158  0.9999998 
    4   172     1  1.7437210 -0.0008634  0.9999998  0.0006348 -0.0006348  0.9999998 
    4   172     2  1.7437989 -0.0007905  0.9999999 -0.0003832  0.0003832  0.9999999 
    4   172     3  1.7492360  0.0007906  0.9999998  0.0006302 -0.0006302  0.9999998 
    4   172     4  1.7492684  0.0008498  0.9999999 -0.0003854  0.0003854  0.9999999 
    4   173     1  1.7432583 -0.0007991  0.9999999 -0.0003906  0.0003906  0.9999999 
    4   173     2  1.7488056  0.0008646  0.9999999 -0.0003929  0.0003929  0.9999999 
    4   173     3  1.7431660 -0.0008801  0.9999998  0.0006532 -0.0006532  0.9999998 
    4   173     4  1.7487685  0.0008002  0.9999998  0.0006482 -0.0006482  0.9999998 
    4   174     1  1.7425638 -0.0009001  0.9999998  0.0006704 -0.0006704  0.9999998 
    4   174     2  1.7426709 -0.0008143  0.9999999 -0.0003989  0.0003989  0.9999999 
    4   174     3  1.7482770  0.0008134  0.9999998  0.0006663 -0.0006663  0.9999998 
    4   174     4  1.7483180  0.0008793  0.9999999 -0.0003995  0.0003995  0.9999999 
    4   175     1  1.7392718  0.0008107  0.9999995  0.0009733 -0.0009733  0.9999995 
    4   175     2  1.7336403 -0.0008793  0.9999996  0.0009364 -0.0009364  0.9999996 
    4   175     3  1.7393984  0.0008283  1.0000000 -0.0000818  0.0000818  1.0000000 
    4   175     4  1.7338312 -0.0008426  1.0000000 -0.0001234  0.0001234  1.0000000 
    4   176     1  1.7400464  0.0008184  1.0000000 -0.0000943  0.0000943  1.0000000 
    4   176     2  1.7399387  0.0007961  0.9999996  0.0009394 -0.0009394  0.9999996 
    4   176     3  1.7345624 -0.0008271  1.0000000 -0.0001285  0.0001285  1.0000000 
    4   176     4  1.7344030 -0.0008648  0.9999996  0.0009093 -0.0009093  0.9999996 
    4   177     1  1.7227377  0.0006726  0.9999999  0.0004996 -0.0004996  0.9999999 
    4   177     2  1.7225170  0.0007214  0.9999989  0.0015068 -0.0015068  0.9999989 
    4   177     3  1.7174217 -0.0009299  0.9999999  0.0004058 -0.0004058  0.9999999 
    4   177     4  1.7171699 -0.0008895  0.9999990  0.0014193 -0.0014193  0.9999990 
    4   178     1  1.7259449 -0.0008651  1.0000000  0.0001396 -0.0001396  1.0000000 
    4   178     2  1.7313519  0.0007599  1.0000000  0.0002030 -0.0002030  1.0000000 
    4   178     3  1.7257261 -0.0008706  0.9999993  0.0011665 -0.0011665  0.9999993 
    4   178     4  1.7311786  0.0007675  0.9999992  0.0012249 -0.0012249  0.9999992 
    4   179     1  1.7248256 -0.0008805  0.9999993  0.0012049 -0.0012049  0.9999993 
    4   179     2  1.7250933 -0.0008772  1.0000000  0.0001597 -0.0001597  1.0000000 
    4   179     3  1.7303522  0.0007811  0.9999992  0.0012741 -0.0012741  0.9999992 
    4   179     4  1.7305621  0.0007677  1.0000000  0.0002351 -0.0002351  1.0000000 
    4   180     1  1.7215600  0.0007324  0.9999988  0.0015704 -0.0015704  0.9999988 
    4   180     2  1.7161826 -0.0008901  0.9999989  0.0014680 -0.0014680  0.9999989 
    4   180     3  1.7218324  0.0006761  0.9999998  0.0005543 -0.0005543  0.9999998 
    4   180     4  1.7164996 -0.0009344  0.9999999  0.0004434 -0.0004434  0.9999999 
    4   181     1  1.7207697  0.0006694  0.9999998  0.0006171 -0.0006171  0.9999998 
    4   181     2  1.7204106  0.0007429  0.9999986  0.0016437 -0.0016437  0.9999986 
    4   181     3  1.7154149 -0.0009540  0.9999999  0.0004781 -0.0004781  0.9999999 
    4   181     4  1.7149844 -0.0008996  0.9999989  0.0015163 -0.0015163  0.9999989 
    4   182     1  1.7241160 -0.0009060  1.0000000  0.0001763 -0.0001763  1.0000000 
    4   182     2  1.7296616  0.0007646  1.0000000  0.0002702 -0.0002702  1.0000000 
    4   182     3  1.7237676 -0.0009023  0.9999992  0.0012462 -0.0012462  0.9999992 
    4   182     4  1.7293960  0.0007922  0.9999991  0.0013326 -0.0013326  0.9999991 
    4   183     1  1.7225407 -0.0009328  0.9999992  0.0012939 -0.0012939  0.9999992 
    4   183     2  1.7229608 -0.0009529  1.0000000  0.0001979 -0.0001979  1.0000000 
    4   183     3  1.7283105  0.0008077  0.9999990  0.0014019 -0.0014019  0.9999990 
    4   183     4  1.7286226  0.0007563  1.0000000  0.0003118 -0.0003118  1.0000000 
    4   184     1  1.7190503  0.0007655  0.9999985  0.0017309 -0.0017309  0.9999985 
    4   184     2  1.7135003 -0.0009262  0.9999988  0.0015608 -0.0015608  0.9999988 
    4   184     3  1.7194870  0.0006297  0.9999998  0.0006864 -0.0006864  0.9999998 
    4   184     4  1.7140631 -0.0010273  0.9999999  0.0005064 -0.0005064  0.9999999 
    4   185     1  1.7376954  0.0008414  0.9999994  0.0010643 -0.0010643  0.9999994 
    4   185     2  1.7317973 -0.0009298  0.9999995  0.0010087 -0.0010087  0.9999995 
    4   185     3  1.7378764  0.0008485  1.0000000 -0.0000503  0.0000503  1.0000000 
    4   185     4  1.7320778 -0.0008932  1.0000000 -0.0001098  0.0001098  1.0000000 
    4   186     1  1.7386814  0.0008362  1.0000000 -0.0000687  0.0000687  1.0000000 
    4   186     2  1.7385240  0.0008237  0.9999995  0.0010162 -0.0010162  0.9999995 
    4   186     3  1.7330119 -0.0008661  1.0000000 -0.0001199  0.0001199  1.0000000 
    4   186     4  1.7327722 -0.0009029  0.9999995  0.0009701 -0.0009701  0.9999995 
    4   187     1  1.7420281 -0.0008330  0.9999999 -0.0004094  0.0004094  0.9999999 
    4   187     2  1.7477892  0.0008947  0.9999999 -0.0004070  0.0004070  0.9999999 
    4   187     3  1.7418982 -0.0009234  0.9999998  0.0006926 -0.0006926  0.9999998 
    4   187     4  1.7477426  0.0008293  0.9999998  0.0006913 -0.0006913  0.9999998 
    4   188     1  1.7411682 -0.0009495  0.9999997  0.0007163 -0.0007163  0.9999997 
    4   188     2  1.7413159 -0.0008530  0.9999999 -0.0004166  0.0004166  0.9999999 
    4   188     3  1.7471724  0.0008510  0.9999997  0.0007170 -0.0007170  0.9999997 
    4   188     4  1.7472239  0.0009187  0.9999999 -0.0004127  0.0004127  0.9999999 
    4   189     1  1.7405386 -0.0008742  0.9999999 -0.0004235  0.0004235  0.9999999 
    4   189     2  1.7466048  0.0009448  0.9999999 -0.0004195  0.0004195  0.9999999 
    4   189     3  1.7403720 -0.0009818  0.9999997  0.0007475 -0.0007475  0.9999997 
    4   189     4  1.7465470  0.0008699  0.9999997  0.0007482 -0.0007482  0.9999997 
    4   190     1  1.7395211 -0.0010123  0.9999997  0.0007778 -0.0007778  0.9999997 
    4   190     2  1.7396953 -0.0008958  0.9999999 -0.0004282  0.0004282  0.9999999 
    4   190     3  1.7458802  0.0008945  0.9999997  0.0007778 -0.0007778  0.9999997 
    4   190     4  1.7459416  0.0009772  0.9999999 -0.0004255  0.0004255  0.9999999 
    4   191     1  1.7358218  0.0008878  0.9999993  0.0011766 -0.0011766  0.9999993 
    4   191     2  1.7295574 -0.0009932  0.9999994  0.0011146 -0.0011146  0.9999994 
    4   191     3  1.7360399  0.0009107  1.0000000 -0.0000151  0.0000151  1.0000000 
    4   191     4  1.7298928 -0.0009353  1.0000000 -0.0000779  0.0000779  1.0000000 
    4   192     1  1.7369948  0.0008734  1.0000000 -0.0000324  0.0000324  1.0000000 
    4   192     2  1.7367870  0.0008596  0.9999994  0.0011212 -0.0011212  0.9999994 
    4   192     3  1.7310347 -0.0009169  1.0000000 -0.0000959  0.0000959  1.0000000 
    4   192     4  1.7307125 -0.0009647  0.9999994  0.0010604 -0.0010604  0.9999994 
    4   193     1  1.7216411 -0.0009816  1.0000000  0.0002327 -0.0002327  1.0000000 
    4   193     2  1.7274567  0.0007753  0.9999999  0.0003570 -0.0003570  0.9999999 
    4   193     3  1.7211461 -0.0009734  0.9999991  0.0013633 -0.0013633  0.9999991 
    4   193     4  1.7270928  0.0008221  0.9999989  0.0014849 -0.0014849  0.9999989 
    4   194     1  1.7196285 -0.0010006  0.9999990  0.0014435 -0.0014435  0.9999990 
    4   194     2  1.7201415 -0.0009973  1.0000000  0.0002696 -0.0002696  1.0000000 
    4   194     3  1.7258016  0.0008627  0.9999988  0.0015700 -0.0015700  0.9999988 
    4   194     4  1.7261841  0.0008270  0.9999999  0.0003937 -0.0003937  0.9999999 
    4   195     1  1.7157831  0.0008254  0.9999981  0.0019631 -0.0019631  0.9999981 
    4   195     2  1.7097712 -0.0010127  0.9999985  0.0017548 -0.0017548  0.9999985 
    4   195     3  1.7163451  0.0007090  0.9999997  0.0008211 -0.0008211  0.9999997 
    4   195     4  1.7105043 -0.0010764  0.9999998  0.0006213 -0.0006213  0.9999998 
    4   196     1  1.7179916  0.0006165  0.9999997  0.0007571 -0.0007571  0.9999997 
    4   196     2  1.7174682  0.0007789  0.9999983  0.0018428 -0.0018428  0.9999983 
    4   196     3  1.7123954 -0.0011012  0.9999998  0.0005498 -0.0005498  0.9999998 
    4   196     4  1.7117056 -0.0009872  0.9999987  0.0016375 -0.0016375  0.9999987 
    4   197     1  1.7186104 -0.0010069  1.0000000  0.0003087 -0.0003087  1.0000000 
    4   197     2  1.7248703  0.0008803  0.9999999  0.0004234 -0.0004234  0.9999999 
    4   197     3  1.7181098 -0.0010241  0.9999988  0.0015252 -0.0015252  0.9999988 
    4   197     4  1.7244874  0.0008986  0.9999986  0.0016446 -0.0016446  0.9999986 
    4   198     1  1.7166174 -0.0010619  0.9999987  0.0016089 -0.0016089  0.9999987 
    4   198     2  1.7170686 -0.0010312  0.9999999  0.0003522 -0.0003522  0.9999999 
    4   198     3  1.7231860  0.0009151  0.9999985  0.0017134 -0.0017134  0.9999985 
    4   198     4  1.7235475  0.0009188  0.9999999  0.0004515 -0.0004515  0.9999999 
    4   199     1  1.7125787  0.0008857  0.9999977  0.0021478 -0.0021478  0.9999977 
    4   199     2  1.7060907 -0.0010793  0.9999980  0.0019862 -0.0019862  0.9999980 
    4   199     3  1.7130520  0.0008143  0.9999996  0.0008890 -0.0008890  0.9999996 
    4   199     4  1.7066327 -0.0011281  0.9999997  0.0007410 -0.0007410  0.9999997 
    4   200     1  1.7146618  0.0007908  0.9999996  0.0008461 -0.0008461  0.9999996 
    4   200     2  1.7141168  0.0008972  0.9999979  0.0020666 -0.0020666  0.9999979 
    4   200     3  1.7084404 -0.0011022  0.9999998  0.0006630 -0.0006630  0.9999998 
    4   200     4  1.7077759 -0.0010344  0.9999983  0.0018681 -0.0018681  0.9999983 
    4   201     1  1.7337911  0.0009344  0.9999992  0.0012751 -0.0012751  0.9999992 
    4   201     2  1.7271546 -0.0010568  0.9999992  0.0012253 -0.0012253  0.9999992 
    4   201     3  1.7340121  0.0009896  1.0000000  0.0000101 -0.0000101  1.0000000 
    4   201     4  1.7274796 -0.0009707  1.0000000 -0.0000396  0.0000396  1.0000000 
    4   202     1  1.7350410  0.0009547  1.0000000 -3.34e-006  3.34e-006  1.0000000 
    4   202     2  1.7348167  0.0009157  0.9999992  0.0012289 -0.0012289  0.9999992 
    4   202     3  1.7286952 -0.0009502  1.0000000 -0.0000602  0.0000602  1.0000000 
    4   202     4  1.7283570 -0.0010232  0.9999993  0.0011713 -0.0011713  0.9999993 
    4   203     1  1.7388079 -0.0009194  0.9999999 -0.0004331  0.0004331  0.9999999 
    4   203     2  1.7452342  0.0010075  0.9999999 -0.0004320  0.0004320  0.9999999 
    4   203     3  1.7386299 -0.0010442  0.9999997  0.0008089 -0.0008089  0.9999997 
    4   203     4  1.7451701  0.0009169  0.9999997  0.0008070 -0.0008070  0.9999997 
    4   204     1  1.7377064 -0.0010732  0.9999996  0.0008371 -0.0008371  0.9999996 
    4   204     2  1.7378825 -0.0009421  0.9999999 -0.0004371  0.0004371  0.9999999 
    4   204     3  1.7444292  0.0009426  0.9999997  0.0008333 -0.0008333  0.9999997 
    4   204     4  1.7444944  0.0010405  0.9999999 -0.0004381  0.0004381  0.9999999 
    4   205     1  1.7369287 -0.0009665  0.9999999 -0.0004397  0.0004397  0.9999999 
    4   205     2  1.7437233  0.0010707  0.9999999 -0.0004415  0.0004415  0.9999999 
    4   205     3  1.7367443 -0.0011077  0.9999996  0.0008648 -0.0008648  0.9999996 
    4   205     4  1.7436542  0.0009641  0.9999996  0.0008587 -0.0008587  0.9999996 
    4   206     1  1.7357128 -0.0011411  0.9999996  0.0008904 -0.0008904  0.9999996 
    4   206     2  1.7359192 -0.0009892  0.9999999 -0.0004457  0.0004457  0.9999999 
    4   206     3  1.7428396  0.0009957  0.9999996  0.0008848 -0.0008848  0.9999996 
    4   206     4  1.7429155  0.0011083  0.9999999 -0.0004464  0.0004464  0.9999999 
    4   207     1  1.7315764  0.0009613  0.9999991  0.0013727 -0.0013727  0.9999991 
    4   207     2  1.7246064 -0.0011287  0.9999991  0.0013332 -0.0013332  0.9999991 
    4   207     3  1.7318404  0.0010643  1.0000000  0.0000590 -0.0000590  1.0000000 
    4   207     4  1.7249795 -0.0009932  1.0000000  0.0000132 -0.0000132  1.0000000 
    4   208     1  1.7329558  0.0010261  1.0000000  0.0000301 -0.0000301  1.0000000 
    4   208     2  1.7327222  0.0009448  0.9999991  0.0013218 -0.0013218  0.9999991 
    4   208     3  1.7262526 -0.0009846  1.0000000 -0.0000133  0.0000133  1.0000000 
    4   208     4  1.7259182 -0.0010958  0.9999992  0.0012803 -0.0012803  0.9999992 
    4   209     1  1.7115244  0.0008694  0.9999996  0.0009485 -0.0009485  0.9999996 
    4   209     2  1.7110559  0.0008199  0.9999975  0.0022423 -0.0022423  0.9999975 
    4   209     3  1.7048943 -0.0011256  0.9999996  0.0008448 -0.0008448  0.9999996 
    4   209     4  1.7044007 -0.0011827  0.9999977  0.0021316 -0.0021316  0.9999977 
    4   210     1  1.7156106 -0.0010436  0.9999999  0.0004116 -0.0004116  0.9999999 
    4   210     2  1.7222338  0.0009470  0.9999999  0.0004966 -0.0004966  0.9999999 
    4   210     3  1.7151700 -0.0011121  0.9999986  0.0016940 -0.0016940  0.9999986 
    4   210     4  1.7218670  0.0009003  0.9999984  0.0017793 -0.0017793  0.9999984 
    4   211     1  1.7136649 -0.0011446  0.9999984  0.0017768 -0.0017768  0.9999984 
    4   211     2  1.7141339 -0.0010427  0.9999999  0.0004754 -0.0004754  0.9999999 
    4   211     3  1.7204618  0.0008962  0.9999983  0.0018546 -0.0018546  0.9999983 
    4   211     4  1.7208653  0.0009791  0.9999998  0.0005597 -0.0005597  0.9999998 
    4   212     1  1.7095225  0.0008040  0.9999973  0.0023204 -0.0023204  0.9999973 
    4   212     2  1.7028363 -0.0012049  0.9999975  0.0022308 -0.0022308  0.9999975 
    4   212     3  1.7100038  0.0008920  0.9999995  0.0010274 -0.0010274  0.9999995 
    4   212     4  1.7033267 -0.0011148  0.9999996  0.0009333 -0.0009333  0.9999996 
    4   213     1  1.7083791  0.0008923  0.9999993  0.0011468 -0.0011468  0.9999993 
    4   213     2  1.7077866  0.0007821  0.9999971  0.0024050 -0.0024050  0.9999971 
    4   213     3  1.7017883 -0.0010905  0.9999995  0.0010312 -0.0010312  0.9999995 
    4   213     4  1.7012077 -0.0011958  0.9999973  0.0023072 -0.0023072  0.9999973 
    4   214     1  1.7125954 -0.0010191  0.9999999  0.0005450 -0.0005450  0.9999999 
    4   214     2  1.7193442  0.0010096  0.9999998  0.0006552 -0.0006552  0.9999998 
    4   214     3  1.7119948 -0.0011469  0.9999983  0.0018443 -0.0018443  0.9999983 
    4   214     4  1.7188299  0.0009066  0.9999981  0.0019366 -0.0019366  0.9999981 
    4   215     1  1.7098822 -0.0011411  0.9999982  0.0018901 -0.0018901  0.9999982 
    4   215     2  1.7107478 -0.0010475  0.9999998  0.0005974 -0.0005974  0.9999998 
    4   215     3  1.7167846  0.0009438  0.9999979  0.0020438 -0.0020438  0.9999979 
    4   215     4  1.7174699  0.0009876  0.9999997  0.0007795 -0.0007795  0.9999997 
    4   216     1  1.7055473  0.0007527  0.9999968  0.0025173 -0.0025173  0.9999968 
    4   216     2  1.6993514 -0.0011173  0.9999972  0.0023754 -0.0023754  0.9999972 
    4   216     3  1.7063712  0.0008811  0.9999991  0.0013580 -0.0013580  0.9999991 
    4   216     4  1.7001782 -0.0009938  0.9999993  0.0011652 -0.0011652  0.9999993 
    4   217     1  1.7287493  0.0010342  0.9999989  0.0015082 -0.0015082  0.9999989 
    4   217     2  1.7212735 -0.0012117  0.9999990  0.0014192 -0.0014192  0.9999990 
    4   217     3  1.7291707  0.0010985  1.0000000  0.0001450 -0.0001450  1.0000000 
    4   217     4  1.7219182 -0.0010814  1.0000000  0.0000431 -0.0000431  1.0000000 
    4   218     1  1.7306054  0.0011009  1.0000000  0.0000999 -0.0000999  1.0000000 
    4   218     2  1.7302706  0.0009920  0.9999990  0.0014303 -0.0014303  0.9999990 
    4   218     3  1.7235797 -0.0010065  1.0000000  0.0000362 -0.0000362  1.0000000 
    4   218     4  1.7230986 -0.0011590  0.9999991  0.0013780 -0.0013780  0.9999991 
    4   219     1  1.7348270 -0.0010251  0.9999999 -0.0004567  0.0004567  0.9999999 
    4   219     2  1.7420695  0.0011461  0.9999999 -0.0004515  0.0004515  0.9999999 
    4   219     3  1.7345684 -0.0011878  0.9999996  0.0009137 -0.0009137  0.9999996 
    4   219     4  1.7419811  0.0010346  0.9999996  0.0009122 -0.0009122  0.9999996 
    4   220     1  1.7332767 -0.0012513  0.9999996  0.0009452 -0.0009452  0.9999996 
    4   220     2  1.7336006 -0.0010852  0.9999999 -0.0004727  0.0004727  0.9999999 
    4   220     3  1.7410502  0.0010793  0.9999995  0.0009535 -0.0009535  0.9999995 
    4   220     4  1.7411519  0.0011787  0.9999999 -0.0004570  0.0004570  0.9999999 
    4   221     1  1.7322209 -0.0011365  0.9999999 -0.0004690  0.0004690  0.9999999 
    4   221     2  1.7401431  0.0012383  0.9999999 -0.0004492  0.0004492  0.9999999 
    4   221     3  1.7318154 -0.0013338  0.9999995  0.0009935 -0.0009935  0.9999995 
    4   221     4  1.7400180  0.0011250  0.9999995  0.0010068 -0.0010068  0.9999995 
    4   222     1  1.7301606 -0.0014207  0.9999994  0.0010562 -0.0010562  0.9999994 
    4   222     2  1.7306302 -0.0011880  0.9999999 -0.0004660  0.0004660  0.9999999 
    4   222     3  1.7388602  0.0011866  0.9999994  0.0010702 -0.0010702  0.9999994 
    4   222     4  1.7390065  0.0013225  0.9999999 -0.0004472  0.0004472  0.9999999 
    4   223     1  1.7249742  0.0011061  0.9999985  0.0017360 -0.0017360  0.9999985 
    4   223     2  1.7166264 -0.0014003  0.9999987  0.0016162 -0.0016162  0.9999987 
    4   223     3  1.7256163  0.0012649  1.0000000  0.0002611 -0.0002611  1.0000000 
    4   223     4  1.7175922 -0.0011451  1.0000000  0.0001431 -0.0001431  1.0000000 
    4   224     1  1.7274980  0.0011160  1.0000000  0.0002020 -0.0002020  1.0000000 
    4   224     2  1.7269649  0.0010602  0.9999987  0.0016138 -0.0016138  0.9999987 
    4   224     3  1.7198898 -0.0011743  1.0000000  0.0000725 -0.0000725  1.0000000 
    4   224     4  1.7190613 -0.0013178  0.9999989  0.0014901 -0.0014901  0.9999989 
    4   225     1  1.7081826 -0.0012310  0.9999998  0.0006387 -0.0006387  0.9999998 
    4   225     2  1.7150411  0.0008812  0.9999996  0.0009158 -0.0009158  0.9999996 
    4   225     3  1.7068526 -0.0012439  0.9999981  0.0019246 -0.0019246  0.9999981 
    4   225     4  1.7141427  0.0009933  0.9999976  0.0021941 -0.0021941  0.9999976 
    4   226     1  1.7028251 -0.0014395  0.9999977  0.0021401 -0.0021401  0.9999977 
    4   226     2  1.7043406 -0.0012138  0.9999998  0.0006890 -0.0006890  0.9999998 
    4   226     3  1.7110755  0.0010692  0.9999971  0.0024188 -0.0024188  0.9999971 
    4   226     4  1.7122330  0.0011853  0.9999996  0.0009441 -0.0009441  0.9999996 
    4   227     1  1.6969851  0.0011133  0.9999954  0.0030371 -0.0030371  0.9999954 
    4   227     2  1.6903045 -0.0012258  0.9999971  0.0023900 -0.0023900  0.9999971 
    4   227     3  1.6984654  0.0005189  0.9999980  0.0020005 -0.0020005  0.9999980 
    4   227     4  1.6929733 -0.0013703  0.9999989  0.0015052 -0.0015052  0.9999989 
    4   228     1  1.7031125  0.0004555  0.9999984  0.0017839 -0.0017839  0.9999984 
    4   228     2  1.7020732  0.0007355  0.9999964  0.0026877 -0.0026877  0.9999964 
    4   228     3  1.6980846 -0.0012181  0.9999991  0.0013761 -0.0013761  0.9999991 
    4   228     4  1.6966992 -0.0009952  0.9999973  0.0023428 -0.0023428  0.9999973 
    4   229     1  1.6944773  0.0016770  0.9999985  0.0017161 -0.0017161  0.9999985 
    4   229     2  1.6929142  0.0012676  0.9999937  0.0035554 -0.0035554  0.9999937 
    4   229     3  1.6848840 -0.0012065  0.9999988  0.0015486 -0.0015486  0.9999988 
    4   229     4  1.6840387 -0.0014047  0.9999949  0.0032066 -0.0032066  0.9999949 
    4   230     1  1.7012391 -0.0011510  0.9999997  0.0007857 -0.0007857  0.9999997 
    4   230     2  1.7093084  0.0012977  0.9999995  0.0010079 -0.0010079  0.9999995 
    4   230     3  1.6999223 -0.0012867  0.9999975  0.0022322 -0.0022322  0.9999975 
    4   230     4  1.7081981  0.0012286  0.9999969  0.0024860 -0.0024860  0.9999969 
    4   231     1  1.6961645 -0.0016107  0.9999967  0.0025634 -0.0025634  0.9999967 
    4   231     2  1.6973362 -0.0012044  0.9999995  0.0009509 -0.0009509  0.9999995 
    4   231     3  1.7049728  0.0010261  0.9999964  0.0026969 -0.0026969  0.9999964 
    4   231     4  1.7063604  0.0014985  0.9999994  0.0010771 -0.0010771  0.9999994 
    4   232     1  1.6903313  0.0009546  0.9999939  0.0034987 -0.0034987  0.9999939 
    4   232     2  1.6814494 -0.0017021  0.9999938  0.0035223 -0.0035223  0.9999938 
    4   232     3  1.6914333  0.0015612  0.9999984  0.0018029 -0.0018029  0.9999984 
    4   232     4  1.6822504 -0.0011908  0.9999983  0.0018545 -0.0018545  0.9999983 
    4   233     1  1.7199639  0.0012168  0.9999981  0.0019460 -0.0019460  0.9999981 
    4   233     2  1.7111299 -0.0014212  0.9999983  0.0018609 -0.0018609  0.9999983 
    4   233     3  1.7210370  0.0016801  0.9999999  0.0004436 -0.0004436  0.9999999 
    4   233     4  1.7124657 -0.0008773  0.9999999  0.0003258 -0.0003258  0.9999999 
    4   234     1  1.7235336  0.0014343  1.0000000  0.0002976 -0.0002976  1.0000000 
    4   234     2  1.7227687  0.0011991  0.9999983  0.0018421 -0.0018421  0.9999983 
    4   234     3  1.7149404 -0.0011436  1.0000000  0.0001847 -0.0001847  1.0000000 
    4   234     4  1.7138841 -0.0014654  0.9999985  0.0017290 -0.0017290  0.9999985 
    4   235     1  1.7289137 -0.0011941  0.9999999 -0.0004609  0.0004609  0.9999999 
    4   235     2  1.7377677  0.0014581  0.9999999 -0.0004497  0.0004497  0.9999999 
    4   235     3  1.7283358 -0.0015070  0.9999994  0.0011124 -0.0011124  0.9999994 
    4   235     4  1.7375814  0.0012627  0.9999994  0.0011163 -0.0011163  0.9999994 
    4   236     1  1.7259649 -0.0016436  0.9999993  0.0011470 -0.0011470  0.9999993 
    4   236     2  1.7268580 -0.0011966  0.9999999 -0.0005276  0.0005276  0.9999999 
    4   236     3  1.7361673  0.0014108  0.9999993  0.0011518 -0.0011518  0.9999993 
    4   236     4  1.7364433  0.0016716  0.9999999 -0.0005015  0.0005015  0.9999999 
    4   237     1  1.7239113 -0.0014178  0.9999998 -0.0006368  0.0006368  0.9999998 
    4   237     2  1.7348842  0.0018725  0.9999998 -0.0005832  0.0005832  0.9999998 
    4   237     3  1.7222789 -0.0019580  0.9999993  0.0011835 -0.0011835  0.9999993 
    4   237     4  1.7344289  0.0016842  0.9999992  0.0012508 -0.0012508  0.9999992 
    4   238     1  1.7170536 -0.0027011  0.9999987  0.0015944 -0.0015944  0.9999987 
    4   238     2  1.7191667 -0.0012990  0.9999999 -0.0005281  0.0005281  0.9999999 
    4   238     3  1.7325211  0.0019170  0.9999990  0.0013924 -0.0013924  0.9999990 
    4   238     4  1.7332984  0.0029346  0.9999997 -0.0007442  0.0007442  0.9999997 
    4   239     1  1.7070345  0.0017190  0.9999964  0.0026764 -0.0026764  0.9999964 
    4   239     2  1.6952814 -0.0017855  0.9999971  0.0023879 -0.0023879  0.9999971 
    4   239     3  1.7102833  0.0028112  0.9999997  0.0007791 -0.0007791  0.9999997 
    4   239     4  1.7003127 -0.0001767  0.9999997  0.0007500 -0.0007500  0.9999997 
    4   240     1  1.7169064  0.0014553  0.9999996  0.0008486 -0.0008486  0.9999996 
    4   240     2  1.7152807  0.0011440  0.9999976  0.0021680 -0.0021680  0.9999976 
    4   240     3  1.7092130 -0.0008901  0.9999999  0.0005263 -0.0005263  0.9999999 
    4   240     4  1.7068379 -0.0014146  0.9999982  0.0019188 -0.0019188  0.9999982 
    4   241     1  1.6881161  0.0010130  0.9999979  0.0020371 -0.0020371  0.9999979 
    4   241     2  1.6874434  0.0005670  0.9999934  0.0036296 -0.0036296  0.9999934 
    4   241     3  1.6797797 -0.0015391  0.9999970  0.0024362 -0.0024362  0.9999970 
    4   241     4  1.6800602 -0.0016591  0.9999929  0.0037562 -0.0037562  0.9999929 
    4   242     1  1.6951876  0.0000874  0.9999994  0.0011218 -0.0011218  0.9999994 
    4   242     2  1.7027371  0.0021367  0.9999991  0.0013511 -0.0013511  0.9999991 
    4   242     3  1.6934591 -0.0012147  0.9999965  0.0026585 -0.0026585  0.9999965 
    4   242     4  1.7004124  0.0007851  0.9999965  0.0026504 -0.0026504  0.9999965 
    4   243     1  1.6905751  0.0007767  0.9999950  0.0031543 -0.0031543  0.9999950 
    4   243     2  1.6860828 -0.0020261  0.9999911  0.0042196 -0.0042196  0.9999911 
    4   243     3  1.6876765  0.0014731  0.9999949  0.0032075 -0.0032075  0.9999949 
    4   243     4  1.6853233 -0.0007267  0.9999922  0.0039518 -0.0039518  0.9999922 
    4   244     1  1.6651808 -0.0017782  0.9999957  0.0029429 -0.0029429  0.9999957 
    4   244     2  1.6747982  0.0011642  0.9999966  0.0025956 -0.0025956  0.9999966 
    4   244     3  1.6644475 -0.0024359  0.9999889  0.0047052 -0.0047052  0.9999889 
    4   244     4  1.6750578  0.0007769  0.9999901  0.0044581 -0.0044581  0.9999901 
    4   245     1  1.6625927 -0.0040400  0.9999864  0.0052084 -0.0052084  0.9999864 
    4   245     2  1.6631495 -0.0022437  0.9999967  0.0025819 -0.0025819  0.9999967 
    4   245     3  1.6796993  0.0013120  0.9999906  0.0043433 -0.0043433  0.9999906 
    4   245     4  1.6764662  0.0017880  0.9999977  0.0021269 -0.0021269  0.9999977 
    4   246     1  1.6520795  0.0010490  0.9999812  0.0061264 -0.0061264  0.9999812 
    4   246     2  1.6394553 -0.0027484  0.9999829  0.0058413 -0.0058413  0.9999829 
    4   246     3  1.6546340  0.0017255  0.9999918  0.0040458 -0.0040458  0.9999918 
    4   246     4  1.6444254 -0.0013387  0.9999921  0.0039852 -0.0039852  0.9999921 
    4   247     1  1.6602174  0.0008799  0.9999926  0.0038406 -0.0038406  0.9999926 
    4   247     2  1.6590824  0.0003400  0.9999855  0.0053850 -0.0053850  0.9999855 
    4   247     3  1.6521465 -0.0015155  0.9999932  0.0036852 -0.0036852  0.9999932 
    4   247     4  1.6499793 -0.0023797  0.9999856  0.0053598 -0.0053598  0.9999856 
    4   248     1  1.6671491 -0.0020508  0.9999898  0.0045146 -0.0045146  0.9999898 
    4   248     2  1.6678581 -0.0014130  0.9999959  0.0028645 -0.0028645  0.9999959 
    4   248     3  1.6759813  0.0006039  0.9999904  0.0043836 -0.0043836  0.9999904 
    4   248     4  1.6767168  0.0012539  0.9999963  0.0027191 -0.0027191  0.9999963 
    4   249     1  1.6620330  0.0003052  0.9999868  0.0051372 -0.0051372  0.9999868 
    4   249     2  1.6533102 -0.0023303  0.9999858  0.0053277 -0.0053277  0.9999858 
    4   249     3  1.6627630  0.0010011  0.9999938  0.0035202 -0.0035202  0.9999938 
    4   249     4  1.6541549 -0.0015801  0.9999934  0.0036394 -0.0036394  0.9999934 
    4   250     1  1.6637705  0.0009783  0.9999950  0.0031597 -0.0031597  0.9999950 
    4   250     2  1.6636024  0.0001118  0.9999887  0.0047466 -0.0047466  0.9999887 
    4   250     3  1.6553378 -0.0015990  0.9999940  0.0034625 -0.0034625  0.9999940 
    4   250     4  1.6549281 -0.0025619  0.9999870  0.0051033 -0.0051033  0.9999870 
    4   251     1  1.6696126 -0.0016496  0.9999965  0.0026403 -0.0026403  0.9999965 
    4   251     2  1.6797237  0.0014147  0.9999972  0.0023859 -0.0023859  0.9999972 
    4   251     3  1.6693670 -0.0023829  0.9999894  0.0046049 -0.0046049  0.9999894 
    4   251     4  1.6789719  0.0005978  0.9999914  0.0041564 -0.0041564  0.9999914 
    4   252     1  1.6393349 -0.0026486  0.9999829  0.0058510 -0.0058510  0.9999829 
    4   252     2  1.6401278 -0.0019416  0.9999914  0.0041493 -0.0041493  0.9999914 
    4   252     3  1.6480080 -0.0000374  0.9999838  0.0056967 -0.0056967  0.9999838 
    4   252     4  1.6488370  0.0006696  0.9999919  0.0040364 -0.0040364  0.9999919 
    4   253     1  1.6340796 -0.0003032  0.9999790  0.0064839 -0.0064839  0.9999790 
    4   253     2  1.6258086 -0.0027956  0.9999779  0.0066531 -0.0066531  0.9999779 
    4   253     3  1.6348230  0.0004368  0.9999882  0.0048509 -0.0048509  0.9999882 
    4   253     4  1.6265108 -0.0020724  0.9999873  0.0050328 -0.0050328  0.9999873 
    4   254     1  1.6368502  0.0003620  0.9999891  0.0046760 -0.0046760  0.9999891 
    4   254     2  1.6362249 -0.0002886  0.9999803  0.0062753 -0.0062753  0.9999803 
    4   254     3  1.6287348 -0.0020794  0.9999884  0.0048176 -0.0048176  0.9999884 
    4   254     4  1.6280074 -0.0027613  0.9999794  0.0064230 -0.0064230  0.9999794 
    4   255     1  1.6418515 -0.0019396  0.9999917  0.0040750 -0.0040750  0.9999917 
    4   255     2  1.6502950  0.0006080  0.9999924  0.0038993 -0.0038993  0.9999924 
    4   255     3  1.6412792 -0.0026200  0.9999836  0.0057263 -0.0057263  0.9999836 
    4   255     4  1.6498639 -0.0000233  0.9999847  0.0055248 -0.0055248  0.9999847 
    4   256     1  1.6321074 -0.0001514  0.9999865  0.0052038 -0.0052038  0.9999865 
    4   256     2  1.6316333 -0.0006334  0.9999771  0.0067693 -0.0067693  0.9999771 
    4   256     3  1.6243890 -0.0025474  0.9999840  0.0056624 -0.0056624  0.9999840 
    4   256     4  1.6246833 -0.0027449  0.9999757  0.0069670 -0.0069670  0.9999757 
    4   257     1  1.6387784 -0.0008337  0.9999907  0.0043134 -0.0043134  0.9999907 
    4   257     2  1.6463242  0.0012217  0.9999901  0.0044554 -0.0044554  0.9999901 
    4   257     3  1.6372855 -0.0022140  0.9999822  0.0059584 -0.0059584  0.9999822 
    4   257     4  1.6443140 -0.0001560  0.9999829  0.0058398 -0.0058398  0.9999829 
    4   258     1  1.6346096 -0.0004422  0.9999794  0.0064195 -0.0064195  0.9999794 
    4   258     2  1.6307686 -0.0032207  0.9999719  0.0074908 -0.0074908  0.9999719 
    4   258     3  1.6322393  0.0004293  0.9999782  0.0066009 -0.0066009  0.9999782 
    4   258     4  1.6302205 -0.0017881  0.9999733  0.0073053 -0.0073053  0.9999733 
    4   259     1  1.6127885 -0.0030791  0.9999718  0.0075136 -0.0075136  0.9999718 
    4   259     2  1.6136520 -0.0024903  0.9999822  0.0059698 -0.0059698  0.9999822 
    4   259     3  1.6207893 -0.0006783  0.9999725  0.0074212 -0.0074212  0.9999725 
    4   259     4  1.6214700 -0.0001393  0.9999828  0.0058582 -0.0058582  0.9999828 
    4   260     1  1.6078662 -0.0011637  0.9999665  0.0081803 -0.0081803  0.9999665 
    4   260     2  1.6000960 -0.0034852  0.9999663  0.0082058 -0.0082058  0.9999663 
    4   260     3  1.6088350 -0.0005916  0.9999779  0.0066478 -0.0066478  0.9999779 
    4   260     4  1.6012594 -0.0028517  0.9999779  0.0066503 -0.0066503  0.9999779 
    4   261     1  1.6111511 -0.0006810  0.9999802  0.0062925 -0.0062925  0.9999802 
    4   261     2  1.6102907 -0.0010892  0.9999694  0.0078276 -0.0078276  0.9999694 
    4   261     3  1.6035628 -0.0029530  0.9999803  0.0062825 -0.0062825  0.9999803 
    4   261     4  1.6026027 -0.0033906  0.9999694  0.0078187 -0.0078187  0.9999694 
    4   262     1  1.6160693 -0.0024084  0.9999842  0.0056262 -0.0056262  0.9999842 
    4   262     2  1.6237930 -0.0000940  0.9999846  0.0055528 -0.0055528  0.9999846 
    4   262     3  1.6152189 -0.0030005  0.9999743  0.0071677 -0.0071677  0.9999743 
    4   262     4  1.6230578 -0.0006522  0.9999748  0.0070932 -0.0070932  0.9999748 
    4   263     1  1.6107487 -0.0028659  0.9999811  0.0061432 -0.0061432  0.9999811 
    4   263     2  1.6196688 -0.0001254  0.9999833  0.0057809 -0.0057809  0.9999833 
    4   263     3  1.6098861 -0.0035979  0.9999690  0.0078705 -0.0078705  0.9999690 
    4   263     4  1.6198682 -0.0005709  0.9999710  0.0076108 -0.0076108  0.9999710 
    4   264     1  1.6078167 -0.0052762  0.9999635  0.0085466 -0.0085466  0.9999635 
    4   264     2  1.6085732 -0.0032527  0.9999827  0.0058782 -0.0058782  0.9999827 
    4   264     3  1.6245128 -0.0000108  0.9999712  0.0075886 -0.0075886  0.9999712 
    4   264     4  1.6213841  0.0006371  0.9999856  0.0053672 -0.0053672  0.9999856 
    4   265     1  1.5974913 -0.0003745  0.9999556  0.0094215 -0.0094215  0.9999556 
    4   265     2  1.5854800 -0.0040006  0.9999587  0.0090835 -0.0090835  0.9999587 
    4   265     3  1.6001518  0.0002479  0.9999732  0.0073202 -0.0073202  0.9999732 
    4   265     4  1.5904153 -0.0026761  0.9999738  0.0072400 -0.0072400  0.9999738 
    4   266     1  1.6059647 -0.0007055  0.9999751  0.0070603 -0.0070603  0.9999751 
    4   266     2  1.6047584 -0.0011112  0.9999634  0.0085502 -0.0085502  0.9999634 
    4   266     3  1.5986551 -0.0028924  0.9999766  0.0068432 -0.0068432  0.9999766 
    4   266     4  1.5964081 -0.0036120  0.9999644  0.0084321 -0.0084321  0.9999644 
    4   267     1  1.5868866 -0.0039320  0.9999621  0.0087076 -0.0087076  0.9999621 
    4   267     2  1.5880686 -0.0034830  0.9999751  0.0070591 -0.0070591  0.9999751 
    4   267     3  1.5949229 -0.0015267  0.9999615  0.0087705 -0.0087705  0.9999615 
    4   267     4  1.5961327 -0.0010693  0.9999745  0.0071371 -0.0071371  0.9999745 
    4   268     1  1.5814985 -0.0019000  0.9999546  0.0095308 -0.0095308  0.9999546 
    4   268     2  1.5737187 -0.0042262  0.9999552  0.0094705 -0.0094705  0.9999552 
    4   268     3  1.5826497 -0.0014273  0.9999688  0.0078952 -0.0078952  0.9999688 
    4   268     4  1.5748247 -0.0037703  0.9999691  0.0078668 -0.0078668  0.9999691 
    4   269     1  1.5856856 -0.0015114  0.9999710  0.0076183 -0.0076183  0.9999710 
    4   269     2  1.5845701 -0.0018346  0.9999579  0.0091756 -0.0091756  0.9999579 
    4   269     3  1.5781791 -0.0037645  0.9999719  0.0075021 -0.0075021  0.9999719 
    4   269     4  1.5769838 -0.0041109  0.9999590  0.0090504 -0.0090504  0.9999590 
    4   270     1  1.5908487 -0.0034293  0.9999768  0.0068144 -0.0068144  0.9999768 
    4   270     2  1.5985842 -0.0011105  0.9999762  0.0068934 -0.0068934  0.9999762 
    4   270     3  1.5897589 -0.0037928  0.9999648  0.0083898 -0.0083898  0.9999648 
    4   270     4  1.5975750 -0.0014504  0.9999641  0.0084693 -0.0084693  0.9999641 
    4   271     1  1.5792638 -0.0017949  0.9999656  0.0082913 -0.0082913  0.9999656 
    4   271     2  1.5784235 -0.0022498  0.9999506  0.0099377 -0.0099377  0.9999506 
    4   271     3  1.5716368 -0.0041217  0.9999625  0.0086622 -0.0086622  0.9999625 
    4   271     4  1.5716014 -0.0043018  0.9999497  0.0100274 -0.0100274  0.9999497 
    4   272     1  1.5859601 -0.0023576  0.9999729  0.0073565 -0.0073565  0.9999729 
    4   272     2  1.5929196 -0.0004629  0.9999712  0.0075913 -0.0075913  0.9999712 
    4   272     3  1.5842269 -0.0036240  0.9999597  0.0089743 -0.0089743  0.9999597 
    4   272     4  1.5907572 -0.0017371  0.9999599  0.0089594 -0.0089594  0.9999599 
    4   273     1  1.5812676 -0.0019369  0.9999533  0.0096676 -0.0096676  0.9999533 
    4   273     2  1.5768358 -0.0049750  0.9999407  0.0108931 -0.0108931  0.9999407 
    4   273     3  1.5786416 -0.0008705  0.9999521  0.0097874 -0.0097874  0.9999521 
    4   273     4  1.5762815 -0.0033483  0.9999436  0.0106231 -0.0106231  0.9999436 
    4   274     1  1.5580643 -0.0047596  0.9999586  0.0090991 -0.0090991  0.9999586 
    4   274     2  1.5668953 -0.0021016  0.9999603  0.0089148 -0.0089148  0.9999603 
    4   274     3  1.5568610 -0.0052293  0.9999405  0.0109045 -0.0109045  0.9999405 
    4   274     4  1.5666925 -0.0022816  0.9999406  0.0108957 -0.0108957  0.9999406 
    4   275     1  1.5539341 -0.0071325  0.9999283  0.0119714 -0.0119714  0.9999283 
    4   275     2  1.5550829 -0.0049310  0.9999585  0.0091128 -0.0091128  0.9999585 
    4   275     3  1.5706702 -0.0019132  0.9999388  0.0110669 -0.0110669  0.9999388 
    4   275     4  1.5678863 -0.0010476  0.9999631  0.0085911 -0.0085911  0.9999631 
    4   276     1  1.5433982 -0.0019840  0.9999164  0.0129270 -0.0129270  0.9999164 
    4   276     2  1.5313928 -0.0057722  0.9999256  0.0121989 -0.0121989  0.9999256 
    4   276     3  1.5461561 -0.0021973  0.9999443  0.0105584 -0.0105584  0.9999443 
    4   276     4  1.5361333 -0.0052284  0.9999474  0.0102586 -0.0102586  0.9999474 
    4   277     1  1.5526792 -0.0031659  0.9999451  0.0104757 -0.0104757  0.9999451 
    4   277     2  1.5514011 -0.0028522  0.9999291  0.0119104 -0.0119104  0.9999291 
    4   277     3  1.5460394 -0.0053185  0.9999504  0.0099636 -0.0099636  0.9999504 
    4   277     4  1.5437788 -0.0052769  0.9999348  0.0114174 -0.0114174  0.9999348 
    4   278     1  1.5609403 -0.0045988  0.9999469  0.0103087 -0.0103087  0.9999469 
    4   278     2  1.5621879 -0.0043790  0.9999613  0.0087984 -0.0087984  0.9999613 
    4   278     3  1.5684420 -0.0023340  0.9999449  0.0104956 -0.0104956  0.9999449 
    4   278     4  1.5694963 -0.0021758  0.9999600  0.0089434 -0.0089434  0.9999600 
    4   279     1  1.5556091 -0.0029283  0.9999362  0.0112966 -0.0112966  0.9999362 
    4   279     2  1.5485461 -0.0050982  0.9999397  0.0109792 -0.0109792  0.9999397 
    4   279     3  1.5569141 -0.0028668  0.9999515  0.0098446 -0.0098446  0.9999515 
    4   279     4  1.5501045 -0.0049618  0.9999546  0.0095296 -0.0095296  0.9999546 
    4   280     1  1.5605191 -0.0030473  0.9999568  0.0092970 -0.0092970  0.9999568 
    4   280     2  1.5593033 -0.0028364  0.9999428  0.0106954 -0.0106954  0.9999428 
    4   280     3  1.5537919 -0.0051548  0.9999602  0.0089265 -0.0089265  0.9999602 
    4   280     4  1.5524068 -0.0049956  0.9999468  0.0103176 -0.0103176  0.9999468 
    4   281     1  1.5658759 -0.0042907  0.9999656  0.0082959 -0.0082959  0.9999656 
    4   281     2  1.5729111 -0.0021575  0.9999638  0.0085097 -0.0085097  0.9999638 
    4   281     3  1.5646033 -0.0044669  0.9999524  0.0097533 -0.0097533  0.9999524 
    4   281     4  1.5717663 -0.0022948  0.9999502  0.0099764 -0.0099764  0.9999502 
    4   282     1  1.5350721 -0.0058211  0.9999358  0.0113293 -0.0113293  0.9999358 
    4   282     2  1.5368931 -0.0060930  0.9999519  0.0098058 -0.0098058  0.9999519 
    4   282     3  1.5425769 -0.0033825  0.9999291  0.0119100 -0.0119100  0.9999291 
    4   282     4  1.5442607 -0.0037013  0.9999462  0.0103690 -0.0103690  0.9999462 
    4   283     1  1.5286906 -0.0036897  0.9999220  0.0124904 -0.0124904  0.9999220 
    4   283     2  1.5227932 -0.0061819  0.9999337  0.0115182 -0.0115182  0.9999337 
    4   283     3  1.5300352 -0.0050953  0.9999334  0.0115432 -0.0115432  0.9999334 
    4   283     4  1.5250889 -0.0071123  0.9999420  0.0107724 -0.0107724  0.9999420 
    4   284     1  1.5359234 -0.0049122  0.9999407  0.0108900 -0.0108900  0.9999407 
    4   284     2  1.5348667 -0.0039756  0.9999315  0.0117086 -0.0117086  0.9999315 
    4   284     3  1.5314391 -0.0067133  0.9999478  0.0102200 -0.0102200  0.9999478 
    4   284     4  1.5301268 -0.0057652  0.9999386  0.0110815 -0.0110815  0.9999386 
    4   285     1  1.5419887 -0.0060585  0.9999556  0.0094284 -0.0094284  0.9999556 
    4   285     2  1.5482318 -0.0039538  0.9999500  0.0099956 -0.0099956  0.9999500 
    4   285     3  1.5403927 -0.0055165  0.9999430  0.0106808 -0.0106808  0.9999430 
    4   285     4  1.5469435 -0.0033235  0.9999366  0.0112569 -0.0112569  0.9999366 
    4   286     1  1.5252664 -0.0039416  0.9999367  0.0112552 -0.0112552  0.9999367 
    4   286     2  1.5238649 -0.0036899  0.9999087  0.0135141 -0.0135141  0.9999087 
    4   286     3  1.5157916 -0.0067291  0.9999364  0.0112759 -0.0112759  0.9999364 
    4   286     4  1.5159711 -0.0061635  0.9999153  0.0130180 -0.0130180  0.9999153 
    4   287     1  1.5336624 -0.0050735  0.9999461  0.0103829 -0.0103829  0.9999461 
    4   287     2  1.5394954 -0.0031882  0.9999394  0.0110064 -0.0110064  0.9999394 
    4   287     3  1.5319162 -0.0052448  0.9999306  0.0117778 -0.0117778  0.9999306 
    4   287     4  1.5375002 -0.0034911  0.9999259  0.0121763 -0.0121763  0.9999259 
    4   288     1  1.5270361 -0.0041284  0.9999139  0.0131195 -0.0131195  0.9999139 
    4   288     2  1.5220031 -0.0076602  0.9998933  0.0146101 -0.0146101  0.9998933 
    4   288     3  1.5243089 -0.0020881  0.9999131  0.0131844 -0.0131844  0.9999131 
    4   288     4  1.5214820 -0.0052973  0.9998984  0.0142539 -0.0142539  0.9998984 
    4   289     1  1.5213622 -0.0066120  0.9999452  0.0104700 -0.0104700  0.9999452 
    4   289     2  1.5263288 -0.0048789  0.9999387  0.0110721 -0.0110721  0.9999387 
    4   289     3  1.5206163 -0.0062083  0.9999326  0.0116066 -0.0116066  0.9999326 
    4   289     4  1.5250227 -0.0047731  0.9999286  0.0119530 -0.0119530  0.9999286 
    4   290     1  1.5182905 -0.0055538  0.9999277  0.0120279 -0.0120279  0.9999277 
    4   290     2  1.5152392 -0.0079007  0.9999154  0.0130100 -0.0130100  0.9999154 
    4   290     3  1.5166014 -0.0042576  0.9999256  0.0121958 -0.0121958  0.9999256 
    4   290     4  1.5147768 -0.0063396  0.9999170  0.0128823 -0.0128823  0.9999170 
    4   291     1  1.5163191 -0.0051338  0.9999392  0.0110283 -0.0110283  0.9999392 
    4   291     2  1.5161153 -0.0053145  0.9999212  0.0125534 -0.0125534  0.9999212 
    4   291     3  1.5095481 -0.0071917  0.9999349  0.0114086 -0.0114086  0.9999349 
    4   291     4  1.5103622 -0.0070453  0.9999201  0.0126398 -0.0126398  0.9999201 
    4   292     1  1.4979046 -0.0076734  0.9999164  0.0129331 -0.0129331  0.9999164 
    4   292     2  1.5059453 -0.0047924  0.9999281  0.0119923 -0.0119923  0.9999281 
    4   292     3  1.5002503 -0.0086323  0.9998988  0.0142267 -0.0142267  0.9998988 
    4   292     4  1.5071720 -0.0061185  0.9999104  0.0133886 -0.0133886  0.9999104 
    4   293     1  1.4991642 -0.0086278  0.9999030  0.0139293 -0.0139293  0.9999030 
    4   293     2  1.4997710 -0.0074635  0.9999309  0.0117577 -0.0117577  0.9999309 
    4   293     3  1.5108129 -0.0049415  0.9999129  0.0131980 -0.0131980  0.9999129 
    4   293     4  1.5081630 -0.0049055  0.9999345  0.0114453 -0.0114453  0.9999345 
    4   294     1  1.4946939 -0.0035830  0.9999022  0.0139874 -0.0139874  0.9999022 
    4   294     2  1.4927915 -0.0081795  0.9999174  0.0128532 -0.0128532  0.9999174 
    4   294     3  1.4935928 -0.0083880  0.9998952  0.0144745 -0.0144745  0.9998952 
    4   294     4  1.4925998 -0.0102085  0.9999078  0.0135779 -0.0135779  0.9999078 
    4   295     1  1.4909405 -0.0055221  0.9999117  0.0132924 -0.0132924  0.9999117 
    4   295     2  1.4909018 -0.0044495  0.9998576  0.0168762 -0.0168762  0.9998576 
    4   295     3  1.4763508 -0.0100243  0.9999204  0.0126146 -0.0126146  0.9999204 
    4   295     4  1.4767144 -0.0090119  0.9998785  0.0155898 -0.0155898  0.9998785 
    4   296     1  1.5002852 -0.0082434  0.9999304  0.0118015 -0.0118015  0.9999304 
    4   296     2  1.5106553 -0.0051660  0.9999301  0.0118242 -0.0118242  0.9999301 
    4   296     3  1.5002143 -0.0076778  0.9998998  0.0141579 -0.0141579  0.9998998 
    4   296     4  1.5111049 -0.0044314  0.9998987  0.0142302 -0.0142302  0.9998987 
    4   297     1  1.4989157 -0.0097501  0.9998768  0.0156993 -0.0156993  0.9998768 
    4   297     2  1.4980725 -0.0084900  0.9999253  0.0122232 -0.0122232  0.9999253 
    4   297     3  1.5159459 -0.0045507  0.9998867  0.0150555 -0.0150555  0.9998867 
    4   297     4  1.5119943 -0.0042862  0.9999303  0.0118107 -0.0118107  0.9999303 
    4   298     1  1.4894350 -0.0053144  0.9998463  0.0175336 -0.0175336  0.9998463 
    4   298     2  1.4752123 -0.0095827  0.9998481  0.0174280 -0.0174280  0.9998481 
    4   298     3  1.4892508 -0.0054522  0.9999014  0.0140448 -0.0140448  0.9999014 
    4   298     4  1.4749783 -0.0097336  0.9999016  0.0140252 -0.0140252  0.9999016 
    4   299     1  1.4997390 -0.0086887  0.9999028  0.0139397 -0.0139397  0.9999028 
    4   299     2  1.4991130 -0.0073490  0.9999209  0.0125745 -0.0125745  0.9999209 
    4   299     3  1.5064636 -0.0066326  0.9999091  0.0134808 -0.0134808  0.9999091 
    4   299     4  1.5066223 -0.0047668  0.9999304  0.0118000 -0.0118000  0.9999304 
    4   300     1  1.4913336 -0.0060296  0.9998955  0.0144542 -0.0144542  0.9998955 
    4   300     2  1.4776037 -0.0104226  0.9998812  0.0154162 -0.0154162  0.9998812 
    4   300     3  1.4898306 -0.0041870  0.9999384  0.0111024 -0.0111024  0.9999384 
    4   300     4  1.4777186 -0.0085889  0.9999188  0.0127407 -0.0127407  0.9999188 
    4   301     1  1.4923726 -0.0059539  0.9999357  0.0113427 -0.0113427  0.9999357 
    4   301     2  1.4910337 -0.0048235  0.9998961  0.0144174 -0.0144174  0.9998961 
    4   301     3  1.4796628 -0.0099132  0.9999431  0.0106685 -0.0106685  0.9999431 
    4   301     4  1.4798670 -0.0085964  0.9999126  0.0132213 -0.0132213  0.9999126 
    4   302     1  1.5010585 -0.0087164  0.9999466  0.0103374 -0.0103374  0.9999466 
    4   302     2  1.5086610 -0.0063000  0.9999405  0.0109124 -0.0109124  0.9999405 
    4   302     3  1.5002377 -0.0074443  0.9999302  0.0118135 -0.0118135  0.9999302 
    4   302     4  1.5078536 -0.0047804  0.9999202  0.0126334 -0.0126334  0.9999202 
    4   303     1  1.5178048 -0.0048455  0.9999232  0.0123955 -0.0123955  0.9999232 
    4   303     2  1.5112131 -0.0068276  0.9999249  0.0122592 -0.0122592  0.9999249 
    4   303     3  1.5185136 -0.0046949  0.9999411  0.0108539 -0.0108539  0.9999411 
    4   303     4  1.5113539 -0.0068450  0.9999418  0.0107861 -0.0107861  0.9999418 
    4   304     1  1.5212705 -0.0047560  0.9999448  0.0105083 -0.0105083  0.9999448 
    4   304     2  1.5201625 -0.0045078  0.9999281  0.0119884 -0.0119884  0.9999281 
    4   304     3  1.5144673 -0.0068725  0.9999484  0.0101611 -0.0101611  0.9999484 
    4   304     4  1.5135552 -0.0066013  0.9999333  0.0115512 -0.0115512  0.9999333 
    4   305     1  1.5265196 -0.0063586  0.9999546  0.0095315 -0.0095315  0.9999546 
    4   305     2  1.5328995 -0.0043177  0.9999504  0.0099645 -0.0099645  0.9999504 
    4   305     3  1.5254976 -0.0059733  0.9999412  0.0108435 -0.0108435  0.9999412 
    4   305     4  1.5317791 -0.0039512  0.9999362  0.0112956 -0.0112956  0.9999362 
    4   306     1  1.5225766 -0.0061627  0.9999362  0.0112931 -0.0112931  0.9999362 
    4   306     2  1.5233330 -0.0066248  0.9999505  0.0099482 -0.0099482  0.9999505 
    4   306     3  1.5286942 -0.0042162  0.9999317  0.0116905 -0.0116905  0.9999317 
    4   306     4  1.5297909 -0.0045686  0.9999462  0.0103694 -0.0103694  0.9999462 
    4   307     1  1.5235085 -0.0042608  0.9999356  0.0113488 -0.0113488  0.9999356 
    4   307     2  1.5176613 -0.0063998  0.9999435  0.0106327 -0.0106327  0.9999435 
    4   307     3  1.5246983 -0.0051716  0.9999483  0.0101653 -0.0101653  0.9999483 
    4   307     4  1.5190098 -0.0071840  0.9999545  0.0095373 -0.0095373  0.9999545 
    4   308     1  1.5286325 -0.0053704  0.9999521  0.0097861 -0.0097861  0.9999521 
    4   308     2  1.5275135 -0.0042332  0.9999425  0.0107233 -0.0107233  0.9999425 
    4   308     3  1.5237750 -0.0073100  0.9999589  0.0090648 -0.0090648  0.9999589 
    4   308     4  1.5223071 -0.0063257  0.9999506  0.0099396 -0.0099396  0.9999506 
    4   309     1  1.5339979 -0.0064075  0.9999623  0.0086855 -0.0086855  0.9999623 
    4   309     2  1.5396152 -0.0044950  0.9999575  0.0092227 -0.0092227  0.9999575 
    4   309     3  1.5327109 -0.0058753  0.9999518  0.0098193 -0.0098193  0.9999518 
    4   309     4  1.5385187 -0.0038966  0.9999462  0.0103772 -0.0103772  0.9999462 
    4   310     1  1.5289150 -0.0058878  0.9999467  0.0103259 -0.0103259  0.9999467 
    4   310     2  1.5301384 -0.0063618  0.9999587  0.0090933 -0.0090933  0.9999587 
    4   310     3  1.5350427 -0.0038476  0.9999410  0.0108612 -0.0108612  0.9999410 
    4   310     4  1.5361841 -0.0043640  0.9999539  0.0095972 -0.0095972  0.9999539 
    4   311     1  1.5044665 -0.0071799  0.9999416  0.0108113 -0.0108113  0.9999416 
    4   311     2  1.5062739 -0.0083768  0.9999524  0.0097529 -0.0097529  0.9999524 
    4   311     3  1.5108128 -0.0044172  0.9999289  0.0119250 -0.0119250  0.9999289 
    4   311     4  1.5124745 -0.0058956  0.9999429  0.0106875 -0.0106875  0.9999429 
    4   312     1  1.4966585 -0.0041393  0.9999261  0.0121571 -0.0121571  0.9999261 
    4   312     2  1.4931293 -0.0080692  0.9999430  0.0106795 -0.0106795  0.9999430 
    4   312     3  1.4969193 -0.0079931  0.9999253  0.0122211 -0.0122211  0.9999253 
    4   312     4  1.4941314 -0.0105000  0.9999388  0.0110633 -0.0110633  0.9999388 
    4   313     1  1.5050558 -0.0073486  0.9999371  0.0112129 -0.0112129  0.9999371 
    4   313     2  1.5073012 -0.0039721  0.9999475  0.0102437 -0.0102437  0.9999475 
    4   313     3  1.5056523 -0.0093932  0.9999408  0.0108851 -0.0108851  0.9999408 
    4   313     4  1.5076624 -0.0064999  0.9999498  0.0100162 -0.0100162  0.9999498 
    4   314     1  1.5149520 -0.0083978  0.9999515  0.0098485 -0.0098485  0.9999515 
    4   314     2  1.5171718 -0.0066021  0.9999436  0.0106185 -0.0106185  0.9999436 
    4   314     3  1.5142887 -0.0066108  0.9999516  0.0098422 -0.0098422  0.9999516 
    4   314     4  1.5168619 -0.0043570  0.9999422  0.0107530 -0.0107530  0.9999422 
    4   315     1  1.5364531 -0.0058100  0.9999562  0.0093573 -0.0093573  0.9999562 
    4   315     2  1.5376050 -0.0063827  0.9999659  0.0082630 -0.0082630  0.9999659 
    4   315     3  1.5420224 -0.0039216  0.9999512  0.0098781 -0.0098781  0.9999512 
    4   315     4  1.5429789 -0.0045448  0.9999614  0.0087844 -0.0087844  0.9999614 
    4   316     1  1.5316739 -0.0044098  0.9999475  0.0102422 -0.0102422  0.9999475 
    4   316     2  1.5267427 -0.0062454  0.9999538  0.0096159 -0.0096159  0.9999538 
    4   316     3  1.5326852 -0.0052295  0.9999563  0.0093477 -0.0093477  0.9999563 
    4   316     4  1.5280661 -0.0069968  0.9999620  0.0087210 -0.0087210  0.9999620 
    4   317     1  1.5362269 -0.0049821  0.9999612  0.0088106 -0.0088106  0.9999612 
    4   317     2  1.5353953 -0.0043368  0.9999524  0.0097555 -0.0097555  0.9999524 
    4   317     3  1.5314126 -0.0066725  0.9999656  0.0082951 -0.0082951  0.9999656 
    4   317     4  1.5304929 -0.0060147  0.9999570  0.0092777 -0.0092777  0.9999570 
    4   318     1  1.5406669 -0.0061732  0.9999692  0.0078470 -0.0078470  0.9999692 
    4   318     2  1.5460041 -0.0043934  0.9999655  0.0083090 -0.0083090  0.9999655 
    4   318     3  1.5397015 -0.0056471  0.9999600  0.0089491 -0.0089491  0.9999600 
    4   318     4  1.5451839 -0.0038375  0.9999558  0.0093982 -0.0093982  0.9999558 
    4   319     1  1.5221651 -0.0068332  0.9999617  0.0087504 -0.0087504  0.9999617 
    4   319     2  1.5273093 -0.0051689  0.9999580  0.0091690 -0.0091690  0.9999580 
    4   319     3  1.5221797 -0.0063806  0.9999513  0.0098643 -0.0098643  0.9999513 
    4   319     4  1.5265677 -0.0050192  0.9999492  0.0100774 -0.0100774  0.9999492 
    4   320     1  1.5196627 -0.0064464  0.9999544  0.0095507 -0.0095507  0.9999544 
    4   320     2  1.5207653 -0.0076752  0.9999555  0.0094355 -0.0094355  0.9999555 
    4   320     3  1.5224391 -0.0047941  0.9999470  0.0102924 -0.0102924  0.9999470 
    4   320     4  1.5228738 -0.0061774  0.9999495  0.0100509 -0.0100509  0.9999495 
    4   321     1  1.5179632 -0.0041628  0.9999577  0.0092014 -0.0092014  0.9999577 
    4   321     2  1.5185613 -0.0061066  0.9999479  0.0102087 -0.0102087  0.9999479 
    4   321     3  1.5132379 -0.0067637  0.9999469  0.0103078 -0.0103078  0.9999469 
    4   321     4  1.5147805 -0.0075678  0.9999419  0.0107802 -0.0107802  0.9999419 
    4   322     1  1.5184798 -0.0051745  0.9999456  0.0104275 -0.0104275  0.9999456 
    4   322     2  1.5107236 -0.0075167  0.9999478  0.0102150 -0.0102150  0.9999478 
    4   322     3  1.5191565 -0.0051427  0.9999631  0.0085905 -0.0085905  0.9999631 
    4   322     4  1.5116058 -0.0073967  0.9999625  0.0086638 -0.0086638  0.9999625 
    4   323     1  1.5216967 -0.0056674  0.9999635  0.0085450 -0.0085450  0.9999635 
    4   323     2  1.5203690 -0.0045254  0.9999508  0.0099183 -0.0099183  0.9999508 
    4   323     3  1.5149425 -0.0080501  0.9999696  0.0078026 -0.0078026  0.9999696 
    4   323     4  1.5143431 -0.0068544  0.9999589  0.0090631 -0.0090631  0.9999589 
    4   324     1  1.5274567 -0.0070394  0.9999700  0.0077422 -0.0077422  0.9999700 
    4   324     2  1.5320941 -0.0053584  0.9999656  0.0082969 -0.0082969  0.9999656 
    4   324     3  1.5265156 -0.0061799  0.9999632  0.0085750 -0.0085750  0.9999632 
    4   324     4  1.5311575 -0.0043723  0.9999574  0.0092294 -0.0092294  0.9999574 
    4   325     1  1.5232951 -0.0065243  0.9999532  0.0096789 -0.0096789  0.9999532 
    4   325     2  1.5237854 -0.0064002  0.9999640  0.0084851 -0.0084851  0.9999640 
    4   325     3  1.5287154 -0.0048949  0.9999511  0.0098906 -0.0098906  0.9999511 
    4   325     4  1.5296568 -0.0046360  0.9999628  0.0086268 -0.0086268  0.9999628 
    4   326     1  1.5009875 -0.0087787  0.9999630  0.0086072 -0.0086072  0.9999630 
    4   326     2  1.5106833 -0.0058835  0.9999629  0.0086081 -0.0086081  0.9999629 
    4   326     3  1.5025725 -0.0086215  0.9999436  0.0106243 -0.0106243  0.9999436 
    4   326     4  1.5100301 -0.0063423  0.9999470  0.0102920 -0.0102920  0.9999470 
    4   327     1  1.4997531 -0.0083179  0.9999519  0.0098108 -0.0098108  0.9999519 
    4   327     2  1.5021483 -0.0094194  0.9999628  0.0086253 -0.0086253  0.9999628 
    4   327     3  1.5069591 -0.0056544  0.9999424  0.0107349 -0.0107349  0.9999424 
    4   327     4  1.5076017 -0.0070567  0.9999541  0.0095839 -0.0095839  0.9999541 
    4   328     1  1.4953653 -0.0045984  0.9999548  0.0095066 -0.0095066  0.9999548 
    4   328     2  1.4960237 -0.0078306  0.9999533  0.0096680 -0.0096680  0.9999533 
    4   328     3  1.4919136 -0.0085081  0.9999414  0.0108290 -0.0108290  0.9999414 
    4   328     4  1.4933450 -0.0098798  0.9999439  0.0105901 -0.0105901  0.9999439 
    4   329     1  1.4889159 -0.0069972  0.9999479  0.0102057 -0.0102057  0.9999479 
    4   329     2  1.4866213 -0.0057265  0.9999298  0.0118523 -0.0118523  0.9999298 
    4   329     3  1.4807175 -0.0098502  0.9999566  0.0093164 -0.0093164  0.9999566 
    4   329     4  1.4808776 -0.0082079  0.9999418  0.0107854 -0.0107854  0.9999418 
    4   330     1  1.4978535 -0.0104974  0.9999480  0.0101993 -0.0101993  0.9999480 
    4   330     2  1.4993799 -0.0076007  0.9999394  0.0110127 -0.0110127  0.9999394 
    4   330     3  1.4982507 -0.0073909  0.9999514  0.0098610 -0.0098610  0.9999514 
    4   330     4  1.4995191 -0.0054001  0.9999434  0.0106359 -0.0106359  0.9999434 
    4   331     1  1.4897082 -0.0063314  0.9999291  0.0119073 -0.0119073  0.9999291 
    4   331     2  1.4802148 -0.0097269  0.9999152  0.0130191 -0.0130191  0.9999152 
    4   331     3  1.4859867 -0.0053728  0.9999480  0.0101947 -0.0101947  0.9999480 
    4   331     4  1.4801323 -0.0080327  0.9999349  0.0114145 -0.0114145  0.9999349 
    4   332     1  1.5016995 -0.0093448  0.9999467  0.0103262 -0.0103262  0.9999467 
    4   332     2  1.5007143 -0.0075460  0.9999614  0.0087840 -0.0087840  0.9999614 
    4   332     3  1.5100439 -0.0065353  0.9999551  0.0094727 -0.0094727  0.9999551 
    4   332     4  1.5081322 -0.0049350  0.9999685  0.0079374 -0.0079374  0.9999685 
    4   333     1  1.4943800 -0.0071618  0.9999443  0.0105547 -0.0105547  0.9999443 
    4   333     2  1.4828838 -0.0109452  0.9999337  0.0115151 -0.0115151  0.9999337 
    4   333     3  1.4934085 -0.0054102  0.9999684  0.0079467 -0.0079467  0.9999684 
    4   333     4  1.4830733 -0.0091096  0.9999577  0.0092000 -0.0092000  0.9999577 
    4   334     1  1.4939574 -0.0059796  0.9999701  0.0077386 -0.0077386  0.9999701 
    4   334     2  1.4933391 -0.0053174  0.9999424  0.0107293 -0.0107293  0.9999424 
    4   334     3  1.4833819 -0.0091845  0.9999723  0.0074437 -0.0074437  0.9999723 
    4   334     4  1.4835270 -0.0085025  0.9999530  0.0096962 -0.0096962  0.9999530 
    4   335     1  1.5007430 -0.0085683  0.9999734  0.0072976 -0.0072976  0.9999734 
    4   335     2  1.5068207 -0.0067883  0.9999722  0.0074612 -0.0074612  0.9999722 
    4   335     3  1.5005725 -0.0077682  0.9999629  0.0086107 -0.0086107  0.9999629 
    4   335     4  1.5073067 -0.0056305  0.9999591  0.0090467 -0.0090467  0.9999591 
    4   336     1  1.5177203 -0.0057227  0.9999643  0.0084458 -0.0084458  0.9999643 
    4   336     2  1.5142691 -0.0076572  0.9999568  0.0092929 -0.0092929  0.9999568 
    4   336     3  1.5158307 -0.0045878  0.9999656  0.0082958 -0.0082958  0.9999656 
    4   336     4  1.5137064 -0.0063559  0.9999597  0.0089795 -0.0089795  0.9999597 
    4   337     1  1.5163577 -0.0057610  0.9999714  0.0075590 -0.0075590  0.9999714 
    4   337     2  1.5157231 -0.0056652  0.9999606  0.0088751 -0.0088751  0.9999606 
    4   337     3  1.5106479 -0.0074421  0.9999709  0.0076317 -0.0076317  0.9999709 
    4   337     4  1.5108474 -0.0071488  0.9999620  0.0087166 -0.0087166  0.9999620 
    4   338     1  1.5206559 -0.0072609  0.9999734  0.0072917 -0.0072917  0.9999734 
    4   338     2  1.5243614 -0.0056085  0.9999680  0.0079941 -0.0079941  0.9999680 
    4   338     3  1.5198828 -0.0064771  0.9999672  0.0080970 -0.0080970  0.9999672 
    4   338     4  1.5231639 -0.0051914  0.9999633  0.0085700 -0.0085700  0.9999633 
    4   339     1  1.5176446 -0.0057114  0.9999614  0.0087838 -0.0087838  0.9999614 
    4   339     2  1.5115024 -0.0076289  0.9999643  0.0084539 -0.0084539  0.9999643 
    4   339     3  1.5184455 -0.0060306  0.9999726  0.0074043 -0.0074043  0.9999726 
    4   339     4  1.5119106 -0.0080785  0.9999753  0.0070348 -0.0070348  0.9999753 
    4   340     1  1.5200840 -0.0060645  0.9999768  0.0068119 -0.0068119  0.9999768 
    4   340     2  1.5194014 -0.0053337  0.9999652  0.0083369 -0.0083369  0.9999652 
    4   340     3  1.5132851 -0.0082723  0.9999802  0.0062974 -0.0062974  0.9999802 
    4   340     4  1.5130372 -0.0075003  0.9999704  0.0076882 -0.0076882  0.9999704 
    4   341     1  1.5257322 -0.0079326  0.9999814  0.0060950 -0.0060950  0.9999814 
    4   341     2  1.5321646 -0.0056493  0.9999768  0.0068109 -0.0068109  0.9999768 
    4   341     3  1.5250029 -0.0065759  0.9999718  0.0075036 -0.0075036  0.9999718 
    4   341     4  1.5312943 -0.0045498  0.9999679  0.0080129 -0.0080129  0.9999679 
    4   342     1  1.5221271 -0.0066784  0.9999697  0.0077886 -0.0077886  0.9999697 
    4   342     2  1.5228463 -0.0076845  0.9999777  0.0066790 -0.0066790  0.9999777 
    4   342     3  1.5272428 -0.0048034  0.9999646  0.0084151 -0.0084151  0.9999646 
    4   342     4  1.5283783 -0.0056418  0.9999728  0.0073697 -0.0073697  0.9999728 
    4   343     1  1.5009242 -0.0089801  0.9999739  0.0072300 -0.0072300  0.9999739 
    4   343     2  1.5095375 -0.0063911  0.9999749  0.0070887 -0.0070887  0.9999749 
    4   343     3  1.5029424 -0.0088079  0.9999595  0.0089985 -0.0089985  0.9999595 
    4   343     4  1.5094642 -0.0067777  0.9999630  0.0086032 -0.0086032  0.9999630 
    4   344     1  1.5005719 -0.0082979  0.9999645  0.0084297 -0.0084297  0.9999645 
    4   344     2  1.5019410 -0.0087452  0.9999753  0.0070233 -0.0070233  0.9999753 
    4   344     3  1.5075786 -0.0060920  0.9999609  0.0088475 -0.0088475  0.9999609 
    4   344     4  1.5080239 -0.0067784  0.9999721  0.0074735 -0.0074735  0.9999721 
    4   345     1  1.4974987 -0.0048241  0.9999648  0.0083868 -0.0083868  0.9999648 
    4   345     2  1.4963056 -0.0092093  0.9999708  0.0076464 -0.0076464  0.9999708 
    4   345     3  1.4960586 -0.0092752  0.9999585  0.0091088 -0.0091088  0.9999585 
    4   345     4  1.4956123 -0.0111444  0.9999649  0.0083830 -0.0083830  0.9999649 
    4   346     1  1.5257402 -0.0076221  0.9999734  0.0072916 -0.0072916  0.9999734 
    4   346     2  1.5258237 -0.0064778  0.9999826  0.0059068 -0.0059068  0.9999826 
    4   346     3  1.5321102 -0.0053760  0.9999783  0.0065873 -0.0065873  0.9999783 
    4   346     4  1.5304751 -0.0050729  0.9999839  0.0056827 -0.0056827  0.9999839 
    4   347     1  1.5218585 -0.0043775  0.9999728  0.0073719 -0.0073719  0.9999728 
    4   347     2  1.5191673 -0.0068331  0.9999792  0.0064510 -0.0064510  0.9999792 
    4   347     3  1.5219244 -0.0066666  0.9999751  0.0070573 -0.0070573  0.9999751 
    4   347     4  1.5199248 -0.0079929  0.9999792  0.0064454 -0.0064454  0.9999792 
    4   348     1  1.5242336 -0.0063237  0.9999762  0.0069030 -0.0069030  0.9999762 
    4   348     2  1.5263497 -0.0047012  0.9999806  0.0062238 -0.0062238  0.9999806 
    4   348     3  1.5251055 -0.0076873  0.9999761  0.0069093 -0.0069093  0.9999761 
    4   348     4  1.5269339 -0.0060950  0.9999802  0.0062964 -0.0062964  0.9999802 
    4   349     1  1.5159664 -0.0061205  0.9999763  0.0068899 -0.0068899  0.9999763 
    4   349     2  1.5124213 -0.0082030  0.9999698  0.0077672 -0.0077672  0.9999698 
    4   349     3  1.5144308 -0.0045561  0.9999792  0.0064439 -0.0064439  0.9999792 
    4   349     4  1.5114383 -0.0067312  0.9999732  0.0073256 -0.0073256  0.9999732 
    4   350     1  1.5105886 -0.0057247  0.9999819  0.0060237 -0.0060237  0.9999819 
    4   350     2  1.5118175 -0.0066987  0.9999783  0.0065920 -0.0065920  0.9999783 
    4   350     3  1.5074139 -0.0071939  0.9999780  0.0066279 -0.0066279  0.9999780 
    4   350     4  1.5081703 -0.0083455  0.9999736  0.0072638 -0.0072638  0.9999736 
    4   351     1  1.5157596 -0.0070276  0.9999792  0.0064506 -0.0064506  0.9999792 
    4   351     2  1.5190584 -0.0051270  0.9999840  0.0056538 -0.0056538  0.9999840 
    4   351     3  1.5169147 -0.0084308  0.9999759  0.0069397 -0.0069397  0.9999759 
    4   351     4  1.5199139 -0.0065462  0.9999810  0.0061583 -0.0061583  0.9999810 
    4   352     1  1.5215583 -0.0075876  0.9999754  0.0070074 -0.0070074  0.9999754 
    4   352     2  1.5207726 -0.0065182  0.9999766  0.0068358 -0.0068358  0.9999766 
    4   352     3  1.5236327 -0.0062120  0.9999793  0.0064337 -0.0064337  0.9999793 
    4   352     4  1.5228605 -0.0049755  0.9999807  0.0062189 -0.0062189  0.9999807 
    4   353     1  1.5017959 -0.0093561  0.9999643  0.0084498 -0.0084498  0.9999643 
    4   353     2  1.5006935 -0.0076528  0.9999726  0.0073961 -0.0073961  0.9999726 
    4   353     3  1.5077361 -0.0070832  0.9999712  0.0075898 -0.0075898  0.9999712 
    4   353     4  1.5060145 -0.0055757  0.9999782  0.0066013 -0.0066013  0.9999782 
    4   354     1  1.4948689 -0.0061892  0.9999593  0.0090206 -0.0090206  0.9999593 
    4   354     2  1.4841966 -0.0094461  0.9999558  0.0093967 -0.0093967  0.9999558 
    4   354     3  1.4927032 -0.0060109  0.9999805  0.0062451 -0.0062451  0.9999805 
    4   354     4  1.4839789 -0.0088620  0.9999741  0.0072038 -0.0072038  0.9999741 
    4   355     1  1.4936280 -0.0076667  0.9999773  0.0067309 -0.0067309  0.9999773 
    4   355     2  1.4940548 -0.0061630  0.9999616  0.0087626 -0.0087626  0.9999616 
    4   355     3  1.4855440 -0.0102765  0.9999812  0.0061321 -0.0061321  0.9999812 
    4   355     4  1.4859524 -0.0090153  0.9999695  0.0078145 -0.0078145  0.9999695 
    4   356     1  1.4983357 -0.0084046  0.9999814  0.0060996 -0.0060996  0.9999814 
    4   356     2  1.5032184 -0.0069707  0.9999822  0.0059582 -0.0059582  0.9999822 
    4   356     3  1.4986329 -0.0081257  0.9999735  0.0072799 -0.0072799  0.9999735 
    4   356     4  1.5046181 -0.0063351  0.9999733  0.0073056 -0.0073056  0.9999733 
    4   357     1  1.5119283 -0.0087582  0.9999818  0.0060407 -0.0060407  0.9999818 
    4   357     2  1.5128829 -0.0067649  0.9999787  0.0065225 -0.0065225  0.9999787 
    4   357     3  1.5122696 -0.0067927  0.9999827  0.0058885 -0.0058885  0.9999827 
    4   357     4  1.5129018 -0.0057707  0.9999802  0.0062851 -0.0062851  0.9999802 
    4   358     1  1.5099497 -0.0068328  0.9999784  0.0065723 -0.0065723  0.9999784 
    4   358     2  1.5056740 -0.0082891  0.9999754  0.0070177 -0.0070177  0.9999754 
    4   358     3  1.5085040 -0.0062119  0.9999829  0.0058432 -0.0058432  0.9999829 
    4   358     4  1.5052000 -0.0074916  0.9999801  0.0063097 -0.0063097  0.9999801 
    4   359     1  1.5095000 -0.0068239  0.9999822  0.0059742 -0.0059742  0.9999822 
    4   359     2  1.5087396 -0.0064331  0.9999760  0.0069307 -0.0069307  0.9999760 
    4   359     3  1.5048227 -0.0082298  0.9999832  0.0057981 -0.0057981  0.9999832 
    4   359     4  1.5049630 -0.0076450  0.9999778  0.0066667 -0.0066667  0.9999778 
    4   360     1  1.4972619 -0.0082544  0.9999796  0.0063906 -0.0063906  0.9999796 
    4   360     2  1.5025245 -0.0065845  0.9999818  0.0060293 -0.0060293  0.9999818 
    4   360     3  1.4983869 -0.0087594  0.9999728  0.0073798 -0.0073798  0.9999728 
    4   360     4  1.5027590 -0.0073152  0.9999754  0.0070092 -0.0070092  0.9999754 
    4   361     1  1.4975917 -0.0083427  0.9999747  0.0071098 -0.0071098  0.9999747 
    4   361     2  1.4981081 -0.0084968  0.9999822  0.0059734 -0.0059734  0.9999822 
    4   361     3  1.5032959 -0.0066432  0.9999744  0.0071561 -0.0071561  0.9999744 
    4   361     4  1.5027593 -0.0070929  0.9999815  0.0060796 -0.0060796  0.9999815 
    4   362     1  1.4955167 -0.0058163  0.9999759  0.0069468 -0.0069468  0.9999759 
    4   362     2  1.4944819 -0.0086036  0.9999797  0.0063717 -0.0063717  0.9999797 
    4   362     3  1.4948186 -0.0086627  0.9999735  0.0072791 -0.0072791  0.9999735 
    4   362     4  1.4943130 -0.0097361  0.9999770  0.0067848 -0.0067848  0.9999770 
    4   363     1  1.4933240 -0.0075722  0.9999749  0.0070865 -0.0070865  0.9999749 
    4   363     2  1.4857258 -0.0101300  0.9999696  0.0077972 -0.0077972  0.9999696 
    4   363     3  1.4927402 -0.0061125  0.9999863  0.0052295 -0.0052295  0.9999863 
    4   363     4  1.4859407 -0.0087203  0.9999806  0.0062353 -0.0062353  0.9999806 
    4   364     1  1.4933321 -0.0072065  0.9999870  0.0050990 -0.0050990  0.9999870 
    4   364     2  1.4931543 -0.0073610  0.9999756  0.0069859 -0.0069859  0.9999756 
    4   364     3  1.4865234 -0.0092525  0.9999865  0.0051885 -0.0051885  0.9999865 
    4   364     4  1.4864940 -0.0093544  0.9999760  0.0069283 -0.0069283  0.9999760 
    4   365     1  1.4971968 -0.0090379  0.9999872  0.0050695 -0.0050695  0.9999872 
    4   365     2  1.5035028 -0.0071334  0.9999863  0.0052373 -0.0052373  0.9999863 
    4   365     3  1.4971215 -0.0085508  0.9999787  0.0065244 -0.0065244  0.9999787 
    4   365     4  1.5031409 -0.0066874  0.9999768  0.0068139 -0.0068139  0.9999768 
    4   366     1  1.4983369 -0.0087978  0.9999738  0.0072454 -0.0072454  0.9999738 
    4   366     2  1.4979357 -0.0081038  0.9999805  0.0062458 -0.0062458  0.9999805 
    4   366     3  1.5026635 -0.0074650  0.9999755  0.0069992 -0.0069992  0.9999755 
    4   366     4  1.5028505 -0.0065039  0.9999828  0.0058592 -0.0058592  0.9999828 
    4   367     1  1.5141478 -0.0073354  0.9999817  0.0060526 -0.0060526  0.9999817 
    4   367     2  1.5148649 -0.0086140  0.9999876  0.0049798 -0.0049798  0.9999876 
    4   367     3  1.5189907 -0.0054569  0.9999773  0.0067346 -0.0067346  0.9999773 
    4   367     4  1.5195462 -0.0065998  0.9999833  0.0057875 -0.0057875  0.9999833 
    4   368     1  1.5098521 -0.0062364  0.9999764  0.0068662 -0.0068662  0.9999764 
    4   368     2  1.5056871 -0.0076118  0.9999788  0.0065172 -0.0065172  0.9999788 
    4   368     3  1.5104770 -0.0067811  0.9999826  0.0058974 -0.0058974  0.9999826 
    4   368     4  1.5057738 -0.0083387  0.9999849  0.0054972 -0.0054972  0.9999849 
    4   369     1  1.5128436 -0.0065918  0.9999858  0.0053274 -0.0053274  0.9999858 
    4   369     2  1.5122238 -0.0060127  0.9999786  0.0065465 -0.0065465  0.9999786 
    4   369     3  1.5074720 -0.0083489  0.9999880  0.0048992 -0.0048992  0.9999880 
    4   369     4  1.5071141 -0.0077013  0.9999813  0.0061105 -0.0061105  0.9999813 
    4   370     1  1.5167612 -0.0080807  0.9999895  0.0045744 -0.0045744  0.9999895 
    4   370     2  1.5218395 -0.0062478  0.9999866  0.0051709 -0.0051709  0.9999866 
    4   370     3  1.5162263 -0.0070400  0.9999839  0.0056719 -0.0056719  0.9999839 
    4   370     4  1.5212245 -0.0052235  0.9999803  0.0062714 -0.0062714  0.9999803 
    4   371     1  1.5186035 -0.0068514  0.9999867  0.0051656 -0.0051656  0.9999867 
    4   371     2  1.5192331 -0.0080336  0.9999914  0.0041484 -0.0041484  0.9999914 
    4   371     3  1.5234456 -0.0049719  0.9999829  0.0058465 -0.0058465  0.9999829 
    4   371     4  1.5241082 -0.0061772  0.9999885  0.0048052 -0.0048052  0.9999885 
    4   372     1  1.5143869 -0.0055189  0.9999819  0.0060111 -0.0060111  0.9999819 
    4   372     2  1.5093298 -0.0074582  0.9999859  0.0053147 -0.0053147  0.9999859 
    4   372     3  1.5150403 -0.0068102  0.9999881  0.0048809 -0.0048809  0.9999881 
    4   372     4  1.5098664 -0.0087210  0.9999911  0.0042271 -0.0042271  0.9999911 
    4   373     1  1.5176826 -0.0066805  0.9999898  0.0045136 -0.0045136  0.9999898 
    4   373     2  1.5168787 -0.0050415  0.9999850  0.0054765 -0.0054765  0.9999850 
    4   373     3  1.5129020 -0.0087363  0.9999932  0.0036961 -0.0036961  0.9999932 
    4   373     4  1.5120946 -0.0071936  0.9999894  0.0046046 -0.0046046  0.9999894 
    4   374     1  1.5221413 -0.0079854  0.9999930  0.0037457 -0.0037457  0.9999930 
    4   374     2  1.5266499 -0.0060966  0.9999900  0.0044780 -0.0044780  0.9999900 
    4   374     3  1.5213928 -0.0066327  0.9999893  0.0046295 -0.0046295  0.9999893 
    4   374     4  1.5259159 -0.0046871  0.9999854  0.0053957 -0.0053957  0.9999854 
    4   375     1  1.4984156 -0.0084390  0.9999833  0.0057836 -0.0057836  0.9999833 
    4   375     2  1.4988087 -0.0094457  0.9999906  0.0043434 -0.0043434  0.9999906 
    4   375     3  1.5045493 -0.0063034  0.9999792  0.0064439 -0.0064439  0.9999792 
    4   375     4  1.5053215 -0.0072749  0.9999879  0.0049178 -0.0049178  0.9999879 
    4   376     1  1.4940389 -0.0065415  0.9999771  0.0067711 -0.0067711  0.9999771 
    4   376     2  1.4869591 -0.0088629  0.9999808  0.0061944 -0.0061944  0.9999808 
    4   376     3  1.4942580 -0.0077715  0.9999882  0.0048552 -0.0048552  0.9999882 
    4   376     4  1.4866752 -0.0101831  0.9999905  0.0043485 -0.0043485  0.9999905 
    4   377     1  1.4963613 -0.0075272  0.9999897  0.0045293 -0.0045293  0.9999897 
    4   377     2  1.4950565 -0.0057291  0.9999798  0.0063629 -0.0063629  0.9999798 
    4   377     3  1.4872842 -0.0109139  0.9999944  0.0033441 -0.0033441  0.9999944 
    4   377     4  1.4875756 -0.0088304  0.9999869  0.0051115 -0.0051115  0.9999869 
    4   378     1  1.5035614 -0.0097698  0.9999931  0.0037051 -0.0037051  0.9999931 
    4   378     2  1.5079989 -0.0076381  0.9999893  0.0046271 -0.0046271  0.9999893 
    4   378     3  1.5029534 -0.0077170  0.9999901  0.0044453 -0.0044453  0.9999901 
    4   378     4  1.5074115 -0.0053690  0.9999852  0.0054494 -0.0054494  0.9999852 
    4   379     1  1.5245983 -0.0064710  0.9999913  0.0041809 -0.0041809  0.9999913 
    4   379     2  1.5254938 -0.0078357  0.9999941  0.0034394 -0.0034394  0.9999941 
    4   379     3  1.5287400 -0.0045343  0.9999876  0.0049708 -0.0049708  0.9999876 
    4   379     4  1.5295658 -0.0059672  0.9999912  0.0041967 -0.0041967  0.9999912 
    4   380     1  1.5200046 -0.0049147  0.9999878  0.0049448 -0.0049448  0.9999878 
    4   380     2  1.5161314 -0.0069391  0.9999916  0.0040963 -0.0040963  0.9999916 
    4   380     3  1.5208491 -0.0064851  0.9999908  0.0042815 -0.0042815  0.9999908 
    4   380     4  1.5171000 -0.0083754  0.9999939  0.0034905 -0.0034905  0.9999939 
    4   381     1  1.5245037 -0.0064765  0.9999920  0.0039978 -0.0039978  0.9999920 
    4   381     2  1.5237482 -0.0048580  0.9999898  0.0045150 -0.0045150  0.9999898 
    4   381     3  1.5212469 -0.0083307  0.9999948  0.0032179 -0.0032179  0.9999948 
    4   381     4  1.5202832 -0.0068235  0.9999932  0.0036866 -0.0036866  0.9999932 
    4   382     1  1.5290806 -0.0076898  0.9999950  0.0031731 -0.0031731  0.9999950 
    4   382     2  1.5328521 -0.0058725  0.9999923  0.0039183 -0.0039183  0.9999923 
    4   382     3  1.5281520 -0.0063568  0.9999926  0.0038411 -0.0038411  0.9999926 
    4   382     4  1.5319949 -0.0045023  0.9999894  0.0046028 -0.0046028  0.9999894 
    4   383     1  1.5064388 -0.0076435  0.9999927  0.0038265 -0.0038265  0.9999927 
    4   383     2  1.5077363 -0.0092170  0.9999945  0.0033180 -0.0033180  0.9999945 
    4   383     3  1.5105418 -0.0051339  0.9999881  0.0048776 -0.0048776  0.9999881 
    4   383     4  1.5116894 -0.0069749  0.9999909  0.0042664 -0.0042664  0.9999909 
    4   384     1  1.5005028 -0.0048351  0.9999906  0.0043304 -0.0043304  0.9999906 
    4   384     2  1.4990297 -0.0081746  0.9999941  0.0034421 -0.0034421  0.9999941 
    4   384     3  1.4998826 -0.0082603  0.9999882  0.0048660 -0.0048660  0.9999882 
    4   384     4  1.4988434 -0.0102402  0.9999917  0.0040730 -0.0040730  0.9999917 
    4   385     1  1.5066014 -0.0076963  0.9999901  0.0044422 -0.0044422  0.9999901 
    4   385     2  1.5089814 -0.0051253  0.9999937  0.0035575 -0.0035575  0.9999937 
    4   385     3  1.5072919 -0.0093107  0.9999901  0.0044594 -0.0044594  0.9999901 
    4   385     4  1.5097021 -0.0071064  0.9999935  0.0036113 -0.0036113  0.9999935 
    4   386     1  1.5142562 -0.0088966  0.9999936  0.0035779 -0.0035779  0.9999936 
    4   386     2  1.5158521 -0.0071909  0.9999911  0.0042245 -0.0042245  0.9999911 
    4   386     3  1.5138574 -0.0072044  0.9999940  0.0034597 -0.0034597  0.9999940 
    4   386     4  1.5157046 -0.0051223  0.9999911  0.0042115 -0.0042115  0.9999911 
    4   387     1  1.4961135 -0.0076465  0.9999922  0.0039552 -0.0039552  0.9999922 
    4   387     2  1.4873329 -0.0113055  0.9999855  0.0053930 -0.0053930  0.9999855 
    4   387     3  1.4948081 -0.0053698  0.9999974  0.0022725 -0.0022725  0.9999974 
    4   387     4  1.4877048 -0.0087571  0.9999931  0.0037260 -0.0037260  0.9999931 
    4   388     1  1.4947705 -0.0061002  0.9999981  0.0019584 -0.0019584  0.9999981 
    4   388     2  1.4946890 -0.0077848  0.9999923  0.0039181 -0.0039181  0.9999923 
    4   388     3  1.4879173 -0.0084524  0.9999965  0.0026513 -0.0026513  0.9999965 
    4   388     4  1.4875409 -0.0100854  0.9999900  0.0044610 -0.0044610  0.9999900 
    4   389     1  1.4985785 -0.0084400  0.9999967  0.0025742 -0.0025742  0.9999967 
    4   389     2  1.5044917 -0.0064067  0.9999981  0.0019589 -0.0019589  0.9999981 
    4   389     3  1.4987798 -0.0093560  0.9999921  0.0039760 -0.0039760  0.9999921 
    4   389     4  1.5050350 -0.0073520  0.9999937  0.0035383 -0.0035383  0.9999937 
    4   390     1  1.5031062 -0.0098930  0.9999904  0.0043881 -0.0043881  0.9999904 
    4   390     2  1.5025949 -0.0078993  0.9999926  0.0038585 -0.0038585  0.9999926 
    4   390     3  1.5068167 -0.0078814  0.9999939  0.0034957 -0.0034957  0.9999939 
    4   390     4  1.5063343 -0.0055379  0.9999959  0.0028616 -0.0028616  0.9999959 
    4   391     1  1.5187092 -0.0068682  0.9999943  0.0033724 -0.0033724  0.9999943 
    4   391     2  1.5193052 -0.0081970  0.9999942  0.0033926 -0.0033926  0.9999942 
    4   391     3  1.5204989 -0.0055251  0.9999921  0.0039767 -0.0039767  0.9999921 
    4   391     4  1.5206812 -0.0069091  0.9999925  0.0038826 -0.0038826  0.9999925 
    4   392     1  1.5164396 -0.0053651  0.9999954  0.0030215 -0.0030215  0.9999954 
    4   392     2  1.5167965 -0.0068879  0.9999942  0.0034184 -0.0034184  0.9999942 
    4   392     3  1.5140661 -0.0071759  0.9999930  0.0037389 -0.0037389  0.9999930 
    4   392     4  1.5147389 -0.0081234  0.9999922  0.0039458 -0.0039458  0.9999922 
    4   393     1  1.5197614 -0.0076548  0.9999960  0.0028144 -0.0028144  0.9999960 
    4   393     2  1.5248084 -0.0061062  0.9999953  0.0030734 -0.0030734  0.9999953 
    4   393     3  1.5203584 -0.0072850  0.9999920  0.0040037 -0.0040037  0.9999920 
    4   393     4  1.5241162 -0.0061734  0.9999922  0.0039393 -0.0039393  0.9999922 
    4   394     1  1.5193632 -0.0081913  0.9999930  0.0037463 -0.0037463  0.9999930 
    4   394     2  1.5185445 -0.0068713  0.9999961  0.0027798 -0.0027798  0.9999961 
    4   394     3  1.5240407 -0.0063021  0.9999954  0.0030338 -0.0030338  0.9999954 
    4   394     4  1.5229846 -0.0052249  0.9999976  0.0022000 -0.0022000  0.9999976 
    4   395     1  1.5154793 -0.0069577  0.9999940  0.0034511 -0.0034511  0.9999940 
    4   395     2  1.5111705 -0.0086803  0.9999916  0.0040975 -0.0040975  0.9999916 
    4   395     3  1.5147334 -0.0057419  0.9999968  0.0025145 -0.0025145  0.9999968 
    4   395     4  1.5102663 -0.0076123  0.9999947  0.0032440 -0.0032440  0.9999947 
    4   396     1  1.5130858 -0.0059250  0.9999977  0.0021277 -0.0021277  0.9999977 
    4   396     2  1.5137816 -0.0069857  0.9999949  0.0031941 -0.0031941  0.9999949 
    4   396     3  1.5085811 -0.0075820  0.9999964  0.0026887 -0.0026887  0.9999964 
    4   396     4  1.5089752 -0.0086607  0.9999931  0.0037110 -0.0037110  0.9999931 
    4   397     1  1.5166176 -0.0069714  0.9999965  0.0026279 -0.0026279  0.9999965 
    4   397     2  1.5203562 -0.0054205  0.9999979  0.0020297 -0.0020297  0.9999979 
    4   397     3  1.5172373 -0.0080839  0.9999941  0.0034261 -0.0034261  0.9999941 
    4   397     4  1.5212286 -0.0064618  0.9999961  0.0028102 -0.0028102  0.9999961 
    4   398     1  1.5157127 -0.0079746  0.9999956  0.0029799 -0.0029799  0.9999956 
    4   398     2  1.5152038 -0.0070987  0.9999974  0.0022634 -0.0022634  0.9999974 
    4   398     3  1.5188835 -0.0065152  0.9999972  0.0023650 -0.0023650  0.9999972 
    4   398     4  1.5180041 -0.0059585  0.9999983  0.0018290 -0.0018290  0.9999983 
    4   399     1  1.5124330 -0.0066006  0.9999954  0.0030312 -0.0030312  0.9999954 
    4   399     2  1.5078616 -0.0079619  0.9999959  0.0028577 -0.0028577  0.9999959 
    4   399     3  1.5119822 -0.0066753  0.9999983  0.0018670 -0.0018670  0.9999983 
    4   399     4  1.5081540 -0.0078273  0.9999981  0.0019511 -0.0019511  0.9999981 
    4   400     1  1.5133977 -0.0070282  0.9999977  0.0021307 -0.0021307  0.9999977 
    4   400     2  1.5129315 -0.0055526  0.9999982  0.0019206 -0.0019206  0.9999982 
    4   400     3  1.5118863 -0.0085449  0.9999989  0.0014877 -0.0014877  0.9999989 
    4   400     4  1.5118882 -0.0071212  0.9999989  0.0014794 -0.0014794  0.9999989 
    4   401     1  1.4987341 -0.0084817  0.9999951  0.0031177 -0.0031177  0.9999951 
    4   401     2  1.4990592 -0.0086724  0.9999984  0.0017875 -0.0017875  0.9999984 
    4   401     3  1.5043745 -0.0067342  0.9999941  0.0034490 -0.0034490  0.9999941 
    4   401     4  1.5049528 -0.0069027  0.9999982  0.0018711 -0.0018711  0.9999982 
    4   402     1  1.4949040 -0.0068342  0.9999926  0.0038533 -0.0038533  0.9999926 
    4   402     2  1.4881191 -0.0089034  0.9999935  0.0036067 -0.0036067  0.9999935 
    4   402     3  1.4951809 -0.0071805  0.9999983  0.0018358 -0.0018358  0.9999983 
    4   402     4  1.4880664 -0.0093084  0.9999984  0.0017731 -0.0017731  0.9999984 
    4   403     1  1.4966233 -0.0075035  0.9999987  0.0016190 -0.0016190  0.9999987 
    4   403     2  1.4956247 -0.0058460  0.9999936  0.0035848 -0.0035848  0.9999936 
    4   403     3  1.4881880 -0.0104985  0.9999998  0.0006603 -0.0006603  0.9999998 
    4   403     4  1.4884600 -0.0087399  0.9999971  0.0024062 -0.0024062  0.9999971 
    4   404     1  1.5030525 -0.0096328  0.9999994  0.0010581 -0.0010581  0.9999994 
    4   404     2  1.5079536 -0.0074961  0.9999981  0.0019592 -0.0019592  0.9999981 
    4   404     3  1.5024268 -0.0076550  0.9999982  0.0018974 -0.0018974  0.9999982 
    4   404     4  1.5068116 -0.0056784  0.9999963  0.0027322 -0.0027322  0.9999963 
    4   405     1  1.5210944 -0.0050855  0.9999992  0.0012494 -0.0012494  0.9999992 
    4   405     2  1.5220775 -0.0065929  0.9999981  0.0019450 -0.0019450  0.9999981 
    4   405     3  1.5167634 -0.0072419  0.9999977  0.0021476 -0.0021476  0.9999977 
    4   405     4  1.5183266 -0.0083013  0.9999965  0.0026501 -0.0026501  0.9999965 
    4   406     1  1.5252203 -0.0067388  0.9999986  0.0016565 -0.0016565  0.9999986 
    4   406     2  1.5298878 -0.0049681  0.9999995  0.0010327 -0.0010327  0.9999995 
    4   406     3  1.5262175 -0.0074906  0.9999968  0.0025374 -0.0025374  0.9999968 
    4   406     4  1.5308289 -0.0057928  0.9999981  0.0019682 -0.0019682  0.9999981 
    4   407     1  1.5292128 -0.0075595  0.9999963  0.0027110 -0.0027110  0.9999963 
    4   407     2  1.5282585 -0.0065156  0.9999979  0.0020395 -0.0020395  0.9999979 
    4   407     3  1.5330427 -0.0059140  0.9999979  0.0020655 -0.0020655  0.9999979 
    4   407     4  1.5322138 -0.0047784  0.9999991  0.0013504 -0.0013504  0.9999991 
    4   408     1  1.5251937 -0.0064398  0.9999980  0.0020244 -0.0020244  0.9999980 
    4   408     2  1.5222908 -0.0080038  0.9999964  0.0026799 -0.0026799  0.9999964 
    4   408     3  1.5245274 -0.0052096  0.9999988  0.0015633 -0.0015633  0.9999988 
    4   408     4  1.5214944 -0.0067704  0.9999975  0.0022208 -0.0022208  0.9999975 
    4   409     1  1.5198990 -0.0061422  0.9999978  0.0021054 -0.0021054  0.9999978 
    4   409     2  1.5134647 -0.0082029  0.9999968  0.0025461 -0.0025461  0.9999968 
    4   409     3  1.5190196 -0.0054883  0.9999998  0.0006964 -0.0006964  0.9999998 
    4   409     4  1.5132221 -0.0074546  0.9999992  0.0012663 -0.0012663  0.9999992 
    4   410     1  1.5183495 -0.0061584  0.9999999  0.0005044 -0.0005044  0.9999999 
    4   410     2  1.5188665 -0.0061783  0.9999984  0.0017876 -0.0017876  0.9999984 
    4   410     3  1.5125561 -0.0079099  0.9999998  0.0006509 -0.0006509  0.9999998 
    4   410     4  1.5130044 -0.0079480  0.9999982  0.0019148 -0.0019148  0.9999982 
    4   411     1  1.5218393 -0.0071816  0.9999997  0.0007071 -0.0007071  0.9999997 
    4   411     2  1.5271981 -0.0055180  0.9999999  0.0004336 -0.0004336  0.9999999 
    4   411     3  1.5222719 -0.0074153  0.9999983  0.0018288 -0.0018288  0.9999983 
    4   411     4  1.5277325 -0.0057408  0.9999987  0.0016152 -0.0016152  0.9999987 
    4   412     1  1.5241620 -0.0076005  0.9999974  0.0022763 -0.0022763  0.9999974 
    4   412     2  1.5234891 -0.0068286  0.9999991  0.0013289 -0.0013289  0.9999991 
    4   412     3  1.5290007 -0.0059524  0.9999984  0.0018083 -0.0018083  0.9999984 
    4   412     4  1.5283473 -0.0051171  0.9999997  0.0008013 -0.0008013  0.9999997 
    4   413     1  1.5029020 -0.0083712  0.9999994  0.0010822 -0.0010822  0.9999994 
    4   413     2  1.5092390 -0.0064118  0.9999997  0.0007680 -0.0007680  0.9999997 
    4   413     3  1.5043360 -0.0086994  0.9999972  0.0023479 -0.0023479  0.9999972 
    4   413     4  1.5097402 -0.0069668  0.9999981  0.0019732 -0.0019732  0.9999981 
    4   414     1  1.5030639 -0.0087151  0.9999979  0.0020691 -0.0020691  0.9999979 
    4   414     2  1.5046103 -0.0090283  0.9999998  0.0005948 -0.0005948  0.9999998 
    4   414     3  1.5103836 -0.0064605  0.9999971  0.0024019 -0.0024019  0.9999971 
    4   414     4  1.5102088 -0.0071682  0.9999994  0.0011140 -0.0011140  0.9999994 
    4   415     1  1.4998760 -0.0053315  0.9999988  0.0015729 -0.0015729  0.9999988 
    4   415     2  1.4993203 -0.0087593  0.9999993  0.0011829 -0.0011829  0.9999993 
    4   415     3  1.4983454 -0.0087860  0.9999973  0.0023302 -0.0023302  0.9999973 
    4   415     4  1.4983758 -0.0102798  0.9999983  0.0018357 -0.0018357  0.9999983 
    4   416     1  1.5034257 -0.0087446  0.9999979  0.0020431 -0.0020431  0.9999979 
    4   416     2  1.5028985 -0.0080204  0.9999996  0.0009172 -0.0009172  0.9999996 
    4   416     3  1.5088016 -0.0071388  0.9999984  0.0018115 -0.0018115  0.9999984 
    4   416     4  1.5086056 -0.0061841  0.9999999  0.0005008 -0.0005008  0.9999999 
    4   417     1  1.4977138 -0.0068264  0.9999978  0.0021120 -0.0021120  0.9999978 
    4   417     2  1.4884682 -0.0096683  0.9999969  0.0025060 -0.0025060  0.9999969 
    4   417     3  1.4967063 -0.0061243  1.0000000 -0.0002734  0.0002734  1.0000000 
    4   417     4  1.4885046 -0.0088550  0.9999998  0.0005834 -0.0005834  0.9999998 
    4   418     1  1.4967495 -0.0073402  1.0000000 -0.0001810  0.0001810  1.0000000 
    4   418     2  1.4964707 -0.0053696  0.9999978  0.0020974 -0.0020974  0.9999978 
    4   418     3  1.4881882 -0.0102382  0.9999995 -0.0010005  0.0010005  0.9999995 
    4   418     4  1.4885547 -0.0086150  0.9999998  0.0007049 -0.0007049  0.9999998 
    4   419     1  1.5033548 -0.0093189  0.9999999 -0.0005280  0.0005280  0.9999999 
    4   419     2  1.5088509 -0.0075936  1.0000000 -0.0001162  0.0001162  1.0000000 
    4   419     3  1.5031267 -0.0081272  0.9999998  0.0006277 -0.0006277  0.9999998 
    4   419     4  1.5089345 -0.0062893  0.9999994  0.0010756 -0.0010756  0.9999994 
    4   420     1  1.5181752 -0.0059629  0.9999988  0.0015433 -0.0015433  0.9999988 
    4   420     2  1.5125351 -0.0076549  0.9999988  0.0015407 -0.0015407  0.9999988 
    4   420     3  1.5179340 -0.0060245  1.0000000  0.0002985 -0.0002985  1.0000000 
    4   420     4  1.5122458 -0.0077312  0.9999999  0.0003472 -0.0003472  0.9999999 
    4   421     1  1.5181335 -0.0060278  1.0000000  0.0001151 -0.0001151  1.0000000 
    4   421     2  1.5178803 -0.0057210  0.9999990  0.0014155 -0.0014155  0.9999990 
    4   421     3  1.5122887 -0.0078084  1.0000000 -0.0000772  0.0000772  1.0000000 
    4   421     4  1.5121607 -0.0075110  0.9999994  0.0010642 -0.0010642  0.9999994 
    4   422     1  1.5217967 -0.0072174  1.0000000  2.56e-007 -2.56e-007  1.0000000 
    4   422     2  1.5267620 -0.0057211  1.0000000  0.0000946 -0.0000946  1.0000000 
    4   422     3  1.5216011 -0.0070453  0.9999995  0.0010175 -0.0010175  0.9999995 
    4   422     4  1.5267507 -0.0054856  0.9999993  0.0011502 -0.0011502  0.9999993 
    4   423     1  1.5214806 -0.0072409  0.9999990  0.0014466 -0.0014466  0.9999990 
    4   423     2  1.5212896 -0.0072235  0.9999999  0.0003228 -0.0003228  0.9999999 
    4   423     3  1.5269656 -0.0055951  0.9999990  0.0014195 -0.0014195  0.9999990 
    4   423     4  1.5267170 -0.0055912  1.0000000  0.0002393 -0.0002393  1.0000000 
    4   424     1  1.5188747 -0.0060181  0.9999996  0.0009318 -0.0009318  0.9999996 
    4   424     2  1.5142334 -0.0076983  0.9999999  0.0003760 -0.0003760  0.9999999 
    4   424     3  1.5193918 -0.0067825  1.0000000  0.0002173 -0.0002173  1.0000000 
    4   424     4  1.5157949 -0.0080930  1.0000000 -0.0002200  0.0002200  1.0000000 
    4   425     1  1.5207180 -0.0064773  1.0000000 -0.0001040  0.0001040  1.0000000 
    4   425     2  1.5204780 -0.0062626  0.9999999  0.0005138 -0.0005138  0.9999999 
    4   425     3  1.5174661 -0.0075149  0.9999999 -0.0003250  0.0003250  0.9999999 
    4   425     4  1.5169772 -0.0073312  0.9999999  0.0003812 -0.0003812  0.9999999 
    4   426     1  1.5231009 -0.0072612  0.9999999 -0.0003973  0.0003973  0.9999999 
    4   426     2  1.5274495 -0.0059430  1.0000000 -0.0002805  0.0002805  1.0000000 
    4   426     3  1.5228377 -0.0071360  0.9999999  0.0005008 -0.0005008  0.9999999 
    4   426     4  1.5273775 -0.0057703  0.9999998  0.0005761 -0.0005761  0.9999998 
    4   427     1  1.5219224 -0.0071812  0.9999997  0.0007871 -0.0007871  0.9999997 
    4   427     2  1.5223494 -0.0072150  1.0000000 -0.0001895  0.0001895  1.0000000 
    4   427     3  1.5269316 -0.0056649  0.9999996  0.0009175 -0.0009175  0.9999996 
    4   427     4  1.5271209 -0.0057706  1.0000000 -0.0000665  0.0000665  1.0000000 
    4   428     1  1.5123702 -0.0074892  1.0000000 -0.0003113  0.0003113  1.0000000 
    4   428     2  1.5153237 -0.0066089  1.0000000 -0.0001311  0.0001311  1.0000000 
    4   428     3  1.5121446 -0.0075781  0.9999999  0.0003576 -0.0003576  0.9999999 
    4   428     4  1.5148883 -0.0067564  0.9999999  0.0003926 -0.0003926  0.9999999 
    4   429     1  1.5111680 -0.0071802  1.0000000  0.0002227 -0.0002227  1.0000000 
    4   429     2  1.5107513 -0.0077657  0.9999999  0.0004909 -0.0004909  0.9999999 
    4   429     3  1.5111145 -0.0066168  0.9999999  0.0004050 -0.0004050  0.9999999 
    4   429     4  1.5108365 -0.0071856  0.9999999  0.0005428 -0.0005428  0.9999999 
    4   430     1  1.5097900 -0.0072002  0.9999999 -0.0003591  0.0003591  0.9999999 
    4   430     2  1.5100143 -0.0066457  1.0000000  0.0002959 -0.0002959  1.0000000 
    4   430     3  1.5067024 -0.0080374  0.9999999 -0.0003766  0.0003766  0.9999999 
    4   430     4  1.5071256 -0.0074919  1.0000000  0.0001967 -0.0001967  1.0000000 
    4   431     1  1.5352305 -0.0052567  0.9999992  0.0012858 -0.0012858  0.9999992 
    4   431     2  1.5301793 -0.0067811  0.9999990  0.0013886 -0.0013886  0.9999990 
    4   431     3  1.5349368 -0.0051684  1.0000000  0.0002268 -0.0002268  1.0000000 
    4   431     4  1.5299583 -0.0066770  0.9999999  0.0003655 -0.0003655  0.9999999 
    4   432     1  1.5347193 -0.0052196  1.0000000  0.0000514 -0.0000514  1.0000000 
    4   432     2  1.5348100 -0.0052338  0.9999994  0.0010851 -0.0010851  0.9999994 
    4   432     3  1.5297892 -0.0066997  1.0000000  0.0000900 -0.0000900  1.0000000 
    4   432     4  1.5297905 -0.0067397  0.9999994  0.0011004 -0.0011004  0.9999994 
    4   433     1  1.5376604 -0.0062439  1.0000000  0.0001334 -0.0001334  1.0000000 
    4   433     2  1.5424016 -0.0048127  1.0000000  0.0000344 -0.0000344  1.0000000 
    4   433     3  1.5377534 -0.0063661  0.9999994  0.0010933 -0.0010933  0.9999994 
    4   433     4  1.5425348 -0.0049258  0.9999995  0.0010133 -0.0010133  0.9999995 
    4   434     1  1.5382462 -0.0063903  0.9999991  0.0013658 -0.0013658  0.9999991 
    4   434     2  1.5379931 -0.0061759  0.9999999  0.0004122 -0.0004122  0.9999999 
    4   434     3  1.5430005 -0.0049400  0.9999993  0.0012055 -0.0012055  0.9999993 
    4   434     4  1.5427188 -0.0047253  1.0000000  0.0002230 -0.0002230  1.0000000 
    4   435     1  1.5347244 -0.0053020  0.9999996  0.0008500 -0.0008500  0.9999996 
    4   435     2  1.5298983 -0.0067500  0.9999997  0.0008319 -0.0008319  0.9999997 
    4   435     3  1.5347251 -0.0053180  1.0000000 -0.0001191  0.0001191  1.0000000 
    4   435     4  1.5300064 -0.0067338  1.0000000 -0.0001335  0.0001335  1.0000000 
    4   436     1  1.5347809 -0.0053893  0.9999999 -0.0003412  0.0003412  0.9999999 
    4   436     2  1.5347626 -0.0053794  0.9999998  0.0005931 -0.0005931  0.9999998 
    4   436     3  1.5301324 -0.0067841  0.9999999 -0.0003594  0.0003594  0.9999999 
    4   436     4  1.5300705 -0.0067870  0.9999998  0.0005863 -0.0005863  0.9999998 
    4   437     1  1.5375659 -0.0063461  0.9999999 -0.0003473  0.0003473  0.9999999 
    4   437     2  1.5422343 -0.0049454  0.9999999 -0.0003593  0.0003593  0.9999999 
    4   437     3  1.5375555 -0.0063728  0.9999998  0.0005920 -0.0005920  0.9999998 
    4   437     4  1.5422388 -0.0049677  0.9999998  0.0005826 -0.0005826  0.9999998 
    4   438     1  1.5375789 -0.0063660  0.9999996  0.0008402 -0.0008402  0.9999996 
    4   438     2  1.5375558 -0.0063029  1.0000000 -0.0001104  0.0001104  1.0000000 
    4   438     3  1.5423211 -0.0049424  0.9999997  0.0008068 -0.0008068  0.9999997 
    4   438     4  1.5422616 -0.0048895  1.0000000 -0.0001529  0.0001529  1.0000000 
    4   439     1  1.5503694 -0.0046153  0.9999994  0.0011315 -0.0011315  0.9999994 
    4   439     2  1.5458715 -0.0059957  0.9999991  0.0013081 -0.0013081  0.9999991 
    4   439     3  1.5501185 -0.0043571  1.0000000  0.0002055 -0.0002055  1.0000000 
    4   439     4  1.5456222 -0.0057459  0.9999999  0.0004070 -0.0004070  0.9999999 
    4   440     1  1.5498108 -0.0044295  1.0000000  0.0000178 -0.0000178  1.0000000 
    4   440     2  1.5499321 -0.0046024  0.9999995  0.0009561 -0.0009561  0.9999995 
    4   440     3  1.5452427 -0.0058152  1.0000000  0.0001436 -0.0001436  1.0000000 
    4   440     4  1.5453621 -0.0059847  0.9999994  0.0010637 -0.0010637  0.9999994 
    4   441     1  1.5525589 -0.0054317  1.0000000  0.0001272 -0.0001272  1.0000000 
    4   441     2  1.5570108 -0.0040797  1.0000000 -6.28e-007  6.28e-007  1.0000000 
    4   441     3  1.5526622 -0.0056161  0.9999995  0.0010167 -0.0010167  0.9999995 
    4   441     4  1.5570966 -0.0042731  0.9999996  0.0009050 -0.0009050  0.9999996 
    4   442     1  1.5531092 -0.0056168  0.9999992  0.0012380 -0.0012380  0.9999992 
    4   442     2  1.5528918 -0.0053644  0.9999999  0.0003723 -0.0003723  0.9999999 
    4   442     3  1.5574339 -0.0042893  0.9999994  0.0010685 -0.0010685  0.9999994 
    4   442     4  1.5572536 -0.0040179  1.0000000  0.0001804 -0.0001804  1.0000000 
    4   443     1  1.5497073 -0.0045933  0.9999997  0.0007662 -0.0007662  0.9999997 
    4   443     2  1.5451201 -0.0059723  0.9999997  0.0008206 -0.0008206  0.9999997 
    4   443     3  1.5496297 -0.0045078  1.0000000 -0.0001690  0.0001690  1.0000000 
    4   443     4  1.5450575 -0.0058836  1.0000000 -0.0001029  0.0001029  1.0000000 
    4   444     1  1.5495724 -0.0045569  0.9999999 -0.0003653  0.0003653  0.9999999 
    4   444     2  1.5495846 -0.0045900  0.9999998  0.0005656 -0.0005656  0.9999998 
    4   444     3  1.5450038 -0.0059279  0.9999999 -0.0003418  0.0003418  0.9999999 
    4   444     4  1.5450111 -0.0059622  0.9999998  0.0005806 -0.0005806  0.9999998 
    4   445     1  1.5522965 -0.0055436  0.9999999 -0.0003367  0.0003367  0.9999999 
    4   445     2  1.5568022 -0.0041912  0.9999999 -0.0003640  0.0003640  0.9999999 
    4   445     3  1.5523065 -0.0055825  0.9999998  0.0005646 -0.0005646  0.9999998 
    4   445     4  1.5568080 -0.0042318  0.9999999  0.0005476 -0.0005476  0.9999999 
    4   446     1  1.5524355 -0.0055955  0.9999997  0.0007915 -0.0007915  0.9999997 
    4   446     2  1.5523635 -0.0054995  1.0000000 -0.0001069  0.0001069  1.0000000 
    4   446     3  1.5569147 -0.0042482  0.9999997  0.0007319 -0.0007319  0.9999997 
    4   446     4  1.5568522 -0.0041478  1.0000000 -0.0001789  0.0001789  1.0000000 
    4   447     1  1.5642236 -0.0039873  0.9999995  0.0010162 -0.0010162  0.9999995 
    4   447     2  1.5600507 -0.0052639  0.9999993  0.0011669 -0.0011669  0.9999993 
    4   447     3  1.5641292 -0.0037193  1.0000000  0.0001535 -0.0001535  1.0000000 
    4   447     4  1.5599057 -0.0050164  0.9999999  0.0003206 -0.0003206  0.9999999 
    4   448     1  1.5639748 -0.0037637  1.0000000 -0.0000173  0.0000173  1.0000000 
    4   448     2  1.5640047 -0.0039672  0.9999996  0.0008628 -0.0008628  0.9999996 
    4   448     3  1.5596672 -0.0050709  1.0000000  0.0001014 -0.0001014  1.0000000 
    4   448     4  1.5597309 -0.0052610  0.9999995  0.0009679 -0.0009679  0.9999995 
    4   449     1  1.5665455 -0.0047497  1.0000000  0.0000746 -0.0000746  1.0000000 
    4   449     2  1.5707772 -0.0034691  1.0000000 -0.0000269  0.0000269  1.0000000 
    4   449     3  1.5665571 -0.0049320  0.9999996  0.0009235 -0.0009235  0.9999996 
    4   449     4  1.5707562 -0.0036632  0.9999997  0.0008318 -0.0008318  0.9999997 
    4   450     1  1.5667431 -0.0049361  0.9999994  0.0011080 -0.0011080  0.9999994 
    4   450     2  1.5666787 -0.0047114  1.0000000  0.0002740 -0.0002740  1.0000000 
    4   450     3  1.5708421 -0.0036894  0.9999995  0.0009846 -0.0009846  0.9999995 
    4   450     4  1.5708392 -0.0034436  1.0000000  0.0001405 -0.0001405  1.0000000 
    4   451     1  1.5638924 -0.0039324  0.9999998  0.0007011 -0.0007011  0.9999998 
    4   451     2  1.5595638 -0.0052345  0.9999997  0.0007593 -0.0007593  0.9999997 
    4   451     3  1.5638480 -0.0038268  1.0000000 -0.0001863  0.0001863  1.0000000 
    4   451     4  1.5595112 -0.0051328  1.0000000 -0.0001168  0.0001168  1.0000000 
    4   452     1  1.5638199 -0.0038632  0.9999999 -0.0003599  0.0003599  0.9999999 
    4   452     2  1.5638097 -0.0039094  0.9999999  0.0005304 -0.0005304  0.9999999 
    4   452     3  1.5594622 -0.0051712  0.9999999 -0.0003327  0.0003327  0.9999999 
    4   452     4  1.5594622 -0.0052139  0.9999999  0.0005473 -0.0005473  0.9999999 
    4   453     1  1.5664073 -0.0048363  0.9999999 -0.0003293  0.0003293  0.9999999 
    4   453     2  1.5706854 -0.0035523  0.9999999 -0.0003537  0.0003537  0.9999999 
    4   453     3  1.5663935 -0.0048792  0.9999999  0.0005309 -0.0005309  0.9999999 
    4   453     4  1.5706668 -0.0035970  0.9999999  0.0005156 -0.0005156  0.9999999 
    4   454     1  1.5664691 -0.0049007  0.9999997  0.0007291 -0.0007291  0.9999997 
    4   454     2  1.5664324 -0.0048042  1.0000000 -0.0001272  0.0001272  1.0000000 
    4   454     3  1.5707163 -0.0036237  0.9999998  0.0006766 -0.0006766  0.9999998 
    4   454     4  1.5706954 -0.0035213  1.0000000 -0.0001891  0.0001891  1.0000000 
    4   455     1  1.5772879 -0.0034116  0.9999995  0.0009591 -0.0009591  0.9999995 
    4   455     2  1.5732801 -0.0046267  0.9999994  0.0010645 -0.0010645  0.9999994 
    4   455     3  1.5773492 -0.0031736  1.0000000  0.0001291 -0.0001291  1.0000000 
    4   455     4  1.5733049 -0.0044007  1.0000000  0.0002390 -0.0002390  1.0000000 
    4   456     1  1.5773742 -0.0031911  1.0000000 -0.0000348  0.0000348  1.0000000 
    4   456     2  1.5773063 -0.0033864  0.9999997  0.0008065 -0.0008065  0.9999997 
    4   456     3  1.5732733 -0.0044303  1.0000000  0.0000541 -0.0000541  1.0000000 
    4   456     4  1.5732343 -0.0046155  0.9999996  0.0008884 -0.0008884  0.9999996 
    4   457     1  1.5798055 -0.0041401  1.0000000  0.0000342 -0.0000342  1.0000000 
    4   457     2  1.5838638 -0.0029152  1.0000000 -0.0000461  0.0000461  1.0000000 
    4   457     3  1.5797265 -0.0043259  0.9999996  0.0008566 -0.0008566  0.9999996 
    4   457     4  1.5837686 -0.0031069  0.9999997  0.0007818 -0.0007818  0.9999997 
    4   458     1  1.5796775 -0.0043425  0.9999995  0.0010262 -0.0010262  0.9999995 
    4   458     2  1.5797549 -0.0041142  1.0000000  0.0002067 -0.0002067  1.0000000 
    4   458     3  1.5836815 -0.0031308  0.9999996  0.0009303 -0.0009303  0.9999996 
    4   458     4  1.5837813 -0.0028951  1.0000000  0.0001080 -0.0001080  1.0000000 
    4   459     1  1.5797800 -0.0042824  0.9999998  0.0006797 -0.0006797  0.9999998 
    4   459     2  1.5797864 -0.0041867  1.0000000 -0.0001441  0.0001441  1.0000000 
    4   459     3  1.5838454 -0.0030607  0.9999998  0.0006361 -0.0006361  0.9999998 
    4   459     4  1.5838654 -0.0029601  1.0000000 -0.0001945  0.0001945  1.0000000 
    4   460     1  1.5773344 -0.0033404  0.9999998  0.0006553 -0.0006553  0.9999998 
    4   460     2  1.5732222 -0.0045765  0.9999998  0.0007027 -0.0007027  0.9999998 
    4   460     3  1.5773334 -0.0032397  1.0000000 -0.0001914  0.0001914  1.0000000 
    4   460     4  1.5732098 -0.0044801  1.0000000 -0.0001362  0.0001362  1.0000000 
    4   461     1  1.5773289 -0.0032710  0.9999999 -0.0003482  0.0003482  0.9999999 
    4   461     2  1.5773109 -0.0033160  0.9999999  0.0005017 -0.0005017  0.9999999 
    4   461     3  1.5732009 -0.0045100  0.9999999 -0.0003254  0.0003254  0.9999999 
    4   461     4  1.5731814 -0.0045550  0.9999999  0.0005165 -0.0005165  0.9999999 
    4   462     1  1.5797858 -0.0042176  0.9999999 -0.0003223  0.0003223  0.9999999 
    4   462     2  1.5838811 -0.0029885  0.9999999 -0.0003435  0.0003435  0.9999999 
    4   462     3  1.5797664 -0.0042612  0.9999999  0.0005030 -0.0005030  0.9999999 
    4   462     4  1.5838537 -0.0030349  0.9999999  0.0004890 -0.0004890  0.9999999 
    4   463     1  1.5902352 -0.0027366  0.9999999 -0.0003401  0.0003401  0.9999999 
    4   463     2  1.5901978 -0.0027843  0.9999999  0.0004770 -0.0004770  0.9999999 
    4   463     3  1.5862823 -0.0039229  0.9999999 -0.0003202  0.0003202  0.9999999 
    4   463     4  1.5862511 -0.0039684  0.9999999  0.0004901 -0.0004901  0.9999999 
    4   464     1  1.5925757 -0.0036636  0.9999999 -0.0003177  0.0003177  0.9999999 
    4   464     2  1.5964874 -0.0024896  0.9999999 -0.0003375  0.0003375  0.9999999 
    4   464     3  1.5925385 -0.0037101  0.9999999  0.0004783 -0.0004783  0.9999999 
    4   464     4  1.5964538 -0.0025354  0.9999999  0.0004654 -0.0004654  0.9999999 
    4   465     1  1.5925111 -0.0037423  0.9999998  0.0006364 -0.0006364  0.9999998 
    4   465     2  1.5925421 -0.0036389  1.0000000 -0.0001602  0.0001602  1.0000000 
    4   465     3  1.5964305 -0.0025644  0.9999998  0.0005940 -0.0005940  0.9999998 
    4   465     4  1.5964603 -0.0024606  1.0000000 -0.0002090  0.0002090  1.0000000 
    4   466     1  1.5901722 -0.0028134  0.9999998  0.0006154 -0.0006154  0.9999998 
    4   466     2  1.5862320 -0.0039976  0.9999998  0.0006578 -0.0006578  0.9999998 
    4   466     3  1.5902029 -0.0027088  1.0000000 -0.0002012  0.0002012  1.0000000 
    4   466     4  1.5862585 -0.0038950  1.0000000 -0.0001524  0.0001524  1.0000000 
    4   467     1  1.5901844 -0.0026620  1.0000000 -0.0000632  0.0000632  1.0000000 
    4   467     2  1.5900822 -0.0028570  0.9999997  0.0007534 -0.0007534  0.9999997 
    4   467     3  1.5862411 -0.0038522  1.0000000  0.0000150 -0.0000150  1.0000000 
    4   467     4  1.5861409 -0.0040455  0.9999997  0.0008266 -0.0008266  0.9999997 
    4   468     1  1.5925160 -0.0035981  1.0000000 -2.71e-006  2.71e-006  1.0000000 
    4   468     2  1.5964447 -0.0024119  1.0000000 -0.0000823  0.0000823  1.0000000 
    4   468     3  1.5924158 -0.0037916  0.9999997  0.0007972 -0.0007972  0.9999997 
    4   468     4  1.5963466 -0.0026060  0.9999997  0.0007233 -0.0007233  0.9999997 
    4   469     1  1.5923103 -0.0038254  0.9999995  0.0009526 -0.0009526  0.9999995 
    4   469     2  1.5924189 -0.0035819  1.0000000  0.0001487 -0.0001487  1.0000000 
    4   469     3  1.5962547 -0.0026306  0.9999996  0.0008542 -0.0008542  0.9999996 
    4   469     4  1.5963592 -0.0023870  1.0000000  0.0000454 -0.0000454  1.0000000 
    4   470     1  1.5899792 -0.0028774  0.9999996  0.0008936 -0.0008936  0.9999996 
    4   470     2  1.5860366 -0.0040707  0.9999995  0.0009885 -0.0009885  0.9999995 
    4   470     3  1.5900890 -0.0026370  1.0000000  0.0000767 -0.0000767  1.0000000 
    4   470     4  1.5861445 -0.0038318  1.0000000  0.0001749 -0.0001749  1.0000000 
    4   471     1  1.6023969 -0.0024130  0.9999997  0.0008149 -0.0008149  0.9999997 
    4   471     2  1.5985540 -0.0035788  0.9999996  0.0009174 -0.0009174  0.9999996 
    4   471     3  1.6024798 -0.0021654  1.0000000  0.0000187 -0.0000187  1.0000000 
    4   471     4  1.5986526 -0.0033282  1.0000000  0.0001271 -0.0001271  1.0000000 
    4   472     1  1.6025398 -0.0021960  1.0000000 -0.0000990  0.0000990  1.0000000 
    4   472     2  1.6024527 -0.0023892  0.9999998  0.0006938 -0.0006938  0.9999998 
    4   472     3  1.5987328 -0.0033462  1.0000000 -0.0000183  0.0000183  1.0000000 
    4   472     4  1.5986393 -0.0035400  0.9999997  0.0007683 -0.0007683  0.9999997 
    4   473     1  1.6047825 -0.0031219  1.0000000 -0.0000295  0.0000295  1.0000000 
    4   473     2  1.6085662 -0.0019776  1.0000000 -0.0001144  0.0001144  1.0000000 
    4   473     3  1.6047011 -0.0033163  0.9999997  0.0007421 -0.0007421  0.9999997 
    4   473     4  1.6084919 -0.0021715  0.9999998  0.0006643 -0.0006643  0.9999998 
    4   474     1  1.6046565 -0.0033548  0.9999996  0.0008848 -0.0008848  0.9999996 
    4   474     2  1.6047330 -0.0031026  1.0000000  0.0001102 -0.0001102  1.0000000 
    4   474     3  1.6084589 -0.0021995  0.9999997  0.0007770 -0.0007770  0.9999997 
    4   474     4  1.6085314 -0.0019464  1.0000000 -4.53e-006  4.53e-006  1.0000000 
    4   475     1  1.6047636 -0.0032628  0.9999998  0.0005968 -0.0005968  0.9999998 
    4   475     2  1.6047875 -0.0031585  1.0000000 -0.0001707  0.0001707  1.0000000 
    4   475     3  1.6085369 -0.0021284  0.9999998  0.0005528 -0.0005528  0.9999998 
    4   475     4  1.6085569 -0.0020244  1.0000000 -0.0002221  0.0002221  1.0000000 
    4   476     1  1.6025188 -0.0023456  0.9999998  0.0005736 -0.0005736  0.9999998 
    4   476     2  1.5987232 -0.0034865  0.9999998  0.0006158 -0.0006158  0.9999998 
    4   476     3  1.6025447 -0.0022425  1.0000000 -0.0002157  0.0002157  1.0000000 
    4   476     4  1.5987513 -0.0033835  1.0000000 -0.0001667  0.0001667  1.0000000 
    4   477     1  1.6025581 -0.0022741  0.9999999 -0.0003350  0.0003350  0.9999999 
    4   477     2  1.6025332 -0.0023192  0.9999999  0.0004536 -0.0004536  0.9999999 
    4   477     3  1.5987741 -0.0034098  1.0000000 -0.0003148  0.0003148  1.0000000 
    4   477     4  1.5987440 -0.0034561  0.9999999  0.0004668 -0.0004668  0.9999999 
    4   478     1  1.6047985 -0.0031866  1.0000000 -0.0003113  0.0003113  1.0000000 
    4   478     2  1.6085677 -0.0020553  0.9999999 -0.0003322  0.0003322  0.9999999 
    4   478     3  1.6047756 -0.0032306  0.9999999  0.0004552 -0.0004552  0.9999999 
    4   478     4  1.6085424 -0.0021004  0.9999999  0.0004419 -0.0004419  0.9999999 
    4   479     1  1.6144242 -0.0018647  0.9999999 -0.0003283  0.0003283  0.9999999 
    4   479     2  1.6144002 -0.0019081  0.9999999  0.0004304 -0.0004304  0.9999999 
    4   479     3  1.6107683 -0.0029620  1.0000000 -0.0003076  0.0003076  1.0000000 
    4   479     4  1.6107436 -0.0030053  0.9999999  0.0004433 -0.0004433  0.9999999 
    4   480     1  1.6165773 -0.0027609  1.0000000 -0.0003023  0.0003023  1.0000000 
    4   480     2  1.6201987 -0.0016739  0.9999999 -0.0003243  0.0003243  0.9999999 
    4   480     3  1.6165555 -0.0028045  0.9999999  0.0004322 -0.0004322  0.9999999 
    4   480     4  1.6201811 -0.0017166  0.9999999  0.0004186 -0.0004186  0.9999999 
    4   481     1  1.6165609 -0.0028415  0.9999998  0.0005598 -0.0005598  0.9999998 
    4   481     2  1.6165746 -0.0027357  1.0000000 -0.0001757  0.0001757  1.0000000 
    4   481     3  1.6201962 -0.0017480  0.9999999  0.0005132 -0.0005132  0.9999999 
    4   481     4  1.6202040 -0.0016429  1.0000000 -0.0002304  0.0002304  1.0000000 
    4   482     1  1.6144013 -0.0019393  0.9999999  0.0005335 -0.0005335  0.9999999 
    4   482     2  1.6107404 -0.0030401  0.9999998  0.0005778 -0.0005778  0.9999998 
    4   482     3  1.6144171 -0.0018350  1.0000000 -0.0002260  0.0002260  1.0000000 
    4   482     4  1.6107583 -0.0029362  1.0000000 -0.0001741  0.0001741  1.0000000 
    4   483     1  1.6143781 -0.0020044  0.9999997  0.0007413 -0.0007413  0.9999997 
    4   483     2  1.6106767 -0.0031302  0.9999996  0.0008501 -0.0008501  0.9999996 
    4   483     3  1.6144298 -0.0017542  1.0000000 -0.0000241  0.0000241  1.0000000 
    4   483     4  1.6107421 -0.0028781  1.0000000  0.0000918 -0.0000918  1.0000000 
    4   484     1  1.6144380 -0.0017888  1.0000000 -0.0001261  0.0001261  1.0000000 
    4   484     2  1.6143787 -0.0019804  0.9999998  0.0006371 -0.0006371  0.9999998 
    4   484     3  1.6107682 -0.0028993  1.0000000 -0.0000408  0.0000408  1.0000000 
    4   484     4  1.6107006 -0.0030918  0.9999997  0.0007153 -0.0007153  0.9999997 
    4   485     1  1.6165971 -0.0027012  1.0000000 -0.0000490  0.0000490  1.0000000 
    4   485     2  1.6202410 -0.0015974  1.0000000 -0.0001382  0.0001382  1.0000000 
    4   485     3  1.6165432 -0.0028931  0.9999998  0.0006908 -0.0006908  0.9999998 
    4   485     4  1.6201926 -0.0017895  0.9999998  0.0006093 -0.0006093  0.9999998 
    4   486     1  1.6165561 -0.0029309  0.9999997  0.0008183 -0.0008183  0.9999997 
    4   486     2  1.6166009 -0.0026786  1.0000000  0.0000766 -0.0000766  1.0000000 
    4   486     3  1.6202181 -0.0018153  0.9999998  0.0007051 -0.0007051  0.9999998 
    4   486     4  1.6202547 -0.0015631  1.0000000 -0.0000438  0.0000438  1.0000000 
    4   487     1  1.6259237 -0.0014300  1.0000000 -0.0001480  0.0001480  1.0000000 
    4   487     2  1.6258965 -0.0016159  0.9999998  0.0005828 -0.0005828  0.9999998 
    4   487     3  1.6223669 -0.0025081  1.0000000 -0.0000584  0.0000584  1.0000000 
    4   487     4  1.6223263 -0.0026962  0.9999998  0.0006651 -0.0006651  0.9999998 
    4   488     1  1.6280168 -0.0023308  1.0000000 -0.0000645  0.0000645  1.0000000 
    4   488     2  1.6315435 -0.0012598  1.0000000 -0.0001607  0.0001607  1.0000000 
    4   488     3  1.6279978 -0.0025217  0.9999998  0.0006421 -0.0006421  0.9999998 
    4   488     4  1.6315420 -0.0014475  0.9999998  0.0005533 -0.0005533  0.9999998 
    4   489     1  1.6280651 -0.0025602  0.9999997  0.0007545 -0.0007545  0.9999997 
    4   489     2  1.6280812 -0.0023091  1.0000000  0.0000441 -0.0000441  1.0000000 
    4   489     3  1.6316279 -0.0014715  0.9999998  0.0006350 -0.0006350  0.9999998 
    4   489     4  1.6316316 -0.0012220  1.0000000 -0.0000815  0.0000815  1.0000000 
    4   490     1  1.6259487 -0.0016402  0.9999998  0.0006715 -0.0006715  0.9999998 
    4   490     2  1.6223635 -0.0027333  0.9999997  0.0007847 -0.0007847  0.9999997 
    4   490     3  1.6259696 -0.0013935  1.0000000 -0.0000612  0.0000612  1.0000000 
    4   490     4  1.6223934 -0.0024862  1.0000000  0.0000590 -0.0000590  1.0000000 
    4   491     1  1.6279555 -0.0024672  0.9999999  0.0005246 -0.0005246  0.9999999 
    4   491     2  1.6279464 -0.0023617  1.0000000 -0.0001757  0.0001757  1.0000000 
    4   491     3  1.6314720 -0.0014085  0.9999999  0.0004731 -0.0004731  0.9999999 
    4   491     4  1.6314509 -0.0013052  1.0000000 -0.0002364  0.0002364  1.0000000 
    4   492     1  1.6258685 -0.0015757  0.9999999  0.0004942 -0.0004942  0.9999999 
    4   492     2  1.6223216 -0.0026428  0.9999999  0.0005414 -0.0005414  0.9999999 
    4   492     3  1.6258637 -0.0014737  1.0000000 -0.0002328  0.0002328  1.0000000 
    4   492     4  1.6223247 -0.0025396  1.0000000 -0.0001772  0.0001772  1.0000000 
    4   493     1  1.6258404 -0.0015064  0.9999999 -0.0003192  0.0003192  0.9999999 
    4   493     2  1.6258336 -0.0015460  0.9999999  0.0004066 -0.0004066  0.9999999 
    4   493     3  1.6223121 -0.0025655  1.0000000 -0.0002969  0.0002969  1.0000000 
    4   493     4  1.6222989 -0.0026066  0.9999999  0.0004202 -0.0004202  0.9999999 
    4   494     1  1.6279141 -0.0023859  1.0000000 -0.0002895  0.0002895  1.0000000 
    4   494     2  1.6314118 -0.0013358  1.0000000 -0.0003143  0.0003143  1.0000000 
    4   494     3  1.6279103 -0.0024257  0.9999999  0.0004083 -0.0004083  0.9999999 
    4   494     4  1.6314115 -0.0013751  0.9999999  0.0003937 -0.0003937  0.9999999 
    4   495     1  1.6368521 -0.0011835  1.0000000 -0.0003082  0.0003082  1.0000000 
    4   495     2  1.6368669 -0.0012206  0.9999999  0.0003792 -0.0003792  0.9999999 
    4   495     3  1.6334465 -0.0022062  1.0000000 -0.0002799  0.0002799  1.0000000 
    4   495     4  1.6334503 -0.0022459  0.9999999  0.0003951 -0.0003951  0.9999999 
    4   496     1  1.6388300 -0.0020311  1.0000000 -0.0002651  0.0002651  1.0000000 
    4   496     2  1.6421544 -0.0010316  1.0000000 -0.0003053  0.0003053  1.0000000 
    4   496     3  1.6388508 -0.0020805  0.9999999  0.0003800 -0.0003800  0.9999999 
    4   496     4  1.6422004 -0.0010751  0.9999999  0.0003579 -0.0003579  0.9999999 
    4   497     1  1.6390004 -0.0021525  0.9999999  0.0004921 -0.0004921  0.9999999 
    4   497     2  1.6389355 -0.0020223  1.0000000 -0.0001625  0.0001625  1.0000000 
    4   497     3  1.6424026 -0.0011229  0.9999999  0.0004142 -0.0004142  0.9999999 
    4   497     4  1.6422800 -0.0010077  1.0000000 -0.0002503  0.0002503  1.0000000 
    4   498     1  1.6369775 -0.0012594  0.9999999  0.0004497 -0.0004497  0.9999999 
    4   498     2  1.6335294 -0.0022988  0.9999999  0.0005081 -0.0005081  0.9999999 
    4   498     3  1.6369264 -0.0011545  1.0000000 -0.0002408  0.0002408  1.0000000 
    4   498     4  1.6335010 -0.0021887  1.0000000 -0.0001729  0.0001729  1.0000000 
    4   499     1  1.6372452 -0.0013126  0.9999998  0.0006000 -0.0006000  0.9999998 
    4   499     2  1.6337292 -0.0023890  0.9999997  0.0007235 -0.0007235  0.9999997 
    4   499     3  1.6372212 -0.0010665  1.0000000 -0.0001014  0.0001014  1.0000000 
    4   499     4  1.6337241 -0.0021390  1.0000000  0.0000267 -0.0000267  1.0000000 
    4   500     1  1.6370687 -0.0011119  1.0000000 -0.0001742  0.0001742  1.0000000 
    4   500     2  1.6371057 -0.0012987  0.9999999  0.0005215 -0.0005215  0.9999999 
    4   500     3  1.6336125 -0.0021637  1.0000000 -0.0000721  0.0000721  1.0000000 
    4   500     4  1.6336225 -0.0023568  0.9999998  0.0006176 -0.0006176  0.9999998 
    4   501     1  1.6391281 -0.0020066  1.0000000 -0.0000780  0.0000780  1.0000000 
    4   501     2  1.6425716 -0.0009524  1.0000000 -0.0001986  0.0001986  1.0000000 
    4   501     3  1.6391774 -0.0022214  0.9999998  0.0005990 -0.0005990  0.9999998 
    4   501     4  1.6426629 -0.0011558  0.9999999  0.0004810 -0.0004810  0.9999999 
    4   502     1  1.6393374 -0.0022434  0.9999998  0.0006957 -0.0006957  0.9999998 
    4   502     2  1.6393087 -0.0019761  1.0000000  0.0000117 -0.0000117  1.0000000 
    4   502     3  1.6428403 -0.0011654  0.9999998  0.0005580 -0.0005580  0.9999998 
    4   502     4  1.6427919 -0.0009035  1.0000000 -0.0001269  0.0001269  1.0000000 
    4   503     1  1.6485482 -0.0009738  0.9999998  0.0005528 -0.0005528  0.9999998 
    4   503     2  1.6449871 -0.0020689  0.9999998  0.0006908 -0.0006908  0.9999998 
    4   503     3  1.6485008 -0.0007475  1.0000000 -0.0001380  0.0001380  1.0000000 
    4   503     4  1.6449229 -0.0018450  1.0000000 -6.86e-006  6.86e-006  1.0000000 
    4   504     1  1.6479691 -0.0007777  1.0000000 -0.0002405  0.0002405  1.0000000 
    4   504     2  1.6481513 -0.0010609  0.9999999  0.0004007 -0.0004007  0.9999999 
    4   504     3  1.6446408 -0.0018149  1.0000000 -0.0000806  0.0000806  1.0000000 
    4   504     4  1.6447369 -0.0021273  0.9999998  0.0005694 -0.0005694  0.9999998 
    4   505     1  1.6503823 -0.0018289  1.0000000 -0.0001113  0.0001113  1.0000000 
    4   505     2  1.6543176 -0.0006190  1.0000000 -0.0002628  0.0002628  1.0000000 
    4   505     3  1.6505933 -0.0020396  0.9999998  0.0006613 -0.0006613  0.9999998 
    4   505     4  1.6543148 -0.0008705  0.9999999  0.0004479 -0.0004479  0.9999999 
    4   506     1  1.6506495 -0.0019414  0.9999998  0.0006618 -0.0006618  0.9999998 
    4   506     2  1.6506191 -0.0017252  1.0000000 -0.0000348  0.0000348  1.0000000 
    4   506     3  1.6542579 -0.0008418  0.9999998  0.0005517 -0.0005517  0.9999998 
    4   506     4  1.6542769 -0.0006094  1.0000000 -0.0001502  0.0001502  1.0000000 
    4   507     1  1.6499466 -0.0019305  0.9999999  0.0004758 -0.0004758  0.9999999 
    4   507     2  1.6495573 -0.0014990  1.0000000 -0.0000245  0.0000245  1.0000000 
    4   507     3  1.6531533 -0.0008126  1.0000000  0.0001642 -0.0001642  1.0000000 
    4   507     4  1.6521345 -0.0006033  1.0000000 -0.0002725  0.0002725  1.0000000 
    4   508     1  1.6478407 -0.0009759  0.9999999  0.0003697 -0.0003697  0.9999999 
    4   508     2  1.6444460 -0.0020146  0.9999999  0.0004879 -0.0004879  0.9999999 
    4   508     3  1.6475449 -0.0008729  1.0000000 -0.0002720  0.0002720  1.0000000 
    4   508     4  1.6442773 -0.0018752  1.0000000 -0.0001494  0.0001494  1.0000000 
    4   509     1  1.6470740 -0.0008893  1.0000000 -0.0003148  0.0003148  1.0000000 
    4   509     2  1.6472450 -0.0009912  1.0000000  0.0002986 -0.0002986  1.0000000 
    4   509     3  1.6440256 -0.0018151  1.0000000 -0.0002318  0.0002318  1.0000000 
    4   509     4  1.6440799 -0.0019441  0.9999999  0.0003513 -0.0003513  0.9999999 
    4   510     1  1.6487112 -0.0015943  1.0000000 -0.0001182  0.0001182  1.0000000 
    4   510     2  1.6510223 -0.0008599  1.0000000 -0.0002594  0.0002594  1.0000000 
    4   510     3  1.6488680 -0.0017488  1.0000000  0.0003069 -0.0003069  1.0000000 
    4   510     4  1.6513403 -0.0009947  1.0000000  0.0002233 -0.0002233  1.0000000 
    4   511     1  1.6552769 -0.0012281  1.0000000  0.0001285 -0.0001285  1.0000000 
    4   511     2  1.6551901 -0.0016535  1.0000000  0.0002685 -0.0002685  1.0000000 
    4   511     3  1.6554486 -0.0007922  1.0000000  0.0002807 -0.0002807  1.0000000 
    4   511     4  1.6553384 -0.0012214  0.9999999  0.0003409 -0.0003409  0.9999999 
    4   512     1  1.6544609 -0.0010003  1.0000000 -0.0002144  0.0002144  1.0000000 
    4   512     2  1.6545706 -0.0009607  1.0000000  0.0002159 -0.0002159  1.0000000 
    4   512     3  1.6524790 -0.0015930  1.0000000 -0.0001029  0.0001029  1.0000000 
    4   512     4  1.6527473 -0.0015073  1.0000000  0.0002393 -0.0002393  1.0000000 
    4   513     1  1.6561430 -0.0013920  1.0000000 -0.0002082  0.0002082  1.0000000 
    4   513     2  1.6581218 -0.0008061  1.0000000 -0.0001098  0.0001098  1.0000000 
    4   513     3  1.6560224 -0.0014593  1.0000000  0.0002155 -0.0002155  1.0000000 
    4   513     4  1.6578416 -0.0009153  1.0000000  0.0002316 -0.0002316  1.0000000 
    4   514     1  1.6602402 -0.0004444  1.0000000 -0.0001881  0.0001881  1.0000000 
    4   514     2  1.6599777 -0.0005210  0.9999998  0.0005973 -0.0005973  0.9999998 
    4   514     3  1.6562807 -0.0016323  1.0000000 -0.0001977  0.0001977  1.0000000 
    4   514     4  1.6562392 -0.0016426  0.9999999  0.0005023 -0.0005023  0.9999999 
    4   515     1  1.6625926 -0.0014780  1.0000000 -0.0002014  0.0002014  1.0000000 
    4   515     2  1.6659157 -0.0004802  1.0000000 -0.0001742  0.0001742  1.0000000 
    4   515     3  1.6623666 -0.0014729  0.9999999  0.0004118 -0.0004118  0.9999999 
    4   515     4  1.6657720 -0.0004484  0.9999999  0.0004559 -0.0004559  0.9999999 
    4   516     1  1.6620360 -0.0016160  0.9999998  0.0005701 -0.0005701  0.9999998 
    4   516     2  1.6621235 -0.0014749  1.0000000 -0.0000857  0.0000857  1.0000000 
    4   516     3  1.6655946 -0.0005473  0.9999999  0.0005334 -0.0005334  0.9999999 
    4   516     4  1.6656979 -0.0003979  1.0000000 -0.0001428  0.0001428  1.0000000 
    4   517     1  1.6599692 -0.0006619  0.9999998  0.0005484 -0.0005484  0.9999998 
    4   517     2  1.6563762 -0.0017456  0.9999998  0.0006121 -0.0006121  0.9999998 
    4   517     3  1.6600437 -0.0005034  1.0000000 -0.0001456  0.0001456  1.0000000 
    4   517     4  1.6564010 -0.0016039  1.0000000 -0.0000715  0.0000715  1.0000000 
    4   518     1  1.6605945 -0.0005533  0.9999999  0.0004328 -0.0004328  0.9999999 
    4   518     2  1.6573551 -0.0016279  1.0000000  0.0001791 -0.0001791  1.0000000 
    4   518     3  1.6610229 -0.0008637  1.0000000 -0.0000821  0.0000821  1.0000000 
    4   518     4  1.6584042 -0.0017229  1.0000000 -0.0002757  0.0002757  1.0000000 
    4   519     1  1.6618309 -0.0007970  1.0000000 -0.0001314  0.0001314  1.0000000 
    4   519     2  1.6616596 -0.0006866  1.0000000  0.0002834 -0.0002834  1.0000000 
    4   519     3  1.6595465 -0.0015116  1.0000000 -0.0002503  0.0002503  1.0000000 
    4   519     4  1.6592158 -0.0014285  1.0000000  0.0002150 -0.0002150  1.0000000 
    4   520     1  1.6634174 -0.0014942  1.0000000 -0.0002925  0.0002925  1.0000000 
    4   520     2  1.6664333 -0.0005847  1.0000000 -0.0002402  0.0002402  1.0000000 
    4   520     3  1.6632362 -0.0014507  1.0000000  0.0002782 -0.0002782  1.0000000 
    4   520     4  1.6663655 -0.0005107  1.0000000  0.0003115 -0.0003115  1.0000000 
    4   521     1  1.6626547 -0.0015180  0.9999999  0.0003646 -0.0003646  0.9999999 
    4   521     2  1.6629658 -0.0014625  1.0000000 -0.0002427  0.0002427  1.0000000 
    4   521     3  1.6660309 -0.0005030  0.9999999  0.0004106 -0.0004106  0.9999999 
    4   521     4  1.6662192 -0.0004845  1.0000000 -0.0002012  0.0002012  1.0000000 
    4   522     1  1.6711430 -0.0004140  0.9999999  0.0004837 -0.0004837  0.9999999 
    4   522     2  1.6676843 -0.0014542  0.9999999  0.0005258 -0.0005258  0.9999999 
    4   522     3  1.6712036 -0.0003040  1.0000000 -0.0001514  0.0001514  1.0000000 
    4   522     4  1.6677691 -0.0013383  1.0000000 -0.0000997  0.0000997  1.0000000 
    4   523     1  1.6712972 -0.0003255  1.0000000 -0.0001867  0.0001867  1.0000000 
    4   523     2  1.6712159 -0.0003922  0.9999999  0.0004392 -0.0004392  0.9999999 
    4   523     3  1.6679128 -0.0013414  1.0000000 -0.0001661  0.0001661  1.0000000 
    4   523     4  1.6677843 -0.0014218  0.9999999  0.0004520 -0.0004520  0.9999999 
    4   524     1  1.6732765 -0.0012315  1.0000000 -0.0001522  0.0001522  1.0000000 
    4   524     2  1.6766437 -0.0002183  1.0000000 -0.0001968  0.0001968  1.0000000 
    4   524     3  1.6732153 -0.0013323  0.9999999  0.0004518 -0.0004518  0.9999999 
    4   524     4  1.6766190 -0.0003089  0.9999999  0.0004123 -0.0004123  0.9999999 
    4   525     1  1.6731666 -0.0013637  0.9999999  0.0005184 -0.0005184  0.9999999 
    4   525     2  1.6732179 -0.0012234  1.0000000 -0.0000956  0.0000956  1.0000000 
    4   525     3  1.6766190 -0.0003220  0.9999999  0.0004557 -0.0004557  0.9999999 
    4   525     4  1.6766440 -0.0001884  1.0000000 -0.0001642  0.0001642  1.0000000 
    4   526     1  1.6713387 -0.0004015  0.9999999  0.0003833 -0.0003833  0.9999999 
    4   526     2  1.6680127 -0.0013992  0.9999999  0.0003813 -0.0003813  0.9999999 
    4   526     3  1.6714121 -0.0003683  1.0000000 -0.0002163  0.0002163  1.0000000 
    4   526     4  1.6681459 -0.0013481  1.0000000 -0.0002168  0.0002168  1.0000000 
    4   527     1  1.6714785 -0.0004065  1.0000000 -0.0002638  0.0002638  1.0000000 
    4   527     2  1.6714470 -0.0004153  0.9999999  0.0003223 -0.0003223  0.9999999 
    4   527     3  1.6682455 -0.0013764  1.0000000 -0.0002693  0.0002693  1.0000000 
    4   527     4  1.6681889 -0.0013927  0.9999999  0.0003212 -0.0003212  0.9999999 
    4   528     1  1.6733724 -0.0012651  1.0000000 -0.0002612  0.0002612  1.0000000 
    4   528     2  1.6766507 -0.0002815  1.0000000 -0.0002698  0.0002698  1.0000000 
    4   528     3  1.6733494 -0.0012882  0.9999999  0.0003239 -0.0003239  0.9999999 
    4   528     4  1.6766419 -0.0003005  0.9999999  0.0003179 -0.0003179  0.9999999 
    4   529     1  1.6732826 -0.0013088  0.9999999  0.0003879 -0.0003879  0.9999999 
    4   529     2  1.6733326 -0.0012473  1.0000000 -0.0002054  0.0002054  1.0000000 
    4   529     3  1.6766293 -0.0003042  0.9999999  0.0003672 -0.0003672  0.9999999 
    4   529     4  1.6766456 -0.0002525  1.0000000 -0.0002297  0.0002297  1.0000000 
    4   530     1  1.6819687 -0.0001223  1.0000000 -0.0002105  0.0002105  1.0000000 
    4   530     2  1.6820009 -0.0002247  0.9999999  0.0003856 -0.0003856  0.9999999 
    4   530     3  1.6786120 -0.0011355  1.0000000 -0.0001473  0.0001473  1.0000000 
    4   530     4  1.6786054 -0.0012487  0.9999999  0.0004450 -0.0004450  0.9999999 
    4   531     1  1.6839494 -0.0010471  1.0000000 -0.0001466  0.0001466  1.0000000 
    4   531     2  1.6873118 -0.0000273  1.0000000 -0.0002313  0.0002313  1.0000000 
    4   531     3  1.6840031 -0.0011748  0.9999999  0.0004375 -0.0004375  0.9999999 
    4   531     4  1.6874177 -0.0001396  0.9999999  0.0003537 -0.0003537  0.9999999 
    4   532     1  1.6841147 -0.0011967  0.9999999  0.0004898 -0.0004898  0.9999999 
    4   532     2  1.6840888 -0.0010252  1.0000000 -0.0001030  0.0001030  1.0000000 
    4   532     3  1.6875589 -0.0001487  0.9999999  0.0003914 -0.0003914  0.9999999 
    4   532     4  1.6875034  0.0000140  1.0000000 -0.0002009  0.0002009  1.0000000 
    4   533     1  1.6820874 -0.0002308  0.9999999  0.0004265 -0.0004265  0.9999999 
    4   533     2  1.6786406 -0.0012743  0.9999999  0.0005052 -0.0005052  0.9999999 
    4   533     3  1.6820713 -0.0000874  1.0000000 -0.0001796  0.0001796  1.0000000 
    4   533     4  1.6786528 -0.0011232  1.0000000 -0.0000979  0.0000979  1.0000000 
    4   534     1  1.6838585 -0.0011258  0.9999999  0.0003750 -0.0003750  0.9999999 
    4   534     2  1.6837986 -0.0010483  1.0000000 -0.0001860  0.0001860  1.0000000 
    4   534     3  1.6871665 -0.0001284  0.9999999  0.0003189 -0.0003189  0.9999999 
    4   534     4  1.6870431 -0.0000687  1.0000000 -0.0002490  0.0002490  1.0000000 
    4   535     1  1.6819176 -0.0002103  0.9999999  0.0003477 -0.0003477  0.9999999 
    4   535     2  1.6785785 -0.0012140  0.9999999  0.0003835 -0.0003835  0.9999999 
    4   535     3  1.6818811 -0.0001528  1.0000000 -0.0002390  0.0002390  1.0000000 
    4   535     4  1.6785769 -0.0011467  1.0000000 -0.0001976  0.0001976  1.0000000 
    4   536     1  1.6818268 -0.0001767  1.0000000 -0.0002707  0.0002707  1.0000000 
    4   536     2  1.6818421 -0.0001945  1.0000000  0.0003091 -0.0003091  1.0000000 
    4   536     3  1.6785568 -0.0011581  1.0000000 -0.0002540  0.0002540  1.0000000 
    4   536     4  1.6785567 -0.0011802  0.9999999  0.0003185 -0.0003185  0.9999999 
    4   537     1  1.6837136 -0.0010492  1.0000000 -0.0002426  0.0002426  1.0000000 
    4   537     2  1.6869359 -0.0000812  1.0000000 -0.0002720  0.0002720  1.0000000 
    4   537     3  1.6837377 -0.0010779  1.0000000  0.0003086 -0.0003086  1.0000000 
    4   537     4  1.6869865 -0.0001029  1.0000000  0.0002928 -0.0002928  1.0000000 
    4   538     1  1.6917118 -0.0000109  1.0000000 -0.0002801  0.0002801  1.0000000 
    4   538     2  1.6918955 -0.0000632  1.0000000  0.0002451 -0.0002451  1.0000000 
    4   538     3  1.6887319 -0.0009127  1.0000000 -0.0002134  0.0002134  1.0000000 
    4   538     4  1.6887991 -0.0009944  1.0000000  0.0002862 -0.0002862  1.0000000 
    4   539     1  1.6932969 -0.0007516  1.0000000 -0.0001173  0.0001173  1.0000000 
    4   539     2  1.6955547 -0.0000449  1.0000000 -0.0002339  0.0002339  1.0000000 
    4   539     3  1.6934709 -0.0008434  1.0000000  0.0002481 -0.0002481  1.0000000 
    4   539     4  1.6958916 -0.0001083  1.0000000  0.0001811 -0.0001811  1.0000000 
    4   540     1  1.6945538 -0.0009519  0.9999999  0.0003719 -0.0003719  0.9999999 
    4   540     2  1.6941195 -0.0007095  1.0000000 -0.0000547  0.0000547  1.0000000 
    4   540     3  1.6976457  0.0000822  1.0000000  0.0001249 -0.0001249  1.0000000 
    4   540     4  1.6965962  0.0001173  1.0000000 -0.0002508  0.0002508  1.0000000 
    4   541     1  1.6924944 -0.0000245  1.0000000  0.0002809 -0.0002809  1.0000000 
    4   541     2  1.6891482 -0.0010417  0.9999999  0.0003748 -0.0003748  0.9999999 
    4   541     3  1.6921827  0.0000110  1.0000000 -0.0002730  0.0002730  1.0000000 
    4   541     4  1.6889696 -0.0009672  1.0000000 -0.0001759  0.0001759  1.0000000 
    4   542     1  1.6931868 -0.0000151  0.9999999  0.0003906 -0.0003906  0.9999999 
    4   542     2  1.6896560 -0.0010903  0.9999999  0.0004951 -0.0004951  0.9999999 
    4   542     3  1.6931158  0.0001182  1.0000000 -0.0002080  0.0002080  1.0000000 
    4   542     4  1.6895801 -0.0009564  1.0000000 -0.0001111  0.0001111  1.0000000 
    4   543     1  1.6925613  0.0000754  1.0000000 -0.0002665  0.0002665  1.0000000 
    4   543     2  1.6927756 -0.0000973  1.0000000  0.0002829 -0.0002829  1.0000000 
    4   543     3  1.6893101 -0.0009254  1.0000000 -0.0001416  0.0001416  1.0000000 
    4   543     4  1.6894319 -0.0011288  0.9999999  0.0004164 -0.0004164  0.9999999 
    4   544     1  1.6949279 -0.0009856  1.0000000 -0.0001607  0.0001607  1.0000000 
    4   544     2  1.6988099  0.0001975  1.0000000 -0.0002794  0.0002794  1.0000000 
    4   544     3  1.6951859 -0.0010827  0.9999999  0.0005094 -0.0005094  0.9999999 
    4   544     4  1.6988679  0.0000556  0.9999999  0.0003350 -0.0003350  0.9999999 
    4   545     1  1.6952514 -0.0010530  0.9999999  0.0004784 -0.0004784  0.9999999 
    4   545     2  1.6951980 -0.0008981  1.0000000 -0.0001278  0.0001278  1.0000000 
    4   545     3  1.6988403  0.0000363  0.9999999  0.0003863 -0.0003863  0.9999999 
    4   545     4  1.6988222  0.0002023  1.0000000 -0.0002223  0.0002223  1.0000000 
    4   546     1  1.7046707  0.0003215  1.0000000 -0.0002313  0.0002313  1.0000000 
    4   546     2  1.7044758  0.0002178  0.9999999  0.0004517 -0.0004517  0.9999999 
    4   546     3  1.7007448 -0.0008562  1.0000000 -0.0002203  0.0002203  1.0000000 
    4   546     4  1.7007343 -0.0008996  0.9999999  0.0003885 -0.0003885  0.9999999 
    4   547     1  1.7069805 -0.0007454  1.0000000 -0.0002350  0.0002350  1.0000000 
    4   547     2  1.7102849  0.0002456  1.0000000 -0.0002356  0.0002356  1.0000000 
    4   547     3  1.7068270 -0.0007697  1.0000000  0.0003044 -0.0003044  1.0000000 
    4   547     4  1.7102577  0.0002597  1.0000000  0.0003145 -0.0003145  1.0000000 
    4   548     1  1.7066136 -0.0008921  0.9999999  0.0004109 -0.0004109  0.9999999 
    4   548     2  1.7066448 -0.0007562  1.0000000 -0.0001673  0.0001673  1.0000000 
    4   548     3  1.7101987  0.0001871  0.9999999  0.0003576 -0.0003576  0.9999999 
    4   548     4  1.7102223  0.0003234  1.0000000 -0.0002326  0.0002326  1.0000000 
    4   549     1  1.7045523  0.0001605  0.9999999  0.0003829 -0.0003829  0.9999999 
    4   549     2  1.7009462 -0.0009264  0.9999999  0.0004412 -0.0004412  0.9999999 
    4   549     3  1.7045665  0.0002666  1.0000000 -0.0002221  0.0002221  1.0000000 
    4   549     4  1.7009296 -0.0008304  1.0000000 -0.0001578  0.0001578  1.0000000 
    4   550     1  1.7049387  0.0001537  0.9999999  0.0003356 -0.0003356  0.9999999 
    4   550     2  1.7017413 -0.0008696  1.0000000  0.0001409 -0.0001409  1.0000000 
    4   550     3  1.7053565 -9.91e-006  1.0000000 -0.0001131  0.0001131  1.0000000 
    4   550     4  1.7027887 -0.0008251  1.0000000 -0.0002589  0.0002589  1.0000000 
    4   551     1  1.7060610  0.0000222  1.0000000 -0.0001306  0.0001306  1.0000000 
    4   551     2  1.7058934  0.0000819  1.0000000  0.0002263 -0.0002263  1.0000000 
    4   551     3  1.7038231 -0.0006681  1.0000000 -0.0002243  0.0002243  1.0000000 
    4   551     4  1.7034950 -0.0006433  1.0000000  0.0001740 -0.0001740  1.0000000 
    4   552     1  1.7075454 -0.0007103  1.0000000 -0.0002514  0.0002514  1.0000000 
    4   552     2  1.7104400  0.0001596  1.0000000 -0.0002224  0.0002224  1.0000000 
    4   552     3  1.7073927 -0.0006995  1.0000000  0.0002250 -0.0002250  1.0000000 
    4   552     4  1.7104153  0.0002077  1.0000000  0.0002450 -0.0002450  1.0000000 
    4   553     1  1.7069358 -0.0007975  1.0000000  0.0002866 -0.0002866  1.0000000 
    4   553     2  1.7071706 -0.0007129  1.0000000 -0.0002335  0.0002335  1.0000000 
    4   553     3  1.7102737  0.0002034  1.0000000  0.0002982 -0.0002982  1.0000000 
    4   553     4  1.7103347  0.0002361  1.0000000 -0.0002273  0.0002273  1.0000000 
    4   554     1  1.7005435 -0.0005220  1.0000000 -0.0001740  0.0001740  1.0000000 
    4   554     2  1.7024460  0.0000321  1.0000000 -0.0001032  0.0001032  1.0000000 
    4   554     3  1.7004226 -0.0006261  1.0000000  0.0001824 -0.0001824  1.0000000 
    4   554     4  1.7021733 -0.0001045  1.0000000  0.0001858 -0.0001858  1.0000000 
    4   555     1  1.6996932 -0.0004022  1.0000000  0.0000991 -0.0000991  1.0000000 
    4   555     2  1.6996785 -0.0006756  1.0000000  0.0001964 -0.0001964  1.0000000 
    4   555     3  1.6998528 -0.0000972  1.0000000  0.0002147 -0.0002147  1.0000000 
    4   555     4  1.6997981 -0.0003805  1.0000000  0.0002537 -0.0002537  1.0000000 
    4   556     1  1.6988988 -0.0002136  1.0000000 -0.0001846  0.0001846  1.0000000 
    4   556     2  1.6990271 -0.0001208  1.0000000  0.0001816 -0.0001816  1.0000000 
    4   556     3  1.6969797 -0.0007750  1.0000000 -0.0001017  0.0001017  1.0000000 
    4   556     4  1.6972566 -0.0006488  1.0000000  0.0001904 -0.0001904  1.0000000 
    4   557     1  1.7159347  0.0003191  0.9999999  0.0003385 -0.0003385  0.9999999 
    4   557     2  1.7123505 -0.0007605  0.9999999  0.0003940 -0.0003940  0.9999999 
    4   557     3  1.7159207  0.0003838  1.0000000 -0.0002341  0.0002341  1.0000000 
    4   557     4  1.7123475 -0.0006920  1.0000000 -0.0001827  0.0001827  1.0000000 
    4   558     1  1.7155349  0.0003465  1.0000000 -0.0002745  0.0002745  1.0000000 
    4   558     2  1.7156761  0.0002359  1.0000000  0.0002534 -0.0002534  1.0000000 
    4   558     3  1.7122499 -0.0006488  1.0000000 -0.0001972  0.0001972  1.0000000 
    4   558     4  1.7122612 -0.0007997  0.9999999  0.0003371 -0.0003371  0.9999999 
    4   559     1  1.7178628 -0.0007340  1.0000000 -0.0001989  0.0001989  1.0000000 
    4   559     2  1.7217624  0.0004434  1.0000000 -0.0002756  0.0002756  1.0000000 
    4   559     3  1.7180485 -0.0007762  0.9999999  0.0004399 -0.0004399  0.9999999 
    4   559     4  1.7217769  0.0003589  1.0000000  0.0003061 -0.0003061  1.0000000 
    4   560     1  1.7180007 -0.0007689  0.9999999  0.0003917 -0.0003917  0.9999999 
    4   560     2  1.7180043 -0.0006581  1.0000000 -0.0001853  0.0001853  1.0000000 
    4   560     3  1.7216315  0.0003252  0.9999999  0.0003348 -0.0003348  0.9999999 
    4   560     4  1.7216590  0.0004435  1.0000000 -0.0002444  0.0002444  1.0000000 
    4   561     1  1.7175672 -0.0006499  0.9999999  0.0003257 -0.0003257  0.9999999 
    4   561     2  1.7171575 -0.0004777  1.0000000 -0.0000840  0.0000840  1.0000000 
    4   561     3  1.7206897  0.0003648  1.0000000  0.0001155 -0.0001155  1.0000000 
    4   561     4  1.7196464  0.0003284  1.0000000 -0.0002477  0.0002477  1.0000000 
    4   562     1  1.7155623  0.0002839  1.0000000  0.0002556 -0.0002556  1.0000000 
    4   562     2  1.7122278 -0.0007207  1.0000000  0.0003090 -0.0003090  1.0000000 
    4   562     3  1.7153299  0.0002764  1.0000000 -0.0002566  0.0002566  1.0000000 
    4   562     4  1.7121746 -0.0006743  1.0000000 -0.0002040  0.0002040  1.0000000 
    4   563     1  1.7149387  0.0002392  1.0000000 -0.0002532  0.0002532  1.0000000 
    4   563     2  1.7150901  0.0002104  1.0000000  0.0002180 -0.0002180  1.0000000 
    4   563     3  1.7120562 -0.0006291  1.0000000 -0.0002096  0.0002096  1.0000000 
    4   563     4  1.7120775 -0.0006945  1.0000000  0.0002467 -0.0002467  1.0000000 
    4   564     1  1.7164354 -0.0005065  1.0000000 -0.0001199  0.0001199  1.0000000 
    4   564     2  1.7186623  0.0001836  1.0000000 -0.0002195  0.0002195  1.0000000 
    4   564     3  1.7165993 -0.0005729  1.0000000  0.0002195 -0.0002195  1.0000000 
    4   564     4  1.7189899  0.0001510  1.0000000  0.0001629 -0.0001629  1.0000000 
    4   565     1  1.7227302 -0.0001463  1.0000000  0.0000880 -0.0000880  1.0000000 
    4   565     2  1.7226787 -0.0003768  1.0000000  0.0001754 -0.0001754  1.0000000 
    4   565     3  1.7228188  0.0000902  1.0000000  0.0001795 -0.0001795  1.0000000 
    4   565     4  1.7227571 -0.0001419  1.0000000  0.0002178 -0.0002178  1.0000000 
    4   566     1  1.7219305  9.05e-006  1.0000000 -0.0001676  0.0001676  1.0000000 
    4   566     2  1.7220541  0.0001171  1.0000000  0.0001685 -0.0001685  1.0000000 
    4   566     3  1.7200480 -0.0005373  1.0000000 -0.0000994  0.0000994  1.0000000 
    4   566     4  1.7203177 -0.0003999  1.0000000  0.0001707 -0.0001707  1.0000000 
    4   567     1  1.7235581 -0.0002736  1.0000000 -0.0001654  0.0001654  1.0000000 
    4   567     2  1.7254458  0.0002726  1.0000000 -0.0001029  0.0001029  1.0000000 
    4   567     3  1.7234269 -0.0003934  1.0000000  0.0001683 -0.0001683  1.0000000 
    4   567     4  1.7251672  0.0001243  1.0000000  0.0001672 -0.0001672  1.0000000 
    4   568     1  1.7276054  0.0005338  1.0000000 -0.0002363  0.0002363  1.0000000 
    4   568     2  1.7273666  0.0004412  0.9999999  0.0004049 -0.0004049  0.9999999 
    4   568     3  1.7236864 -0.0006414  1.0000000 -0.0002457  0.0002457  1.0000000 
    4   568     4  1.7236269 -0.0006779  0.9999999  0.0003290 -0.0003290  0.9999999 
    4   569     1  1.7299210 -0.0005573  1.0000000 -0.0002593  0.0002593  1.0000000 
    4   569     2  1.7332248  0.0004341  1.0000000 -0.0002433  0.0002433  1.0000000 
    4   569     3  1.7297351 -0.0005721  1.0000000  0.0002512 -0.0002512  1.0000000 
    4   569     4  1.7331656  0.0004580  1.0000000  0.0002760 -0.0002760  1.0000000 
    4   570     1  1.7294418 -0.0006795  0.9999999  0.0003375 -0.0003375  0.9999999 
    4   570     2  1.7295048 -0.0005770  1.0000000 -0.0002139  0.0002139  1.0000000 
    4   570     3  1.7330456  0.0004021  1.0000000  0.0003093 -0.0003093  1.0000000 
    4   570     4  1.7330986  0.0005032  1.0000000 -0.0002521  0.0002521  1.0000000 
    4   571     1  1.7273786  0.0004170  0.9999999  0.0003344 -0.0003344  0.9999999 
    4   571     2  1.7237442 -0.0006744  0.9999999  0.0003617 -0.0003617  0.9999999 
    4   571     3  1.7274262  0.0004780  1.0000000 -0.0002398  0.0002398  1.0000000 
    4   571     4  1.7237678 -0.0006210  1.0000000 -0.0002082  0.0002082  1.0000000 
    4   572     1  1.7278833  0.0003459  1.0000000  0.0003022 -0.0003022  1.0000000 
    4   572     2  1.7247431 -0.0006533  1.0000000  0.0001215 -0.0001215  1.0000000 
    4   572     3  1.7283285  0.0002359  1.0000000 -0.0001110  0.0001110  1.0000000 
    4   572     4  1.7258122 -0.0005606  1.0000000 -0.0002483  0.0002483  1.0000000 
    4   573     1  1.7290569  0.0002479  1.0000000 -0.0001266  0.0001266  1.0000000 
    4   573     2  1.7288795  0.0002903  1.0000000  0.0002080 -0.0002080  1.0000000 
    4   573     3  1.7268251 -0.0004388  1.0000000 -0.0002154  0.0002154  1.0000000 
    4   573     4  1.7264854 -0.0004330  1.0000000  0.0001595 -0.0001595  1.0000000 
    4   574     1  1.7305458 -0.0005126  1.0000000 -0.0002439  0.0002439  1.0000000 
    4   574     2  1.7334523  0.0003611  1.0000000 -0.0002135  0.0002135  1.0000000 
    4   574     3  1.7303817 -0.0005096  1.0000000  0.0002083 -0.0002083  1.0000000 
    4   574     4  1.7334166  0.0004013  1.0000000  0.0002281 -0.0002281  1.0000000 
    4   575     1  1.7298816 -0.0006055  1.0000000  0.0002488 -0.0002488  1.0000000 
    4   575     2  1.7301420 -0.0005260  1.0000000 -0.0002454  0.0002454  1.0000000 
    4   575     3  1.7332373  0.0004010  1.0000000  0.0002686 -0.0002686  1.0000000 
    4   575     4  1.7333226  0.0004281  1.0000000 -0.0002293  0.0002293  1.0000000 
    4   576     1  1.7180485 -0.0006403  1.0000000 -0.0001623  0.0001623  1.0000000 
    4   576     2  1.7216580  0.0004484  1.0000000 -0.0002244  0.0002244  1.0000000 
    4   576     3  1.7180326 -0.0007478  0.9999999  0.0004088 -0.0004088  0.9999999 
    4   576     4  1.7216331  0.0003377  0.9999999  0.0003493 -0.0003493  0.9999999 
    4   577     1  1.7180359 -0.0007699  0.9999999  0.0004371 -0.0004371  0.9999999 
    4   577     2  1.7180580 -0.0006310  1.0000000 -0.0001305  0.0001305  1.0000000 
    4   577     3  1.7216265  0.0003156  0.9999999  0.0003632 -0.0003632  0.9999999 
    4   577     4  1.7216542  0.0004569  1.0000000 -0.0002073  0.0002073  1.0000000 
    4   578     1  1.7159509  0.0002599  0.9999999  0.0003840 -0.0003840  0.9999999 
    4   578     2  1.7123643 -0.0008259  0.9999999  0.0004645 -0.0004645  0.9999999 
    4   578     3  1.7159727  0.0004106  1.0000000 -0.0001937  0.0001937  1.0000000 
    4   578     4  1.7123801 -0.0006778  1.0000000 -0.0001098  0.0001098  1.0000000 
    4   579     1  1.7159549  0.0003976  1.0000000 -0.0002156  0.0002156  1.0000000 
    4   579     2  1.7159364  0.0002665  0.9999999  0.0003650 -0.0003650  0.9999999 
    4   579     3  1.7123547 -0.0006902  1.0000000 -0.0001440  0.0001440  1.0000000 
    4   579     4  1.7123404 -0.0008194  0.9999999  0.0004335 -0.0004335  0.9999999 
    4   580     1  1.7273155  0.0003758  0.9999999  0.0003487 -0.0003487  0.9999999 
    4   580     2  1.7237158 -0.0007096  0.9999999  0.0004084 -0.0004084  0.9999999 
    4   580     3  1.7273436  0.0004909  1.0000000 -0.0002158  0.0002158  1.0000000 
    4   580     4  1.7237385 -0.0005966  1.0000000 -0.0001536  0.0001536  1.0000000 
    4   581     1  1.7273607  0.0004826  1.0000000 -0.0002317  0.0002317  1.0000000 
    4   581     2  1.7273257  0.0003769  0.9999999  0.0003362 -0.0003362  0.9999999 
    4   581     3  1.7237452 -0.0006063  1.0000000 -0.0001788  0.0001788  1.0000000 
    4   581     4  1.7237174 -0.0007093  0.9999999  0.0003856 -0.0003856  0.9999999 
    4   582     1  1.7294546 -0.0005704  1.0000000 -0.0001937  0.0001937  1.0000000 
    4   582     2  1.7330718  0.0005177  1.0000000 -0.0002377  0.0002377  1.0000000 
    4   582     3  1.7294230 -0.0006542  0.9999999  0.0003654 -0.0003654  0.9999999 
    4   582     4  1.7330367  0.0004325  0.9999999  0.0003240 -0.0003240  0.9999999 
    4   583     1  1.7294012 -0.0006695  0.9999999  0.0003861 -0.0003861  0.9999999 
    4   583     2  1.7294299 -0.0005626  1.0000000 -0.0001705  0.0001705  1.0000000 
    4   583     3  1.7330075  0.0004169  0.9999999  0.0003318 -0.0003318  0.9999999 
    4   583     4  1.7330406  0.0005256  1.0000000 -0.0002275  0.0002275  1.0000000 
    4   584     1  1.7294208 -0.0005569  1.0000000 -0.0001511  0.0001511  1.0000000 
    4   584     2  1.7330217  0.0005302  1.0000000 -0.0002176  0.0002176  1.0000000 
    4   584     3  1.7294011 -0.0006765  0.9999999  0.0004065 -0.0004065  0.9999999 
    4   584     4  1.7329965  0.0004085  0.9999999  0.0003422 -0.0003422  0.9999999 
    4   585     1  1.7294106 -0.0006837  0.9999999  0.0004250 -0.0004250  0.9999999 
    4   585     2  1.7294258 -0.0005494  1.0000000 -0.0001295  0.0001295  1.0000000 
    4   585     3  1.7329966  0.0004006  0.9999999  0.0003510 -0.0003510  0.9999999 
    4   585     4  1.7330171  0.0005370  1.0000000 -0.0002059  0.0002059  1.0000000 
    4   586     1  1.7273318  0.0003567  0.9999999  0.0003743 -0.0003743  0.9999999 
    4   586     2  1.7237496 -0.0007282  0.9999999  0.0004559 -0.0004559  0.9999999 
    4   586     3  1.7273475  0.0005045  1.0000000 -0.0001874  0.0001874  1.0000000 
    4   586     4  1.7237598 -0.0005827  1.0000000 -0.0001035  0.0001035  1.0000000 
    4   587     1  1.7273366  0.0004980  1.0000000 -0.0002027  0.0002027  1.0000000 
    4   587     2  1.7273167  0.0003662  0.9999999  0.0003625 -0.0003625  0.9999999 
    4   587     3  1.7237403 -0.0005891  1.0000000 -0.0001292  0.0001292  1.0000000 
    4   587     4  1.7237255 -0.0007188  0.9999999  0.0004333 -0.0004333  0.9999999 
    4   588     1  1.7180737 -0.0006216  1.0000000 -0.0001023  0.0001023  1.0000000 
    4   588     2  1.7216603  0.0004664  1.0000000 -0.0001910  0.0001910  1.0000000 
    4   588     3  1.7180612 -0.0007769  0.9999999  0.0004659 -0.0004659  0.9999999 
    4   588     4  1.7216409  0.0003082  0.9999999  0.0003805 -0.0003805  0.9999999 
    4   589     1  1.7180985 -0.0007872  0.9999999  0.0004927 -0.0004927  0.9999999 
    4   589     2  1.7181089 -0.0006114  1.0000000 -0.0000717  0.0000717  1.0000000 
    4   589     3  1.7216674  0.0002983  0.9999999  0.0003945 -0.0003945  0.9999999 
    4   589     4  1.7216836  0.0004768  1.0000000 -0.0001732  0.0001732  1.0000000 
    4   590     1  1.7160213  0.0002409  0.9999999  0.0004208 -0.0004208  0.9999999 
    4   590     2  1.7124568 -0.0008457  0.9999999  0.0005268 -0.0005268  0.9999999 
    4   590     3  1.7160321  0.0004323  1.0000000 -0.0001538  0.0001538  1.0000000 
    4   590     4  1.7124614 -0.0006573  1.0000000 -0.0000441  0.0000441  1.0000000 
    4   591     1  1.7159929  0.0004195  1.0000000 -0.0001744  0.0001744  1.0000000 
    4   591     2  1.7159798  0.0002487  0.9999999  0.0004033 -0.0004033  0.9999999 
    4   591     3  1.7124120 -0.0006689  1.0000000 -0.0000779  0.0000779  1.0000000 
    4   591     4  1.7124036 -0.0008375  0.9999999  0.0004968 -0.0004968  0.9999999 
    4   592     1  1.7181637 -0.0006039  1.0000000 -0.0000452  0.0000452  1.0000000 
    4   592     2  1.7217221  0.0004834  1.0000000 -0.0001586  0.0001586  1.0000000 
    4   592     3  1.7181817 -0.0007899  0.9999999  0.0005211 -0.0005211  0.9999999 
    4   592     4  1.7217298  0.0002931  0.9999999  0.0004115 -0.0004115  0.9999999 
    4   593     1  1.7182948 -0.0007982  0.9999999  0.0005466 -0.0005466  0.9999999 
    4   593     2  1.7182651 -0.0005965  1.0000000 -0.0000158  0.0000158  1.0000000 
    4   593     3  1.7218243  0.0002839  0.9999999  0.0004246 -0.0004246  0.9999999 
    4   593     4  1.7218023  0.0004890  1.0000000 -0.0001411  0.0001411  1.0000000 
    4   594     1  1.7162223  0.0002303  0.9999999  0.0004574 -0.0004574  0.9999999 
    4   594     2  1.7126923 -0.0008549  0.9999998  0.0005875 -0.0005875  0.9999998 
    4   594     3  1.7161906  0.0004481  1.0000000 -0.0001151  0.0001151  1.0000000 
    4   594     4  1.7126518 -0.0006414  1.0000000  0.0000193 -0.0000193  1.0000000 
    4   595     1  1.7160875  0.0004365  1.0000000 -0.0001352  0.0001352  1.0000000 
    4   595     2  1.7161071  0.0002357  0.9999999  0.0004408 -0.0004408  0.9999999 
    4   595     3  1.7125334 -0.0006522  1.0000000 -0.0000143  0.0000143  1.0000000 
    4   595     4  1.7125577 -0.0008504  0.9999998  0.0005585 -0.0005585  0.9999998 
    4   596     1  1.7274502  0.0003469  0.9999999  0.0004013 -0.0004013  0.9999999 
    4   596     2  1.7238994 -0.0007336  0.9999999  0.0005006 -0.0005006  0.9999999 
    4   596     3  1.7274308  0.0005118  1.0000000 -0.0001595  0.0001595  1.0000000 
    4   596     4  1.7238706 -0.0005724  1.0000000 -0.0000577  0.0000577  1.0000000 
    4   597     1  1.7273710  0.0005066  1.0000000 -0.0001746  0.0001746  1.0000000 
    4   597     2  1.7273781  0.0003528  0.9999999  0.0003894 -0.0003894  0.9999999 
    4   597     3  1.7237964 -0.0005790  1.0000000 -0.0000822  0.0000822  1.0000000 
    4   597     4  1.7238097 -0.0007302  0.9999999  0.0004794 -0.0004794  0.9999999 
    4   598     1  1.7294480 -0.0005450  1.0000000 -0.0001118  0.0001118  1.0000000 
    4   598     2  1.7330255  0.0005394  1.0000000 -0.0001965  0.0001965  1.0000000 
    4   598     3  1.7294532 -0.0006866  0.9999999  0.0004454 -0.0004454  0.9999999 
    4   598     4  1.7330215  0.0003945  0.9999999  0.0003629 -0.0003629  0.9999999 
    4   599     1  1.7295167 -0.0006895  0.9999999  0.0004630 -0.0004630  0.9999999 
    4   599     2  1.7295014 -0.0005356  1.0000000 -0.0000901  0.0000901  1.0000000 
    4   599     3  1.7330649  0.0003882  0.9999999  0.0003713 -0.0003713  0.9999999 
    4   599     4  1.7330605  0.0005461  1.0000000 -0.0001848  0.0001848  1.0000000 
    4   600     1  1.7295855 -0.0005333  1.0000000 -0.0000734  0.0000734  1.0000000 
    4   600     2  1.7331164  0.0005421  1.0000000 -0.0001747  0.0001747  1.0000000 
    4   600     3  1.7296348 -0.0006875  0.9999999  0.0004820 -0.0004820  0.9999999 
    4   600     4  1.7331493  0.0003824  0.9999999  0.0003828 -0.0003828  0.9999999 
    4   601     1  1.7297835 -0.0006842  0.9999999  0.0004974 -0.0004974  0.9999999 
    4   601     2  1.7297175 -0.0005231  1.0000000 -0.0000516  0.0000516  1.0000000 
    4   601     3  1.7332597  0.0003768  0.9999999  0.0003911 -0.0003911  0.9999999 
    4   601     4  1.7332135  0.0005446  1.0000000 -0.0001607  0.0001607  1.0000000 
    4   602     1  1.7277378  0.0003366  0.9999999  0.0004235 -0.0004235  0.9999999 
    4   602     2  1.7242611 -0.0007287  0.9999999  0.0005418 -0.0005418  0.9999999 
    4   602     3  1.7276622  0.0005129  1.0000000 -0.0001321  0.0001321  1.0000000 
    4   602     4  1.7241664 -0.0005592  1.0000000 -0.0000102  0.0000102  1.0000000 
    4   603     1  1.7275152  0.0005125  1.0000000 -0.0001477  0.0001477  1.0000000 
    4   603     2  1.7275729  0.0003470  0.9999999  0.0004151 -0.0004151  0.9999999 
    4   603     3  1.7239832 -0.0005664  1.0000000 -0.0000364  0.0000364  1.0000000 
    4   603     4  1.7240561 -0.0007262  0.9999999  0.0005224 -0.0005224  0.9999999 
    4   604     1  1.7184070 -0.0005922  1.0000000  8.64e-006 -8.64e-006  1.0000000 
    4   604     2  1.7219150  0.0004888  1.0000000 -0.0001268  0.0001268  1.0000000 
    4   604     3  1.7184942 -0.0007904  0.9999998  0.0005722 -0.0005722  0.9999998 
    4   604     4  1.7219867  0.0002844  0.9999999  0.0004411 -0.0004411  0.9999999 
    4   605     1  1.7187445 -0.0007915  0.9999998  0.0005944 -0.0005944  0.9999998 
    4   605     2  1.7186339 -0.0005810  1.0000000  0.0000389 -0.0000389  1.0000000 
    4   605     3  1.7221982  0.0002776  0.9999999  0.0004506 -0.0004506  0.9999999 
    4   605     4  1.7221038  0.0004950  1.0000000 -0.0001102  0.0001102  1.0000000 
    4   606     1  1.7166746  0.0002279  0.9999999  0.0004894 -0.0004894  0.9999999 
    4   606     2  1.7132125 -0.0008486  0.9999998  0.0006443 -0.0006443  0.9999998 
    4   606     3  1.7165557  0.0004582  1.0000000 -0.0000784  0.0000784  1.0000000 
    4   606     4  1.7130796 -0.0006252  1.0000000  0.0000825 -0.0000825  1.0000000 
    4   607     1  1.7163272  0.0004459  1.0000000 -0.0000971  0.0000971  1.0000000 
    4   607     2  1.7164193  0.0002302  0.9999999  0.0004763 -0.0004763  0.9999999 
    4   607     3  1.7128207 -0.0006389  1.0000000  0.0000483 -0.0000483  1.0000000 
    4   607     4  1.7129202 -0.0008506  0.9999998  0.0006176 -0.0006176  0.9999998 
    4   608     1  1.7189377 -0.0005772  1.0000000  0.0000639 -0.0000639  1.0000000 
    4   608     2  1.7223441  0.0004864  1.0000000 -0.0000979  0.0000979  1.0000000 
    4   608     3  1.7191422 -0.0007733  0.9999998  0.0006154 -0.0006154  0.9999998 
    4   608     4  1.7225204  0.0002788  0.9999999  0.0004612 -0.0004612  0.9999999 
    4   609     1  1.7196549 -0.0007697  0.9999998  0.0006313 -0.0006313  0.9999998 
    4   609     2  1.7193974 -0.0005682  1.0000000  0.0000961 -0.0000961  1.0000000 
    4   609     3  1.7229450  0.0002654  0.9999999  0.0004612 -0.0004612  0.9999999 
    4   609     4  1.7227173  0.0004805  1.0000000 -0.0000838  0.0000838  1.0000000 
    4   610     1  1.7175652  0.0002381  0.9999999  0.0005037 -0.0005037  0.9999999 
    4   610     2  1.7142163 -0.0008230  0.9999998  0.0006900 -0.0006900  0.9999998 
    4   610     3  1.7172858  0.0004670  1.0000000 -0.0000532  0.0000532  1.0000000 
    4   610     4  1.7139244 -0.0006034  1.0000000  0.0001436 -0.0001436  1.0000000 
    4   611     1  1.7168435  0.0004531  1.0000000 -0.0000628  0.0000628  1.0000000 
    4   611     2  1.7170618  0.0002340  0.9999999  0.0005021 -0.0005021  0.9999999 
    4   611     3  1.7134298 -0.0006193  1.0000000  0.0001117 -0.0001117  1.0000000 
    4   611     4  1.7136590 -0.0008321  0.9999998  0.0006701 -0.0006701  0.9999998 
    4   612     1  1.7282893  0.0003233  0.9999999  0.0004427 -0.0004427  0.9999999 
    4   612     2  1.7249895 -0.0006968  0.9999998  0.0005770 -0.0005770  0.9999998 
    4   612     3  1.7281245  0.0004962  1.0000000 -0.0000956  0.0000956  1.0000000 
    4   612     4  1.7247787 -0.0005399  1.0000000  0.0000453 -0.0000453  1.0000000 
    4   613     1  1.7278456  0.0005008  1.0000000 -0.0001179  0.0001179  1.0000000 
    4   613     2  1.7279852  0.0003370  0.9999999  0.0004357 -0.0004357  0.9999999 
    4   613     3  1.7244101 -0.0005563  1.0000000  0.0000113 -0.0000113  1.0000000 
    4   613     4  1.7245783 -0.0007100  0.9999998  0.0005601 -0.0005601  0.9999998 
    4   614     1  1.7298951 -0.0005170  1.0000000 -0.0000345  0.0000345  1.0000000 
    4   614     2  1.7333366  0.0005362  1.0000000 -0.0001479  0.0001479  1.0000000 
    4   614     3  1.7300161 -0.0006672  0.9999999  0.0005136 -0.0005136  0.9999999 
    4   614     4  1.7334239  0.0003751  0.9999999  0.0004030 -0.0004030  0.9999999 
    4   615     1  1.7302830 -0.0006517  0.9999999  0.0005258 -0.0005258  0.9999999 
    4   615     2  1.7301457 -0.0004927  1.0000000 -0.0000105  0.0000105  1.0000000 
    4   615     3  1.7336075  0.0003684  0.9999999  0.0004092 -0.0004092  0.9999999 
    4   615     4  1.7335152  0.0005416  1.0000000 -0.0001298  0.0001298  1.0000000 
    4   616     1  1.7304048 -0.0004935  1.0000000 -5.77e-006  5.77e-006  1.0000000 
    4   616     2  1.7337042  0.0005163  1.0000000 -0.0001148  0.0001148  1.0000000 
    4   616     3  1.7305850 -0.0006234  0.9999999  0.0005285 -0.0005285  0.9999999 
    4   616     4  1.7338216  0.0003685  0.9999999  0.0004178 -0.0004178  0.9999999 
    4   617     1  1.7308250 -0.0006078  0.9999999  0.0005148 -0.0005148  0.9999999 
    4   617     2  1.7306874 -0.0005081  1.0000000 -0.0000128  0.0000128  1.0000000 
    4   617     3  1.7339886  0.0003553  0.9999999  0.0004247 -0.0004247  0.9999999 
    4   617     4  1.7339084  0.0004697  1.0000000 -0.0000947  0.0000947  1.0000000 
    4   618     1  1.7290006  0.0003039  0.9999999  0.0004509 -0.0004509  0.9999999 
    4   618     2  1.7260219 -0.0006224  0.9999998  0.0005845 -0.0005845  0.9999998 
    4   618     3  1.7288323  0.0004669  1.0000000 -0.0000407  0.0000407  1.0000000 
    4   618     4  1.7257154 -0.0004972  1.0000000  0.0000872 -0.0000872  1.0000000 
    4   619     1  1.7284489  0.0005039  1.0000000 -0.0000625  0.0000625  1.0000000 
    4   619     2  1.7286546  0.0003141  0.9999999  0.0004502 -0.0004502  0.9999999 
    4   619     3  1.7252719 -0.0004893  1.0000000  0.0000895 -0.0000895  1.0000000 
    4   619     4  1.7255683 -0.0006491  0.9999998  0.0005943 -0.0005943  0.9999998 
    4   620     1  1.7200679 -0.0005540  1.0000000  0.0001470 -0.0001470  1.0000000 
    4   620     2  1.7231764  0.0004526  1.0000000 -0.0000621  0.0000621  1.0000000 
    4   620     3  1.7204760 -0.0007283  0.9999998  0.0006446 -0.0006446  0.9999998 
    4   620     4  1.7235295  0.0002490  0.9999999  0.0004592 -0.0004592  0.9999999 
    4   621     1  1.7218989 -0.0006447  0.9999998  0.0006356 -0.0006356  0.9999998 
    4   621     2  1.7214024 -0.0004157  1.0000000  0.0002780 -0.0002780  1.0000000 
    4   621     3  1.7241901  0.0001446  0.9999999  0.0004312 -0.0004312  0.9999999 
    4   621     4  1.7238914  0.0004552  1.0000000  0.0000423 -0.0000423  1.0000000 
    4   622     1  1.7192859  0.0002907  0.9999999  0.0004526 -0.0004526  0.9999999 
    4   622     2  1.7163429 -0.0007576  0.9999997  0.0007494 -0.0007494  0.9999997 
    4   622     3  1.7185289  0.0006154  1.0000000 -0.0000504  0.0000504  1.0000000 
    4   622     4  1.7157935 -0.0004604  0.9999999  0.0003246 -0.0003246  0.9999999 
    4   623     1  1.7178598  0.0004634  1.0000000 -0.0000601  0.0000601  1.0000000 
    4   623     2  1.7183269  0.0002545  0.9999999  0.0004896 -0.0004896  0.9999999 
    4   623     3  1.7145910 -0.0005993  1.0000000  0.0001644 -0.0001644  1.0000000 
    4   623     4  1.7150374 -0.0008063  0.9999998  0.0007014 -0.0007014  0.9999998 
    4   624     1  1.7204284  0.0004402  0.9999999  0.0003469 -0.0003469  0.9999999 
    4   624     2  1.7201866 -0.0002278  1.0000000  0.0002216 -0.0002216  1.0000000 
    4   624     3  1.7202640 -0.0002412  0.9999999  0.0004463 -0.0004463  0.9999999 
    4   624     4  1.7201265 -0.0005623  0.9999999  0.0003273 -0.0003273  0.9999999 
    4   625     1  1.7218330 -0.0005657  1.0000000  0.0002258 -0.0002258  1.0000000 
    4   625     2  1.7246032  0.0003043  1.0000000  0.0000798 -0.0000798  1.0000000 
    4   625     3  1.7225943 -0.0006652  0.9999998  0.0006292 -0.0006292  0.9999998 
    4   625     4  1.7248125  0.0000769  0.9999999  0.0004527 -0.0004527  0.9999999 
    4   626     1  1.7218148 -0.0006000  0.9999999  0.0004445 -0.0004445  0.9999999 
    4   626     2  1.7225618 -0.0005876  1.0000000  0.0000144 -0.0000144  1.0000000 
    4   626     3  1.7245875  0.0002399  0.9999999  0.0005210 -0.0005210  0.9999999 
    4   626     4  1.7247921  0.0001170  1.0000000  0.0001370 -0.0001370  1.0000000 
    4   627     1  1.7290971  0.0002553  0.9999999  0.0005326 -0.0005326  0.9999999 
    4   627     2  1.7261343 -0.0006335  0.9999999  0.0005437 -0.0005437  0.9999999 
    4   627     3  1.7291958  0.0003210  1.0000000  0.0000536 -0.0000536  1.0000000 
    4   627     4  1.7263013 -0.0005452  1.0000000  0.0000349 -0.0000349  1.0000000 
    4   628     1  1.7291228  0.0003092  1.0000000 -9.56e-006  9.56e-006  1.0000000 
    4   628     2  1.7292316  0.0002893  0.9999999  0.0004669 -0.0004669  0.9999999 
    4   628     3  1.7261503 -0.0005850  1.0000000  0.0000273 -0.0000273  1.0000000 
    4   628     4  1.7263338 -0.0005855  0.9999999  0.0005309 -0.0005309  0.9999999 
    4   629     1  1.7308800 -0.0005424  1.0000000 -0.0000254  0.0000254  1.0000000 
    4   629     2  1.7340292  0.0004051  1.0000000 -0.0000652  0.0000652  1.0000000 
    4   629     3  1.7309575 -0.0006008  0.9999999  0.0005076 -0.0005076  0.9999999 
    4   629     4  1.7340731  0.0003391  0.9999999  0.0004524 -0.0004524  0.9999999 
    4   630     1  1.7308407 -0.0005970  0.9999999  0.0005079 -0.0005079  0.9999999 
    4   630     2  1.7309182 -0.0005423  1.0000000 -0.0000294  0.0000294  1.0000000 
    4   630     3  1.7339755  0.0003438  0.9999999  0.0004922 -0.0004922  0.9999999 
    4   630     4  1.7340292  0.0003905  1.0000000 -0.0000292  0.0000292  1.0000000 
    4   631     1  1.7288867  0.0003240  1.0000000  0.0000697 -0.0000697  1.0000000 
    4   631     2  1.7287232  0.0004088  0.9999998  0.0005840 -0.0005840  0.9999998 
    4   631     3  1.7259300 -0.0005774  1.0000000 -0.0000201  0.0000201  1.0000000 
    4   631     4  1.7256395 -0.0005280  0.9999999  0.0005027 -0.0005027  0.9999999 
    4   632     1  1.7307049 -0.0005522  1.0000000 -0.0000425  0.0000425  1.0000000 
    4   632     2  1.7338445  0.0003915  1.0000000 -4.80e-006  4.80e-006  1.0000000 
    4   632     3  1.7305593 -0.0005607  0.9999999  0.0005106 -0.0005106  0.9999999 
    4   632     4  1.7337529  0.0003985  0.9999999  0.0005372 -0.0005372  0.9999999 
    4   633     1  1.7301747 -0.0005352  0.9999999  0.0005115 -0.0005115  0.9999999 
    4   633     2  1.7303611 -0.0005687  1.0000000 -0.0000544  0.0000544  1.0000000 
    4   633     3  1.7334337  0.0004479  0.9999998  0.0005692 -0.0005692  0.9999998 
    4   633     4  1.7335634  0.0003982  1.0000000  7.16e-006 -7.16e-006  1.0000000 
    4   634     1  1.7282533  0.0004404  0.9999998  0.0006216 -0.0006216  0.9999998 
    4   634     2  1.7251226 -0.0005194  0.9999999  0.0005128 -0.0005128  0.9999999 
    4   634     3  1.7284498  0.0003186  1.0000000  0.0000840 -0.0000840  1.0000000 
    4   634     4  1.7254033 -0.0006153  1.0000000 -0.0000218  0.0000218  1.0000000 
    4   635     1  1.7200080 -0.0005959  0.9999998  0.0005695 -0.0005695  0.9999998 
    4   635     2  1.7203950 -0.0006728  1.0000000  0.0000393 -0.0000393  1.0000000 
    4   635     3  1.7230734  0.0003578  0.9999997  0.0007144 -0.0007144  0.9999997 
    4   635     4  1.7234113  0.0002601  1.0000000  0.0001665 -0.0001665  1.0000000 
    4   636     1  1.7179087  0.0003384  0.9999997  0.0008086 -0.0008086  0.9999997 
    4   636     2  1.7147158 -0.0006543  0.9999998  0.0006611 -0.0006611  0.9999998 
    4   636     3  1.7183323  0.0002474  1.0000000  0.0002386 -0.0002386  1.0000000 
    4   636     4  1.7151069 -0.0007531  1.0000000  0.0000960 -0.0000960  1.0000000 
    4   637     1  1.7193326  0.0003128  1.0000000  0.0002421 -0.0002421  1.0000000 
    4   637     2  1.7186085  0.0005119  0.9999997  0.0008032 -0.0008032  0.9999997 
    4   637     3  1.7162908 -0.0006921  1.0000000  0.0000145 -0.0000145  1.0000000 
    4   637     4  1.7157882 -0.0004896  0.9999999  0.0004939 -0.0004939  0.9999999 
    4   638     1  1.7218304 -0.0005855  1.0000000  0.0000145 -0.0000145  1.0000000 
    4   638     2  1.7241362  0.0001636  1.0000000  0.0001689 -0.0001689  1.0000000 
    4   638     3  1.7213489 -0.0004325  0.9999999  0.0004104 -0.0004104  0.9999999 
    4   638     4  1.7238460  0.0003873  0.9999998  0.0005894 -0.0005894  0.9999998 
    4   639     1  1.7175094  0.0002240  1.0000000  0.0002516 -0.0002516  1.0000000 
    4   639     2  1.7172511  0.0003682  0.9999997  0.0008336 -0.0008336  0.9999997 
    4   639     3  1.7142832 -0.0007749  1.0000000  0.0001139 -0.0001139  1.0000000 
    4   639     4  1.7140066 -0.0006367  0.9999998  0.0006941 -0.0006941  0.9999998 
    4   640     1  1.7195255 -0.0007202  1.0000000  0.0000582 -0.0000582  1.0000000 
    4   640     2  1.7227406  0.0002681  1.0000000  0.0001784 -0.0001784  1.0000000 
    4   640     3  1.7192778 -0.0006012  0.9999998  0.0006372 -0.0006372  0.9999998 
    4   640     4  1.7225241  0.0003978  0.9999997  0.0007616 -0.0007616  0.9999997 
    4   641     1  1.7186945 -0.0005977  0.9999998  0.0006723 -0.0006723  0.9999998 
    4   641     2  1.7189151 -0.0007294  1.0000000  0.0000770 -0.0000770  1.0000000 
    4   641     3  1.7220000  0.0004174  0.9999997  0.0007930 -0.0007930  0.9999997 
    4   641     4  1.7221924  0.0002768  1.0000000  0.0001960 -0.0001960  1.0000000 
    4   642     1  1.7166635  0.0003936  0.9999996  0.0008626 -0.0008626  0.9999996 
    4   642     2  1.7133859 -0.0006224  0.9999997  0.0007208 -0.0007208  0.9999997 
    4   642     3  1.7168864  0.0002218  1.0000000  0.0002715 -0.0002715  1.0000000 
    4   642     4  1.7136301 -0.0007879  1.0000000  0.0001302 -0.0001302  1.0000000 
    4   643     1  1.7273956  0.0004532  0.9999997  0.0007162 -0.0007162  0.9999997 
    4   643     2  1.7240302 -0.0005727  0.9999998  0.0006148 -0.0006148  0.9999998 
    4   643     3  1.7275404  0.0003322  1.0000000  0.0001163 -0.0001163  1.0000000 
    4   643     4  1.7242112 -0.0006827  1.0000000  0.0000160 -0.0000160  1.0000000 
    4   644     1  1.7279735  0.0003224  1.0000000  0.0000981 -0.0000981  1.0000000 
    4   644     2  1.7278147  0.0004428  0.9999998  0.0006779 -0.0006779  0.9999998 
    4   644     3  1.7247322 -0.0006673  1.0000000 -3.86e-006  3.86e-006  1.0000000 
    4   644     4  1.7245354 -0.0005590  0.9999998  0.0005726 -0.0005726  0.9999998 
    4   645     1  1.7299489 -0.0006099  1.0000000 -0.0000553  0.0000553  1.0000000 
    4   645     2  1.7332258  0.0003822  1.0000000  0.0000187 -0.0000187  1.0000000 
    4   645     3  1.7298026 -0.0005309  0.9999999  0.0005307 -0.0005307  0.9999999 
    4   645     4  1.7331223  0.0004737  0.9999998  0.0006035 -0.0006035  0.9999998 
    4   646     1  1.7294108 -0.0005468  0.9999998  0.0005618 -0.0005618  0.9999998 
    4   646     2  1.7295467 -0.0006277  1.0000000 -0.0000424  0.0000424  1.0000000 
    4   646     3  1.7327957  0.0004776  0.9999998  0.0006368 -0.0006368  0.9999998 
    4   646     4  1.7329002  0.0003873  1.0000000  0.0000326 -0.0000326  1.0000000 
    4   647     1  1.7271310  0.0003282  1.0000000  0.0001307 -0.0001307  1.0000000 
    4   647     2  1.7270403  0.0004820  0.9999997  0.0007513 -0.0007513  0.9999997 
    4   647     3  1.7237269 -0.0007102  1.0000000  0.0000270 -0.0000270  1.0000000 
    4   647     4  1.7236162 -0.0005625  0.9999998  0.0006469 -0.0006469  0.9999998 
    4   648     1  1.7291601 -0.0006543  1.0000000 -0.0000339  0.0000339  1.0000000 
    4   648     2  1.7325755  0.0003804  1.0000000  0.0000458 -0.0000458  1.0000000 
    4   648     3  1.7290699 -0.0005440  0.9999998  0.0005897 -0.0005897  0.9999998 
    4   648     4  1.7325098  0.0004978  0.9999998  0.0006689 -0.0006689  0.9999998 
    4   649     1  1.7287503 -0.0005459  0.9999998  0.0006161 -0.0006161  0.9999998 
    4   649     2  1.7288266 -0.0006633  1.0000000 -0.0000216  0.0000216  1.0000000 
    4   649     3  1.7322285  0.0005077  0.9999998  0.0006964 -0.0006964  0.9999998 
    4   649     4  1.7322857  0.0003845  1.0000000  0.0000589 -0.0000589  1.0000000 
    4   650     1  1.7267061  0.0004919  0.9999997  0.0007819 -0.0007819  0.9999997 
    4   650     2  1.7232419 -0.0005643  0.9999998  0.0006781 -0.0006781  0.9999998 
    4   650     3  1.7267817  0.0003307  1.0000000  0.0001472 -0.0001472  1.0000000 
    4   650     4  1.7233389 -0.0007191  1.0000000  0.0000436 -0.0000436  1.0000000 
    4   651     1  1.7177878 -0.0005840  0.9999997  0.0007377 -0.0007377  0.9999997 
    4   651     2  1.7179094 -0.0007753  1.0000000  0.0001076 -0.0001076  1.0000000 
    4   651     3  1.7211972  0.0004640  0.9999996  0.0008635 -0.0008635  0.9999996 
    4   651     4  1.7212947  0.0002654  1.0000000  0.0002325 -0.0002325  1.0000000 
    4   652     1  1.7157420  0.0004345  0.9999996  0.0009424 -0.0009424  0.9999996 
    4   652     2  1.7123641 -0.0006144  0.9999997  0.0007934 -0.0007934  0.9999997 
    4   652     3  1.7158630  0.0001982  0.9999999  0.0003164 -0.0003164  0.9999999 
    4   652     4  1.7125055 -0.0008444  1.0000000  0.0001686 -0.0001686  1.0000000 
    4   653     1  1.7163293  0.0002024  1.0000000  0.0002918 -0.0002918  1.0000000 
    4   653     2  1.7161936  0.0004299  0.9999996  0.0009037 -0.0009037  0.9999996 
    4   653     3  1.7130164 -0.0008271  1.0000000  0.0001440 -0.0001440  1.0000000 
    4   653     4  1.7128545 -0.0006078  0.9999997  0.0007547 -0.0007547  0.9999997 
    4   654     1  1.7183559 -0.0007632  1.0000000  0.0000881 -0.0000881  1.0000000 
    4   654     2  1.7217014  0.0002654  1.0000000  0.0002121 -0.0002121  1.0000000 
    4   654     3  1.7182202 -0.0005835  0.9999998  0.0007053 -0.0007053  0.9999998 
    4   654     4  1.7215892  0.0004521  0.9999997  0.0008299 -0.0008299  0.9999997 
    4   655     1  1.7154286  0.0001884  0.9999999  0.0003416 -0.0003416  0.9999999 
    4   655     2  1.7153685  0.0004537  0.9999995  0.0009860 -0.0009860  0.9999995 
    4   655     3  1.7120148 -0.0008711  1.0000000  0.0001925 -0.0001925  1.0000000 
    4   655     4  1.7119353 -0.0006120  0.9999997  0.0008357 -0.0008357  0.9999997 
    4   656     1  1.7174788 -0.0008003  1.0000000  0.0001254 -0.0001254  1.0000000 
    4   656     2  1.7209174  0.0002570  1.0000000  0.0002528 -0.0002528  1.0000000 
    4   656     3  1.7174165 -0.0005795  0.9999997  0.0007724 -0.0007724  0.9999997 
    4   656     4  1.7208728  0.0004831  0.9999996  0.0009001 -0.0009001  0.9999996 
    4   657     1  1.7170654 -0.0005816  0.9999997  0.0008071 -0.0008071  0.9999997 
    4   657     2  1.7171212 -0.0008066  1.0000000  0.0001485 -0.0001485  1.0000000 
    4   657     3  1.7205475  0.0004883  0.9999996  0.0009343 -0.0009343  0.9999996 
    4   657     4  1.7205890  0.0002591  1.0000000  0.0002754 -0.0002754  1.0000000 
    4   658     1  1.7150061  0.0004565  0.9999995  0.0010248 -0.0010248  0.9999995 
    4   658     2  1.7115436 -0.0006167  0.9999996  0.0008765 -0.0008765  0.9999996 
    4   658     3  1.7150568  0.0001885  0.9999999  0.0003683 -0.0003683  0.9999999 
    4   658     4  1.7116076 -0.0008807  1.0000000  0.0002204 -0.0002204  1.0000000 
    4   659     1  1.7261260  0.0005120  0.9999996  0.0008418 -0.0008418  0.9999996 
    4   659     2  1.7226071 -0.0005604  0.9999997  0.0007378 -0.0007378  0.9999997 
    4   659     3  1.7261594  0.0003283  1.0000000  0.0001806 -0.0001806  1.0000000 
    4   659     4  1.7226552 -0.0007398  1.0000000  0.0000768 -0.0000768  1.0000000 
    4   660     1  1.7264527  0.0003256  1.0000000  0.0001631 -0.0001631  1.0000000 
    4   660     2  1.7264134  0.0005087  0.9999997  0.0008126 -0.0008126  0.9999997 
    4   660     3  1.7229687 -0.0007370  1.0000000  0.0000577 -0.0000577  1.0000000 
    4   660     4  1.7229186 -0.0005572  0.9999997  0.0007072 -0.0007072  0.9999997 
    4   661     1  1.7285105 -0.0006800  1.0000000 -0.0000112  0.0000112  1.0000000 
    4   661     2  1.7320062  0.0003796  1.0000000  0.0000722 -0.0000722  1.0000000 
    4   661     3  1.7284656 -0.0005419  0.9999998  0.0006407 -0.0006407  0.9999998 
    4   661     4  1.7319771  0.0005222  0.9999997  0.0007234 -0.0007234  0.9999997 
    4   662     1  1.7281891 -0.0005433  0.9999998  0.0006659 -0.0006659  0.9999998 
    4   662     2  1.7282271 -0.0006845  1.0000000  2.58e-006 -2.58e-006  1.0000000 
    4   662     3  1.7317246  0.0005280  0.9999997  0.0007488 -0.0007488  0.9999997 
    4   662     4  1.7317497  0.0003831  1.0000000  0.0000860 -0.0000860  1.0000000 
    4   663     1  1.7258688  0.0003291  1.0000000  0.0001994 -0.0001994  1.0000000 
    4   663     2  1.7258483  0.0005177  0.9999996  0.0008700 -0.0008700  0.9999996 
    4   663     3  1.7223388 -0.0007464  1.0000000  0.0000963 -0.0000963  1.0000000 
    4   663     4  1.7223114 -0.0005597  0.9999997  0.0007670 -0.0007670  0.9999997 
    4   664     1  1.7279477 -0.0006930  1.0000000  0.0000164 -0.0000164  1.0000000 
    4   664     2  1.7314929  0.0003818  1.0000000  0.0001015 -0.0001015  1.0000000 
    4   664     3  1.7279208 -0.0005431  0.9999998  0.0006892 -0.0006892  0.9999998 
    4   664     4  1.7314776  0.0005348  0.9999997  0.0007732 -0.0007732  0.9999997 
    4   665     1  1.7276424 -0.0005445  0.9999997  0.0007129 -0.0007129  0.9999997 
    4   665     2  1.7276716 -0.0006944  1.0000000  0.0000320 -0.0000320  1.0000000 
    4   665     3  1.7312148  0.0005382  0.9999997  0.0007976 -0.0007976  0.9999997 
    4   665     4  1.7312348  0.0003858  1.0000000  0.0001175 -0.0001175  1.0000000 
    4   666     1  1.7255612  0.0005176  0.9999996  0.0008978 -0.0008978  0.9999996 
    4   666     2  1.7220113 -0.0005631  0.9999997  0.0007968 -0.0007968  0.9999997 
    4   666     3  1.7255849  0.0003333  1.0000000  0.0002191 -0.0002191  1.0000000 
    4   666     4  1.7220435 -0.0007450  1.0000000  0.0001177 -0.0001177  1.0000000 
    4   667     1  1.7164130 -0.0005820  0.9999996  0.0008754 -0.0008754  0.9999996 
    4   667     2  1.7164423 -0.0008176  1.0000000  0.0001983 -0.0001983  1.0000000 
    4   667     3  1.7199383  0.0005003  0.9999995  0.0010018 -0.0010018  0.9999995 
    4   667     4  1.7199584  0.0002619  0.9999999  0.0003245 -0.0003245  0.9999999 
    4   668     1  1.7143415  0.0004656  0.9999994  0.0011015 -0.0011015  0.9999994 
    4   668     2  1.7108357 -0.0006188  0.9999995  0.0009563 -0.0009563  0.9999995 
    4   668     3  1.7143633  0.0001884  0.9999999  0.0004256 -0.0004256  0.9999999 
    4   668     4  1.7108669 -0.0008932  1.0000000  0.0002805 -0.0002805  1.0000000 
    4   669     1  1.7146975  0.0001868  0.9999999  0.0003967 -0.0003967  0.9999999 
    4   669     2  1.7146746  0.0004670  0.9999994  0.0010637 -0.0010637  0.9999994 
    4   669     3  1.7112180 -0.0008910  1.0000000  0.0002494 -0.0002494  1.0000000 
    4   669     4  1.7111843 -0.0006142  0.9999996  0.0009157 -0.0009157  0.9999996 
    4   670     1  1.7167685 -0.0008192  1.0000000  0.0001722 -0.0001722  1.0000000 
    4   670     2  1.7202661  0.0002556  1.0000000  0.0003000 -0.0003000  1.0000000 
    4   670     3  1.7167393 -0.0005821  0.9999996  0.0008410 -0.0008410  0.9999996 
    4   670     4  1.7202495  0.0004962  0.9999995  0.0009684 -0.0009684  0.9999995 
    4   671     1  1.7140211  0.0001964  0.9999999  0.0004581 -0.0004581  0.9999999 
    4   671     2  1.7139955  0.0004636  0.9999994  0.0011363 -0.0011363  0.9999994 
    4   671     3  1.7105123 -0.0008869  0.9999999  0.0003172 -0.0003172  0.9999999 
    4   671     4  1.7104808 -0.0006217  0.9999995  0.0009945 -0.0009945  0.9999995 
    4   672     1  1.7161111 -0.0008168  1.0000000  0.0002289 -0.0002289  1.0000000 
    4   672     2  1.7196393  0.0002656  0.9999999  0.0003537 -0.0003537  0.9999999 
    4   672     3  1.7160776 -0.0005878  0.9999996  0.0009077 -0.0009077  0.9999996 
    4   672     4  1.7196138  0.0004968  0.9999995  0.0010320 -0.0010320  0.9999995 
    4   673     1  1.7157237 -0.0005887  0.9999996  0.0009427 -0.0009427  0.9999996 
    4   673     2  1.7157631 -0.0008115  1.0000000  0.0002582 -0.0002582  1.0000000 
    4   673     3  1.7192653  0.0004968  0.9999994  0.0010654 -0.0010654  0.9999994 
    4   673     4  1.7193000  0.0002728  0.9999999  0.0003812 -0.0003812  0.9999999 
    4   674     1  1.7136382  0.0004550  0.9999993  0.0011741 -0.0011741  0.9999993 
    4   674     2  1.7101175 -0.0006303  0.9999995  0.0010365 -0.0010365  0.9999995 
    4   674     3  1.7136700  0.0001976  0.9999999  0.0004921 -0.0004921  0.9999999 
    4   674     4  1.7101570 -0.0008856  0.9999999  0.0003541 -0.0003541  0.9999999 
    4   675     1  1.7252854  0.0003378  1.0000000  0.0002425 -0.0002425  1.0000000 
    4   675     2  1.7252512  0.0005149  0.9999996  0.0009234 -0.0009234  0.9999996 
    4   675     3  1.7217333 -0.0007434  1.0000000  0.0001418 -0.0001418  1.0000000 
    4   675     4  1.7216942 -0.0005674  0.9999997  0.0008237 -0.0008237  0.9999997 
    4   676     1  1.7273831 -0.0006955  1.0000000  0.0000495 -0.0000495  1.0000000 
    4   676     2  1.7309594  0.0003889  1.0000000  0.0001365 -0.0001365  1.0000000 
    4   676     3  1.7273429 -0.0005483  0.9999997  0.0007343 -0.0007343  0.9999997 
    4   676     4  1.7309275  0.0005381  0.9999997  0.0008197 -0.0008197  0.9999997 
    4   677     1  1.7270145 -0.0005504  0.9999997  0.0007556 -0.0007556  0.9999997 
    4   677     2  1.7270677 -0.0006983  1.0000000  0.0000657 -0.0000657  1.0000000 
    4   677     3  1.7306064  0.0005389  0.9999996  0.0008435 -0.0008435  0.9999996 
    4   677     4  1.7306541  0.0003899  1.0000000  0.0001559 -0.0001559  1.0000000 
    4   678     1  1.7249117  0.0005149  0.9999995  0.0009504 -0.0009504  0.9999995 
    4   678     2  1.7213519 -0.0005679  0.9999996  0.0008517 -0.0008517  0.9999996 
    4   678     3  1.7249596  0.0003453  1.0000000  0.0002640 -0.0002640  1.0000000 
    4   678     4  1.7214021 -0.0007369  1.0000000  0.0001648 -0.0001648  1.0000000 
    4   679     1  1.7132913  0.0002130  0.9999999  0.0005311 -0.0005311  0.9999999 
    4   679     2  1.7132326  0.0004454  0.9999993  0.0012071 -0.0012071  0.9999993 
    4   679     3  1.7097798 -0.0008671  0.9999999  0.0003995 -0.0003995  0.9999999 
    4   679     4  1.7097169 -0.0006363  0.9999994  0.0010743 -0.0010743  0.9999994 
    4   680     1  1.7153976 -0.0008001  1.0000000  0.0002959 -0.0002959  1.0000000 
    4   680     2  1.7189314  0.0002820  0.9999999  0.0004160 -0.0004160  0.9999999 
    4   680     3  1.7153317 -0.0005969  0.9999995  0.0009726 -0.0009726  0.9999995 
    4   680     4  1.7188693  0.0004863  0.9999994  0.0010922 -0.0010922  0.9999994 
    4   681     1  1.7149178 -0.0005992  0.9999995  0.0010084 -0.0010084  0.9999995 
    4   681     2  1.7149819 -0.0007946  0.9999999  0.0003295 -0.0003295  0.9999999 
    4   681     3  1.7184561  0.0004828  0.9999994  0.0011245 -0.0011245  0.9999994 
    4   681     4  1.7185200  0.0002870  0.9999999  0.0004443 -0.0004443  0.9999999 
    4   682     1  1.7128218  0.0004343  0.9999992  0.0012464 -0.0012464  0.9999992 
    4   682     2  1.7092946 -0.0006486  0.9999994  0.0011190 -0.0011190  0.9999994 
    4   682     3  1.7128820  0.0002136  0.9999998  0.0005690 -0.0005690  0.9999998 
    4   682     4  1.7093696 -0.0008649  0.9999999  0.0004420 -0.0004420  0.9999999 
    4   683     1  1.7246008  0.0003506  1.0000000  0.0002921 -0.0002921  1.0000000 
    4   683     2  1.7245215  0.0005021  0.9999995  0.0009721 -0.0009721  0.9999995 
    4   683     3  1.7210455 -0.0007307  1.0000000  0.0001936 -0.0001936  1.0000000 
    4   683     4  1.7209668 -0.0005784  0.9999996  0.0008754 -0.0008754  0.9999996 
    4   684     1  1.7267205 -0.0006979  1.0000000  0.0000861 -0.0000861  1.0000000 
    4   684     2  1.7303084  0.0003920  1.0000000  0.0001810 -0.0001810  1.0000000 
    4   684     3  1.7266363 -0.0005565  0.9999997  0.0007724 -0.0007724  0.9999997 
    4   684     4  1.7302258  0.0005330  0.9999996  0.0008638 -0.0008638  0.9999996 
    4   685     1  1.7262093 -0.0005559  0.9999997  0.0007881 -0.0007881  0.9999997 
    4   685     2  1.7263181 -0.0007021  1.0000000  0.0001048 -0.0001048  1.0000000 
    4   685     3  1.7297760  0.0005287  0.9999996  0.0008864 -0.0008864  0.9999996 
    4   685     4  1.7298969  0.0003874  1.0000000  0.0002075 -0.0002075  1.0000000 
    4   686     1  1.7240886  0.0004983  0.9999995  0.0009958 -0.0009958  0.9999995 
    4   686     2  1.7205509 -0.0005770  0.9999996  0.0008997 -0.0008997  0.9999996 
    4   686     3  1.7241879  0.0003562  1.0000000  0.0003149 -0.0003149  1.0000000 
    4   686     4  1.7206355 -0.0007235  1.0000000  0.0002185 -0.0002185  1.0000000 
    4   687     1  1.7124610  0.0002260  0.9999998  0.0006040 -0.0006040  0.9999998 
    4   687     2  1.7123899  0.0004243  0.9999992  0.0012779 -0.0012779  0.9999992 
    4   687     3  1.7089233 -0.0008558  0.9999999  0.0004882 -0.0004882  0.9999999 
    4   687     4  1.7088195 -0.0006689  0.9999993  0.0011565 -0.0011565  0.9999993 
    4   688     1  1.7145636 -0.0007884  0.9999999  0.0003764 -0.0003764  0.9999999 
    4   688     2  1.7180975  0.0002874  0.9999999  0.0004772 -0.0004772  0.9999999 
    4   688     3  1.7144969 -0.0006167  0.9999995  0.0010405 -0.0010405  0.9999995 
    4   688     4  1.7180310  0.0004607  0.9999993  0.0011467 -0.0011467  0.9999993 
    4   689     1  1.7142064 -0.0006338  0.9999994  0.0010938 -0.0010938  0.9999994 
    4   689     2  1.7141620 -0.0007955  0.9999999  0.0004371 -0.0004371  0.9999999 
    4   689     3  1.7177473  0.0004379  0.9999993  0.0011724 -0.0011724  0.9999993 
    4   689     4  1.7176965  0.0002688  0.9999999  0.0004914 -0.0004914  0.9999999 
    4   690     1  1.7121153  0.0004247  0.9999991  0.0013108 -0.0013108  0.9999991 
    4   690     2  1.7083257 -0.0007292  0.9999993  0.0012011 -0.0012011  0.9999993 
    4   690     3  1.7120992  0.0002190  0.9999998  0.0006038 -0.0006038  0.9999998 
    4   690     4  1.7084269 -0.0008965  0.9999999  0.0005069 -0.0005069  0.9999999 
    4   691     1  1.7237350  0.0003572  0.9999999  0.0003438 -0.0003438  0.9999999 
    4   691     2  1.7235998  0.0004696  0.9999995  0.0010093 -0.0010093  0.9999995 
    4   691     3  1.7202095 -0.0007122  1.0000000  0.0002558 -0.0002558  1.0000000 
    4   691     4  1.7201151 -0.0005878  0.9999996  0.0009207 -0.0009207  0.9999996 
    4   692     1  1.7258746 -0.0006992  1.0000000  0.0001311 -0.0001311  1.0000000 
    4   692     2  1.7294091  0.0003808  1.0000000  0.0002458 -0.0002458  1.0000000 
    4   692     3  1.7257182 -0.0005588  0.9999997  0.0007976 -0.0007976  0.9999997 
    4   692     4  1.7292122  0.0005067  0.9999996  0.0009034 -0.0009034  0.9999996 
    4   693     1  1.7251751 -0.0005361  0.9999997  0.0007961 -0.0007961  0.9999997 
    4   693     2  1.7253647 -0.0007133  1.0000000  0.0001565 -0.0001565  1.0000000 
    4   693     3  1.7284668  0.0004773  0.9999996  0.0009213 -0.0009213  0.9999996 
    4   693     4  1.7287795  0.0003435  1.0000000  0.0003012 -0.0003012  1.0000000 
    4   694     1  1.7231071  0.0004356  0.9999995  0.0010154 -0.0010154  0.9999995 
    4   694     2  1.7197692 -0.0005726  0.9999996  0.0009479 -0.0009479  0.9999996 
    4   694     3  1.7232438  0.0003700  0.9999999  0.0003621 -0.0003621  0.9999999 
    4   694     4  1.7197783 -0.0006751  1.0000000  0.0003028 -0.0003028  1.0000000 
    4   695     1  1.7119719  0.0003707  0.9999998  0.0005599 -0.0005599  0.9999998 
    4   695     2  1.7121422  0.0004796  0.9999991  0.0013305 -0.0013305  0.9999991 
    4   695     3  1.7079510 -0.0008382  0.9999999  0.0005114 -0.0005114  0.9999999 
    4   695     4  1.7078202 -0.0008205  0.9999992  0.0012682 -0.0012682  0.9999992 
    4   696     1  1.7140594 -0.0007111  0.9999999  0.0005198 -0.0005198  0.9999999 
    4   696     2  1.7175934  0.0003577  0.9999999  0.0004280 -0.0004280  0.9999999 
    4   696     3  1.7143194 -0.0007106  0.9999993  0.0011654 -0.0011654  0.9999993 
    4   696     4  1.7180911  0.0004228  0.9999994  0.0011286 -0.0011286  0.9999994 
    4   697     1  1.7150813 -0.0009646  0.9999992  0.0012842 -0.0012842  0.9999992 
    4   697     2  1.7146319 -0.0006100  0.9999999  0.0004539 -0.0004539  0.9999999 
    4   697     3  1.7202788  0.0006665  0.9999995  0.0010234 -0.0010234  0.9999995 
    4   697     4  1.7188198  0.0006920  1.0000000  0.0002648 -0.0002648  1.0000000 
    4   698     1  1.7121831  0.0005906  0.9999989  0.0014601 -0.0014601  0.9999989 
    4   698     2  1.7073665 -0.0008622  0.9999991  0.0013765 -0.0013765  0.9999991 
    4   698     3  1.7120164  0.0003651  0.9999998  0.0006073 -0.0006073  0.9999998 
    4   698     4  1.7074897 -0.0010018  0.9999999  0.0005215 -0.0005215  0.9999999 
    4   699     1  1.7237925  0.0001487  0.9999997  0.0007444 -0.0007444  0.9999997 
    4   699     2  1.7226620 -0.0006379  0.9999995  0.0010418 -0.0010418  0.9999995 
    4   699     3  1.7231050  0.0005431  0.9999997  0.0007833 -0.0007833  0.9999997 
    4   699     4  1.7224605 -0.0001387  0.9999995  0.0009909 -0.0009909  0.9999995 
    4   700     1  1.7226413  0.0002608  0.9999999  0.0003661 -0.0003661  0.9999999 
    4   700     2  1.7226283  0.0003188  0.9999995  0.0009806 -0.0009806  0.9999995 
    4   700     3  1.7195470 -0.0006555  0.9999999  0.0004689 -0.0004689  0.9999999 
    4   700     4  1.7198992 -0.0004992  0.9999995  0.0009750 -0.0009750  0.9999995 
    4   701     1  1.7250681 -0.0004708  1.0000000  0.0002156 -0.0002156  1.0000000 
    4   701     2  1.7277750  0.0004040  0.9999999  0.0004601 -0.0004601  0.9999999 
    4   701     3  1.7247145 -0.0004109  0.9999997  0.0007622 -0.0007622  0.9999997 
    4   701     4  1.7271553  0.0003495  0.9999996  0.0008890 -0.0008890  0.9999996 
    4   702     1  1.7150766 -0.0011272  1.0000000  0.0003064 -0.0003064  1.0000000 
    4   702     2  1.7207956  0.0005947  0.9999999  0.0003893 -0.0003893  0.9999999 
    4   702     3  1.7150473 -0.0010028  0.9999990  0.0013951 -0.0013951  0.9999990 
    4   702     4  1.7205211  0.0006320  0.9999991  0.0013642 -0.0013642  0.9999991 
    4   703     1  1.7142509 -0.0008667  0.9999992  0.0012748 -0.0012748  0.9999992 
    4   703     2  1.7144691 -0.0010054  0.9999999  0.0003271 -0.0003271  0.9999999 
    4   703     3  1.7193966  0.0006948  0.9999990  0.0014084 -0.0014084  0.9999990 
    4   703     4  1.7196492  0.0005667  0.9999999  0.0004619 -0.0004619  0.9999999 
    4   704     1  1.7111949  0.0006705  0.9999987  0.0016104 -0.0016104  0.9999987 
    4   704     2  1.7060371 -0.0008970  0.9999989  0.0014718 -0.0014718  0.9999989 
    4   704     3  1.7113830  0.0004641  0.9999998  0.0006731 -0.0006731  0.9999998 
    4   704     4  1.7062469 -0.0011005  0.9999999  0.0005221 -0.0005221  0.9999999 
    4   705     1  1.7117535  0.0004597  0.9999998  0.0005750 -0.0005750  0.9999998 
    4   705     2  1.7117391  0.0005161  0.9999989  0.0014715 -0.0014715  0.9999989 
    4   705     3  1.7068983 -0.0010011  0.9999999  0.0004973 -0.0004973  0.9999999 
    4   705     4  1.7066828 -0.0010042  0.9999990  0.0014033 -0.0014033  0.9999990 
    4   706     1  1.7017969 -0.0010875  0.9999998  0.0006155 -0.0006155  0.9999998 
    4   706     2  1.7055557  0.0001140  0.9999996  0.0008428 -0.0008428  0.9999996 
    4   706     3  1.7013068 -0.0008189  0.9999992  0.0013017 -0.0013017  0.9999992 
    4   706     4  1.7053534  0.0004690  0.9999988  0.0015372 -0.0015372  0.9999988 
    4   707     1  1.6997795 -0.0009177  0.9999990  0.0014193 -0.0014193  0.9999990 
    4   707     2  1.7003147 -0.0011221  0.9999998  0.0006186 -0.0006186  0.9999998 
    4   707     3  1.7044596  0.0005551  0.9999986  0.0016702 -0.0016702  0.9999986 
    4   707     4  1.7047200  0.0002611  0.9999996  0.0008474 -0.0008474  0.9999996 
    4   708     1  1.6966972  0.0005309  0.9999984  0.0018131 -0.0018131  0.9999984 
    4   708     2  1.6927733 -0.0010068  0.9999991  0.0013060 -0.0013060  0.9999991 
    4   708     3  1.6972949 -0.0001639  0.9999992  0.0012554 -0.0012554  0.9999992 
    4   708     4  1.6941361 -0.0013790  0.9999996  0.0008631 -0.0008631  0.9999996 
    4   709     1  1.6992285 -0.0001013  0.9999993  0.0011629 -0.0011629  0.9999993 
    4   709     2  1.6988200  0.0003008  0.9999987  0.0016411 -0.0016411  0.9999987 
    4   709     3  1.6964217 -0.0011257  0.9999996  0.0008541 -0.0008541  0.9999996 
    4   709     4  1.6958030 -0.0007496  0.9999991  0.0013571 -0.0013571  0.9999991 
    4   710     1  1.6992906 -0.0012166  0.9999998  0.0006264 -0.0006264  0.9999998 
    4   710     2  1.7039018  0.0002340  0.9999996  0.0008661 -0.0008661  0.9999996 
    4   710     3  1.6989004 -0.0008708  0.9999989  0.0014533 -0.0014533  0.9999989 
    4   710     4  1.7036947  0.0006441  0.9999985  0.0017148 -0.0017148  0.9999985 
    4   711     1  1.6977117 -0.0010224  0.9999986  0.0016438 -0.0016438  0.9999986 
    4   711     2  1.6979378 -0.0012308  0.9999997  0.0007108 -0.0007108  0.9999997 
    4   711     3  1.7028344  0.0005505  0.9999983  0.0018369 -0.0018369  0.9999983 
    4   711     4  1.7030491  0.0003346  0.9999996  0.0008892 -0.0008892  0.9999996 
    4   712     1  1.6945937  0.0005249  0.9999979  0.0020649 -0.0020649  0.9999979 
    4   712     2  1.6894062 -0.0010730  0.9999983  0.0018617 -0.0018617  0.9999983 
    4   712     3  1.6947921  0.0002291  0.9999994  0.0011006 -0.0011006  0.9999994 
    4   712     4  1.6895636 -0.0013810  0.9999996  0.0008974 -0.0008974  0.9999996 
    4   713     1  1.6956729  0.0003204  0.9999994  0.0010540 -0.0010540  0.9999994 
    4   713     2  1.6952174  0.0006996  0.9999979  0.0020669 -0.0020669  0.9999979 
    4   713     3  1.6902787 -0.0013815  0.9999997  0.0007611 -0.0007611  0.9999997 
    4   713     4  1.6901060 -0.0009663  0.9999986  0.0016830 -0.0016830  0.9999986 
    4   714     1  1.6939708  0.0002233  0.9999993  0.0011647 -0.0011647  0.9999993 
    4   714     2  1.6937914  0.0004768  0.9999978  0.0021144 -0.0021144  0.9999978 
    4   714     3  1.6888218 -0.0013558  0.9999995  0.0009800 -0.0009800  0.9999995 
    4   714     4  1.6886517 -0.0010996  0.9999981  0.0019295 -0.0019295  0.9999981 
    4   715     1  1.6971134 -0.0012288  0.9999997  0.0007836 -0.0007836  0.9999997 
    4   715     2  1.7022793  0.0003511  0.9999995  0.0009559 -0.0009559  0.9999995 
    4   715     3  1.6969212 -0.0009997  0.9999985  0.0017309 -0.0017309  0.9999985 
    4   715     4  1.7020847  0.0005795  0.9999982  0.0019038 -0.0019038  0.9999982 
    4   716     1  1.6961424 -0.0010139  0.9999984  0.0018030 -0.0018030  0.9999984 
    4   716     2  1.6963253 -0.0012280  0.9999996  0.0008475 -0.0008475  0.9999996 
    4   716     3  1.7013051  0.0005618  0.9999981  0.0019666 -0.0019666  0.9999981 
    4   716     4  1.7014866  0.0003474  0.9999995  0.0010111 -0.0010111  0.9999995 
    4   717     1  1.6930288  0.0004741  0.9999976  0.0021899 -0.0021899  0.9999976 
    4   717     2  1.6878903 -0.0011006  0.9999980  0.0020090 -0.0020090  0.9999980 
    4   717     3  1.6931969  0.0002171  0.9999992  0.0012358 -0.0012358  0.9999992 
    4   717     4  1.6880593 -0.0013579  0.9999994  0.0010534 -0.0010534  0.9999994 
    4   718     1  1.7105771  0.0004614  0.9999997  0.0007299 -0.0007299  0.9999997 
    4   718     2  1.7103627  0.0006183  0.9999986  0.0016737 -0.0016737  0.9999986 
    4   718     3  1.7054226 -0.0011054  0.9999998  0.0005871 -0.0005871  0.9999998 
    4   718     4  1.7052055 -0.0009490  0.9999988  0.0015314 -0.0015314  0.9999988 
    4   719     1  1.7136949 -0.0010063  0.9999999  0.0003804 -0.0003804  0.9999999 
    4   719     2  1.7188349  0.0005537  0.9999999  0.0005131 -0.0005131  0.9999999 
    4   719     3  1.7134773 -0.0008599  0.9999991  0.0013187 -0.0013187  0.9999991 
    4   719     4  1.7186164  0.0006998  0.9999989  0.0014515 -0.0014515  0.9999989 
    4   720     1  1.7126940 -0.0008826  0.9999990  0.0013790 -0.0013790  0.9999990 
    4   720     2  1.7128947 -0.0010077  0.9999999  0.0004318 -0.0004318  0.9999999 
    4   720     3  1.7178623  0.0006827  0.9999989  0.0015015 -0.0015015  0.9999989 
    4   720     4  1.7180547  0.0005549  0.9999998  0.0005526 -0.0005526  0.9999998 
    4   721     1  1.7095880  0.0006240  0.9999985  0.0017329 -0.0017329  0.9999985 
    4   721     2  1.7044186 -0.0009458  0.9999987  0.0015947 -0.0015947  0.9999987 
    4   721     3  1.7097820  0.0004644  0.9999997  0.0007796 -0.0007796  0.9999997 
    4   721     4  1.7046165 -0.0011042  0.9999998  0.0006420 -0.0006420  0.9999998 
    4   722     1  1.6924144  0.0002155  0.9999991  0.0013071 -0.0013071  0.9999991 
    4   722     2  1.6922468  0.0004641  0.9999974  0.0022648 -0.0022648  0.9999974 
    4   722     3  1.6872777 -0.0013576  0.9999994  0.0011289 -0.0011289  0.9999994 
    4   722     4  1.6871068 -0.0011096  0.9999978  0.0020873 -0.0020873  0.9999978 
    4   723     1  1.6955439 -0.0012254  0.9999996  0.0009135 -0.0009135  0.9999996 
    4   723     2  1.7007052  0.0003480  0.9999994  0.0010711 -0.0010711  0.9999994 
    4   723     3  1.6953629 -0.0010218  0.9999982  0.0018717 -0.0018717  0.9999982 
    4   723     4  1.7005289  0.0005528  0.9999979  0.0020293 -0.0020293  0.9999979 
    4   724     1  1.6945761 -0.0010312  0.9999981  0.0019457 -0.0019457  0.9999981 
    4   724     2  1.6947535 -0.0012270  0.9999995  0.0009764 -0.0009764  0.9999995 
    4   724     3  1.6997515  0.0005444  0.9999978  0.0020978 -0.0020978  0.9999978 
    4   724     4  1.6999232  0.0003472  0.9999994  0.0011292 -0.0011292  0.9999994 
    4   725     1  1.6914576  0.0004561  0.9999973  0.0023440 -0.0023440  0.9999973 
    4   725     2  1.6863095 -0.0011184  0.9999976  0.0021708 -0.0021708  0.9999976 
    4   725     3  1.6916219  0.0002137  0.9999991  0.0013762 -0.0013762  0.9999991 
    4   725     4  1.6864793 -0.0013595  0.9999993  0.0012023 -0.0012023  0.9999993 
    4   726     1  1.7090107  0.0004629  0.9999997  0.0008308 -0.0008308  0.9999997 
    4   726     2  1.7088274  0.0006133  0.9999984  0.0017888 -0.0017888  0.9999984 
    4   726     3  1.7038355 -0.0011070  0.9999998  0.0006986 -0.0006986  0.9999998 
    4   726     4  1.7036441 -0.0009588  0.9999986  0.0016573 -0.0016573  0.9999986 
    4   727     1  1.7121260 -0.0010065  0.9999999  0.0004805 -0.0004805  0.9999999 
    4   727     2  1.7173121  0.0005617  0.9999998  0.0005928 -0.0005928  0.9999998 
    4   727     3  1.7119363 -0.0008949  0.9999990  0.0014372 -0.0014372  0.9999990 
    4   727     4  1.7171355  0.0006773  0.9999988  0.0015503 -0.0015503  0.9999988 
    4   728     1  1.7111857 -0.0009057  0.9999989  0.0014955 -0.0014955  0.9999989 
    4   728     2  1.7113700 -0.0010080  0.9999999  0.0005261 -0.0005261  0.9999999 
    4   728     3  1.7164132  0.0006734  0.9999987  0.0016020 -0.0016020  0.9999987 
    4   728     4  1.7165825  0.0005668  0.9999998  0.0006330 -0.0006330  0.9999998 
    4   729     1  1.7080675  0.0006129  0.9999983  0.0018494 -0.0018494  0.9999983 
    4   729     2  1.7028696 -0.0009626  0.9999985  0.0017213 -0.0017213  0.9999985 
    4   729     3  1.7082440  0.0004658  0.9999996  0.0008805 -0.0008805  0.9999996 
    4   729     4  1.7030546 -0.0011074  0.9999997  0.0007519 -0.0007519  0.9999997 
    4   730     1  1.6908145  0.0002163  0.9999990  0.0014469 -0.0014469  0.9999990 
    4   730     2  1.6906399  0.0004442  0.9999971  0.0024224 -0.0024224  0.9999971 
    4   730     3  1.6856665 -0.0013565  0.9999992  0.0012786 -0.0012786  0.9999992 
    4   730     4  1.6854905 -0.0011287  0.9999975  0.0022546 -0.0022546  0.9999975 
    4   731     1  1.6939548 -0.0012250  0.9999995  0.0010424 -0.0010424  0.9999995 
    4   731     2  1.6991293  0.0003492  0.9999993  0.0011908 -0.0011908  0.9999993 
    4   731     3  1.6937662 -0.0010421  0.9999980  0.0020189 -0.0020189  0.9999980 
    4   731     4  1.6989461  0.0005333  0.9999977  0.0021664 -0.0021664  0.9999977 
    4   732     1  1.6929331 -0.0010510  0.9999978  0.0020943 -0.0020943  0.9999978 
    4   732     2  1.6931261 -0.0012262  0.9999994  0.0011078 -0.0011078  0.9999994 
    4   732     3  1.6981125  0.0005232  0.9999975  0.0022383 -0.0022383  0.9999975 
    4   732     4  1.6983061  0.0003487  0.9999992  0.0012537 -0.0012537  0.9999992 
    4   733     1  1.6898044  0.0004334  0.9999969  0.0025029 -0.0025029  0.9999969 
    4   733     2  1.6846532 -0.0011379  0.9999973  0.0023411 -0.0023411  0.9999973 
    4   733     3  1.6899822  0.0002176  0.9999988  0.0015174 -0.0015174  0.9999988 
    4   733     4  1.6848312 -0.0013539  0.9999991  0.0013553 -0.0013553  0.9999991 
    4   734     1  1.7074702  0.0004662  0.9999996  0.0009344 -0.0009344  0.9999996 
    4   734     2  1.7072827  0.0006037  0.9999982  0.0019110 -0.0019110  0.9999982 
    4   734     3  1.7022717 -0.0011091  0.9999997  0.0008076 -0.0008076  0.9999997 
    4   734     4  1.7020754 -0.0009737  0.9999984  0.0017863 -0.0017863  0.9999984 
    4   735     1  1.7106109 -0.0010081  0.9999998  0.0005721 -0.0005721  0.9999998 
    4   735     2  1.7158445  0.0005724  0.9999998  0.0006768 -0.0006768  0.9999998 
    4   735     3  1.7104147 -0.0009168  0.9999988  0.0015533 -0.0015533  0.9999988 
    4   735     4  1.7156652  0.0006684  0.9999986  0.0016561 -0.0016561  0.9999986 
    4   736     1  1.7096040 -0.0009242  0.9999987  0.0016111 -0.0016111  0.9999987 
    4   736     2  1.7098192 -0.0010111  0.9999998  0.0006187 -0.0006187  0.9999998 
    4   736     3  1.7148691  0.0006654  0.9999985  0.0017148 -0.0017148  0.9999985 
    4   736     4  1.7150684  0.0005744  0.9999997  0.0007259 -0.0007259  0.9999997 
    4   737     1  1.7064566  0.0005986  0.9999980  0.0019767 -0.0019767  0.9999980 
    4   737     2  1.7012492 -0.0009789  0.9999983  0.0018514 -0.0018514  0.9999983 
    4   737     3  1.7066602  0.0004648  0.9999995  0.0009915 -0.0009915  0.9999995 
    4   737     4  1.7014573 -0.0011120  0.9999996  0.0008632 -0.0008632  0.9999996 
    4   738     1  1.6891223  0.0002235  0.9999987  0.0015896 -0.0015896  0.9999987 
    4   738     2  1.6889154  0.0004106  0.9999967  0.0025807 -0.0025807  0.9999967 
    4   738     3  1.6839779 -0.0013429  0.9999990  0.0014368 -0.0014368  0.9999990 
    4   738     4  1.6837849 -0.0011515  0.9999971  0.0024280 -0.0024280  0.9999971 
    4   739     1  1.6922762 -0.0012215  0.9999993  0.0011778 -0.0011778  0.9999993 
    4   739     2  1.6974400  0.0003480  0.9999991  0.0013223 -0.0013223  0.9999991 
    4   739     3  1.6920504 -0.0010630  0.9999976  0.0021683 -0.0021683  0.9999976 
    4   739     4  1.6972049  0.0005029  0.9999973  0.0023096 -0.0023096  0.9999973 
    4   740     1  1.6911280 -0.0010665  0.9999975  0.0022409 -0.0022409  0.9999975 
    4   740     2  1.6913660 -0.0012226  0.9999992  0.0012492 -0.0012492  0.9999992 
    4   740     3  1.6962287  0.0004836  0.9999972  0.0023830 -0.0023830  0.9999972 
    4   740     4  1.6964997  0.0003386  0.9999990  0.0013966 -0.0013966  0.9999990 
    4   741     1  1.6880076  0.0003891  0.9999965  0.0026577 -0.0026577  0.9999965 
    4   741     2  1.6829121 -0.0011591  0.9999968  0.0025163 -0.0025163  0.9999968 
    4   741     3  1.6882205  0.0002265  0.9999986  0.0016617 -0.0016617  0.9999986 
    4   741     4  1.6830943 -0.0013307  0.9999988  0.0015215 -0.0015215  0.9999988 
    4   742     1  1.7057927  0.0004610  0.9999994  0.0010575 -0.0010575  0.9999994 
    4   742     2  1.7055415  0.0005832  0.9999979  0.0020454 -0.0020454  0.9999979 
    4   742     3  1.7006075 -0.0011117  0.9999996  0.0009241 -0.0009241  0.9999996 
    4   742     4  1.7003553 -0.0009885  0.9999982  0.0019174 -0.0019174  0.9999982 
    4   743     1  1.7089773 -0.0010111  0.9999998  0.0006690 -0.0006690  0.9999998 
    4   743     2  1.7142243  0.0005752  0.9999997  0.0007842 -0.0007842  0.9999997 
    4   743     3  1.7087120 -0.0009329  0.9999986  0.0016702 -0.0016702  0.9999986 
    4   743     4  1.7139770  0.0006576  0.9999984  0.0017791 -0.0017791  0.9999984 
    4   744     1  1.7077026 -0.0009304  0.9999985  0.0017285 -0.0017285  0.9999985 
    4   744     2  1.7080335 -0.0010144  0.9999997  0.0007239 -0.0007239  0.9999997 
    4   744     3  1.7129456  0.0006569  0.9999983  0.0018522 -0.0018522  0.9999983 
    4   744     4  1.7132567  0.0005690  0.9999996  0.0008578 -0.0008578  0.9999996 
    4   745     1  1.7045093  0.0005706  0.9999978  0.0021204 -0.0021204  0.9999978 
    4   745     2  1.6993810 -0.0009868  0.9999980  0.0019817 -0.0019817  0.9999980 
    4   745     3  1.7048187  0.0004467  0.9999994  0.0011373 -0.0011373  0.9999994 
    4   745     4  1.6996779 -0.0011167  0.9999995  0.0009889 -0.0009889  0.9999995 
    4   746     1  1.6872962  0.0002381  0.9999985  0.0017324 -0.0017324  0.9999985 
    4   746     2  1.6870499  0.0003444  0.9999963  0.0027237 -0.0027237  0.9999963 
    4   746     3  1.6822197 -0.0012978  0.9999987  0.0016177 -0.0016177  0.9999987 
    4   746     4  1.6820588 -0.0011667  0.9999966  0.0026044 -0.0026044  0.9999966 
    4   747     1  1.6904330 -0.0012107  0.9999991  0.0013280 -0.0013280  0.9999991 
    4   747     2  1.6954702  0.0003244  0.9999989  0.0014849 -0.0014849  0.9999989 
    4   747     3  1.6901429 -0.0010655  0.9999973  0.0023061 -0.0023061  0.9999973 
    4   747     4  1.6951006  0.0004431  0.9999970  0.0024516 -0.0024516  0.9999970 
    4   748     1  1.6891233 -0.0010300  0.9999972  0.0023508 -0.0023508  0.9999972 
    4   748     2  1.6894316 -0.0012285  0.9999990  0.0014087 -0.0014087  0.9999990 
    4   748     3  1.6937584  0.0003911  0.9999968  0.0025172 -0.0025172  0.9999968 
    4   748     4  1.6942655  0.0002598  0.9999987  0.0016024 -0.0016024  0.9999987 
    4   749     1  1.6861396  0.0002832  0.9999962  0.0027683 -0.0027683  0.9999962 
    4   749     2  1.6813839 -0.0011483  0.9999964  0.0026935 -0.0026935  0.9999964 
    4   749     3  1.6863651  0.0002635  0.9999984  0.0017923 -0.0017923  0.9999984 
    4   749     4  1.6814023 -0.0012287  0.9999985  0.0017333 -0.0017333  0.9999985 
    4   750     1  1.7036741  0.0004185  0.9999992  0.0012482 -0.0012482  0.9999992 
    4   750     2  1.7032454  0.0005451  0.9999976  0.0022046 -0.0022046  0.9999976 
    4   750     3  1.6986665 -0.0011151  0.9999994  0.0010688 -0.0010688  0.9999994 
    4   750     4  1.6982586 -0.0009772  0.9999979  0.0020438 -0.0020438  0.9999979 
    4   751     1  1.7069476 -0.0010085  0.9999997  0.0007881 -0.0007881  0.9999997 
    4   751     2  1.7120958  0.0005615  0.9999995  0.0009551 -0.0009551  0.9999995 
    4   751     3  1.7064840 -0.0009236  0.9999984  0.0017875 -0.0017875  0.9999984 
    4   751     4  1.7116715  0.0006541  0.9999981  0.0019374 -0.0019374  0.9999981 
    4   752     1  1.7048921 -0.0009117  0.9999983  0.0018290 -0.0018290  0.9999983 
    4   752     2  1.7055573 -0.0010577  0.9999996  0.0008455 -0.0008455  0.9999996 
    4   752     3  1.7100435  0.0006779  0.9999979  0.0020391 -0.0020391  0.9999979 
    4   752     4  1.7105988  0.0005078  0.9999994  0.0010784 -0.0010784  0.9999994 
    4   753     1  1.7015627  0.0005227  0.9999973  0.0023047 -0.0023047  0.9999973 
    4   753     2  1.6969226 -0.0009145  0.9999978  0.0021008 -0.0021008  0.9999978 
    4   753     3  1.7021670  0.0003870  0.9999990  0.0014284 -0.0014284  0.9999990 
    4   753     4  1.6975126 -0.0010697  0.9999993  0.0011828 -0.0011828  0.9999993 
    4   754     1  1.6853487  0.0002043  0.9999984  0.0018072 -0.0018072  0.9999984 
    4   754     2  1.6852791  0.0001204  0.9999962  0.0027439 -0.0027439  0.9999962 
    4   754     3  1.6809159 -0.0011385  0.9999980  0.0020197 -0.0020197  0.9999980 
    4   754     4  1.6814011 -0.0010446  0.9999961  0.0027796 -0.0027796  0.9999961 
    4   755     1  1.6887846 -0.0009468  0.9999988  0.0015260 -0.0015260  0.9999988 
    4   755     2  1.6925741  0.0002813  0.9999982  0.0018802 -0.0018802  0.9999982 
    4   755     3  1.6882712 -0.0008522  0.9999973  0.0023391 -0.0023391  0.9999973 
    4   755     4  1.6916778  0.0002092  0.9999968  0.0025186 -0.0025186  0.9999968 
    4   756     1  1.6868585 -0.0000632  0.9999972  0.0023647 -0.0023647  0.9999972 
    4   756     2  1.6851068 -0.0013708  0.9999959  0.0028578 -0.0028578  0.9999959 
    4   756     3  1.6858398  0.0006175  0.9999970  0.0024355 -0.0024355  0.9999970 
    4   756     4  1.6848226 -0.0005245  0.9999961  0.0027794 -0.0027794  0.9999961 
    4   757     1  1.6952504  0.0008834  0.9999963  0.0027036 -0.0027036  0.9999963 
    4   757     2  1.6902333 -0.0010856  0.9999979  0.0020523 -0.0020523  0.9999979 
    4   757     3  1.6962315 -0.0000349  0.9999981  0.0019355 -0.0019355  0.9999981 
    4   757     4  1.6921226 -0.0016082  0.9999990  0.0014298 -0.0014298  0.9999990 
    4   758     1  1.6996815  0.0000359  0.9999984  0.0017756 -0.0017756  0.9999984 
    4   758     2  1.6989558  0.0005228  0.9999970  0.0024437 -0.0024437  0.9999970 
    4   758     3  1.6959628 -0.0013139  0.9999991  0.0013709 -0.0013709  0.9999991 
    4   758     4  1.6949847 -0.0008473  0.9999978  0.0020820 -0.0020820  0.9999978 
    4   759     1  1.7035799 -0.0012538  0.9999996  0.0008912 -0.0008912  0.9999996 
    4   759     2  1.7086550  0.0003727  0.9999993  0.0012073 -0.0012073  0.9999993 
    4   759     3  1.7025987 -0.0009874  0.9999983  0.0018644 -0.0018644  0.9999983 
    4   759     4  1.7079673  0.0007217  0.9999976  0.0021791 -0.0021791  0.9999976 
    4   760     1  1.6996127 -0.0010893  0.9999979  0.0020421 -0.0020421  0.9999979 
    4   760     2  1.7006795 -0.0012294  0.9999996  0.0009358 -0.0009358  0.9999996 
    4   760     3  1.7056415  0.0008085  0.9999972  0.0023752 -0.0023752  0.9999972 
    4   760     4  1.7064717  0.0005894  0.9999992  0.0012435 -0.0012435  0.9999992 
    4   761     1  1.6983810 -0.0012656  0.9999995  0.0010077 -0.0010077  0.9999995 
    4   761     2  1.7043321  0.0005923  0.9999992  0.0012919 -0.0012919  0.9999992 
    4   761     3  1.6975716 -0.0009743  0.9999977  0.0021380 -0.0021380  0.9999977 
    4   761     4  1.7036738  0.0009438  0.9999970  0.0024582 -0.0024582  0.9999970 
    4   762     1  1.6951933 -0.0012285  0.9999970  0.0024496 -0.0024496  0.9999970 
    4   762     2  1.6957498 -0.0012687  0.9999993  0.0011621 -0.0011621  0.9999993 
    4   762     3  1.7018343  0.0007868  0.9999965  0.0026454 -0.0026454  0.9999965 
    4   762     4  1.7024264  0.0007527  0.9999991  0.0013261 -0.0013261  0.9999991 
    4   763     1  1.6909612  0.0006948  0.9999952  0.0031103 -0.0031103  0.9999952 
    4   763     2  1.6841119 -0.0013730  0.9999956  0.0029646 -0.0029646  0.9999956 
    4   763     3  1.6915175  0.0006885  0.9999985  0.0017388 -0.0017388  0.9999985 
    4   763     4  1.6845647 -0.0014095  0.9999987  0.0016018 -0.0016018  0.9999987 
    4   764     1  1.6933999  0.0008036  0.9999986  0.0016691 -0.0016691  0.9999986 
    4   764     2  1.6924379  0.0010308  0.9999951  0.0031190 -0.0031190  0.9999951 
    4   764     3  1.6861994 -0.0014224  0.9999991  0.0013630 -0.0013630  0.9999991 
    4   764     4  1.6857231 -0.0010995  0.9999964  0.0026767 -0.0026767  0.9999964 
    4   765     1  1.6744737 -0.0018790  0.9999943  0.0033844 -0.0033844  0.9999943 
    4   765     2  1.6738350 -0.0010371  0.9999977  0.0021548 -0.0021548  0.9999977 
    4   765     3  1.6817220  0.0004961  0.9999959  0.0028583 -0.0028583  0.9999959 
    4   765     4  1.6797462  0.0008717  0.9999985  0.0017599 -0.0017599  0.9999985 
    4   766     1  1.6704231  0.0002557  0.9999932  0.0036783 -0.0036783  0.9999932 
    4   766     2  1.6637624 -0.0017435  0.9999931  0.0037183 -0.0037183  0.9999931 
    4   766     3  1.6700924  0.0001990  0.9999971  0.0023954 -0.0023954  0.9999971 
    4   766     4  1.6637291 -0.0017105  0.9999971  0.0024230 -0.0024230  0.9999971 
    4   767     1  1.6700290  0.0002694  0.9999974  0.0022935 -0.0022935  0.9999974 
    4   767     2  1.6703522  0.0001687  0.9999940  0.0034749 -0.0034749  0.9999940 
    4   767     3  1.6642455 -0.0014685  0.9999972  0.0023570 -0.0023570  0.9999972 
    4   767     4  1.6642268 -0.0016681  0.9999938  0.0035203 -0.0035203  0.9999938 
    4   768     1  1.6730764 -0.0012438  0.9999975  0.0022304 -0.0022304  0.9999975 
    4   768     2  1.6781187  0.0003209  0.9999980  0.0019956 -0.0019956  0.9999980 
    4   768     3  1.6734719 -0.0014608  0.9999949  0.0032028 -0.0032028  0.9999949 
    4   768     4  1.6788107  0.0001638  0.9999954  0.0030479 -0.0030479  0.9999954 
    4   769     1  1.6743502 -0.0017671  0.9999981  0.0019637 -0.0019637  0.9999981 
    4   769     2  1.6822429  0.0005998  0.9999981  0.0019507 -0.0019507  0.9999981 
    4   769     3  1.6743036 -0.0018975  0.9999936  0.0035834 -0.0035834  0.9999936 
    4   769     4  1.6817861  0.0003584  0.9999942  0.0034069 -0.0034069  0.9999942 
    4   770     1  1.6729622 -0.0016005  0.9999940  0.0034594 -0.0034594  0.9999940 
    4   770     2  1.6732933 -0.0015456  0.9999979  0.0020673 -0.0020673  0.9999979 
    4   770     3  1.6798889  0.0004793  0.9999937  0.0035359 -0.0035359  0.9999937 
    4   770     4  1.6803161  0.0005635  0.9999977  0.0021463 -0.0021463  0.9999977 
    4   771     1  1.6688321  0.0003128  0.9999920  0.0039954 -0.0039954  0.9999920 
    4   771     2  1.6618424 -0.0017847  0.9999922  0.0039605 -0.0039605  0.9999922 
    4   771     3  1.6691259  0.0003664  0.9999966  0.0026085 -0.0026085  0.9999966 
    4   771     4  1.6621417 -0.0017303  0.9999968  0.0025490 -0.0025490  0.9999968 
    4   772     1  1.6697939  0.0003621  0.9999971  0.0024010 -0.0024010  0.9999971 
    4   772     2  1.6697885  0.0000985  0.9999930  0.0037306 -0.0037306  0.9999930 
    4   772     3  1.6631319 -0.0016338  0.9999970  0.0024500 -0.0024500  0.9999970 
    4   772     4  1.6629148 -0.0019656  0.9999928  0.0038075 -0.0038075  0.9999928 
    4   773     1  1.6677789  0.0003735  0.9999962  0.0027489 -0.0027489  0.9999962 
    4   773     2  1.6674133  0.0002650  0.9999915  0.0041307 -0.0041307  0.9999915 
    4   773     3  1.6608712 -0.0016989  0.9999964  0.0026996 -0.0026996  0.9999964 
    4   773     4  1.6605059 -0.0018070  0.9999917  0.0040790 -0.0040790  0.9999917 
    4   774     1  1.6719604 -0.0015037  0.9999975  0.0022166 -0.0022166  0.9999975 
    4   774     2  1.6788504  0.0005644  0.9999974  0.0022790 -0.0022790  0.9999974 
    4   774     3  1.6715897 -0.0015892  0.9999936  0.0035784 -0.0035784  0.9999936 
    4   774     4  1.6784398  0.0004667  0.9999934  0.0036436 -0.0036436  0.9999934 
    4   775     1  1.6702675 -0.0016116  0.9999931  0.0037213 -0.0037213  0.9999931 
    4   775     2  1.6705720 -0.0014692  0.9999972  0.0023706 -0.0023706  0.9999972 
    4   775     3  1.6770884  0.0004328  0.9999930  0.0037522 -0.0037522  0.9999930 
    4   775     4  1.6774308  0.0005873  0.9999971  0.0023901 -0.0023901  0.9999971 
    4   776     1  1.6661324  0.0002401  0.9999909  0.0042656 -0.0042656  0.9999909 
    4   776     2  1.6591961 -0.0018389  0.9999910  0.0042440 -0.0042440  0.9999910 
    4   776     3  1.6664365  0.0003944  0.9999959  0.0028758 -0.0028758  0.9999959 
    4   776     4  1.6595090 -0.0016827  0.9999959  0.0028654 -0.0028654  0.9999959 
    4   777     1  1.6898445  0.0007069  0.9999983  0.0018273 -0.0018273  0.9999983 
    4   777     2  1.6893639  0.0006199  0.9999950  0.0031742 -0.0031742  0.9999950 
    4   777     3  1.6830193 -0.0013438  0.9999985  0.0017433 -0.0017433  0.9999985 
    4   777     4  1.6825907 -0.0014151  0.9999953  0.0030814 -0.0030814  0.9999953 
    4   778     1  1.6940178 -0.0012362  0.9999992  0.0012841 -0.0012841  0.9999992 
    4   778     2  1.7007528  0.0007912  0.9999990  0.0013942 -0.0013942  0.9999990 
    4   778     3  1.6935373 -0.0012752  0.9999966  0.0025950 -0.0025950  0.9999966 
    4   778     4  1.7002519  0.0007464  0.9999963  0.0027134 -0.0027134  0.9999963 
    4   779     1  1.6920215 -0.0012935  0.9999964  0.0026977 -0.0026977  0.9999964 
    4   779     2  1.6924584 -0.0012118  0.9999990  0.0013887 -0.0013887  0.9999990 
    4   779     3  1.6987060  0.0007144  0.9999961  0.0027837 -0.0027837  0.9999961 
    4   779     4  1.6991861  0.0008094  0.9999989  0.0014737 -0.0014737  0.9999989 
    4   780     1  1.6879091  0.0005884  0.9999947  0.0032535 -0.0032535  0.9999947 
    4   780     2  1.6811883 -0.0014268  0.9999949  0.0032012 -0.0032012  0.9999949 
    4   780     3  1.6883338  0.0007324  0.9999982  0.0019171 -0.0019171  0.9999982 
    4   780     4  1.6815498 -0.0013023  0.9999982  0.0018727 -0.0018727  0.9999982 
    4   781     1  1.6652417  0.0004552  0.9999956  0.0029814 -0.0029814  0.9999956 
    4   781     2  1.6650279  0.0001998  0.9999904  0.0043804 -0.0043804  0.9999904 
    4   781     3  1.6582489 -0.0016451  0.9999954  0.0030461 -0.0030461  0.9999954 
    4   781     4  1.6580134 -0.0019036  0.9999902  0.0044214 -0.0044214  0.9999902 
    4   782     1  1.6693256 -0.0014160  0.9999968  0.0025453 -0.0025453  0.9999968 
    4   782     2  1.6761502  0.0006328  0.9999969  0.0024938 -0.0024938  0.9999969 
    4   782     3  1.6691172 -0.0016441  0.9999925  0.0038711 -0.0038711  0.9999925 
    4   782     4  1.6758890  0.0003857  0.9999926  0.0038427 -0.0038427  0.9999926 
    4   783     1  1.6684126 -0.0016780  0.9999919  0.0040326 -0.0040326  0.9999919 
    4   783     2  1.6683328 -0.0013806  0.9999962  0.0027523 -0.0027523  0.9999962 
    4   783     3  1.6750944  0.0003377  0.9999924  0.0039069 -0.0039069  0.9999924 
    4   783     4  1.6750705  0.0006661  0.9999967  0.0025693 -0.0025693  0.9999967 
    4   784     1  1.6644067  0.0001957  0.9999901  0.0044568 -0.0044568  0.9999901 
    4   784     2  1.6571266 -0.0020014  0.9999894  0.0046018 -0.0046018  0.9999894 
    4   784     3  1.6643520  0.0005670  0.9999954  0.0030262 -0.0030262  0.9999954 
    4   784     4  1.6571957 -0.0016026  0.9999949  0.0032044 -0.0032044  0.9999949 
    4   785     1  1.6869086  0.0007629  0.9999980  0.0020103 -0.0020103  0.9999980 
    4   785     2  1.6864980  0.0005359  0.9999945  0.0033219 -0.0033219  0.9999945 
    4   785     3  1.6801974 -0.0012487  0.9999980  0.0020131 -0.0020131  0.9999980 
    4   785     4  1.6799036 -0.0014395  0.9999945  0.0033131 -0.0033131  0.9999945 
    4   786     1  1.6909958 -0.0011776  0.9999989  0.0014940 -0.0014940  0.9999989 
    4   786     2  1.6976379  0.0008164  0.9999988  0.0015751 -0.0015751  0.9999988 
    4   786     3  1.6905495 -0.0012904  0.9999961  0.0027794 -0.0027794  0.9999961 
    4   786     4  1.6970915  0.0006730  0.9999959  0.0028517 -0.0028517  0.9999959 
    4   787     1  1.6890885 -0.0012342  0.9999960  0.0028263 -0.0028263  0.9999960 
    4   787     2  1.6895518 -0.0011755  0.9999987  0.0015947 -0.0015947  0.9999987 
    4   787     3  1.6952278  0.0006123  0.9999957  0.0029205 -0.0029205  0.9999957 
    4   787     4  1.6959491  0.0007505  0.9999985  0.0017170 -0.0017170  0.9999985 
    4   788     1  1.6851898  0.0004730  0.9999943  0.0033632 -0.0033632  0.9999943 
    4   788     2  1.6789285 -0.0014048  0.9999942  0.0034158 -0.0034158  0.9999942 
    4   788     3  1.6855533  0.0008156  0.9999978  0.0020903 -0.0020903  0.9999978 
    4   788     4  1.6790022 -0.0011543  0.9999976  0.0021721 -0.0021721  0.9999976 
    4   789     1  1.6640619  0.0009326  0.9999955  0.0029964 -0.0029964  0.9999955 
    4   789     2  1.6644665  0.0003032  0.9999900  0.0044697 -0.0044697  0.9999900 
    4   789     3  1.6565140 -0.0014040  0.9999945  0.0033246 -0.0033246  0.9999945 
    4   789     4  1.6565197 -0.0021439  0.9999885  0.0047902 -0.0047902  0.9999885 
    4   790     1  1.6680865 -0.0012106  0.9999956  0.0029823 -0.0029823  0.9999956 
    4   790     2  1.6746341  0.0009243  0.9999968  0.0025125 -0.0025125  0.9999968 
    4   790     3  1.6685944 -0.0018171  0.9999912  0.0041854 -0.0041854  0.9999912 
    4   790     4  1.6755037  0.0003647  0.9999928  0.0038044 -0.0038044  0.9999928 
    4   791     1  1.6698432 -0.0023367  0.9999905  0.0043576 -0.0043576  0.9999905 
    4   791     2  1.6690324 -0.0009463  0.9999958  0.0028812 -0.0028812  0.9999958 
    4   791     3  1.6791194  0.0008891  0.9999940  0.0034754 -0.0034754  0.9999940 
    4   791     4  1.6766167  0.0016365  0.9999976  0.0022098 -0.0022098  0.9999976 
    4   792     1  1.6645639  0.0003543  0.9999890  0.0046894 -0.0046894  0.9999890 
    4   792     2  1.6560321 -0.0022648  0.9999875  0.0050053 -0.0050053  0.9999875 
    4   792     3  1.6641870  0.0007851  0.9999951  0.0031205 -0.0031205  0.9999951 
    4   792     4  1.6559846 -0.0017258  0.9999942  0.0034043 -0.0034043  0.9999942 
    4   793     1  1.6428582 -0.0024611  0.9999845  0.0055692 -0.0055692  0.9999845 
    4   793     2  1.6431878 -0.0019027  0.9999921  0.0039848 -0.0039848  0.9999921 
    4   793     3  1.6511162  0.0000377  0.9999855  0.0053759 -0.0053759  0.9999855 
    4   793     4  1.6512372  0.0005313  0.9999928  0.0038030 -0.0038030  0.9999928 
    4   794     1  1.6380330 -0.0002601  0.9999815  0.0060833 -0.0060833  0.9999815 
    4   794     2  1.6300249 -0.0026674  0.9999808  0.0062015 -0.0062015  0.9999808 
    4   794     3  1.6384556  0.0002412  0.9999898  0.0045171 -0.0045171  0.9999898 
    4   794     4  1.6305888 -0.0021236  0.9999893  0.0046308 -0.0046308  0.9999893 
    4   795     1  1.6398554  0.0001638  0.9999905  0.0043570 -0.0043570  0.9999905 
    4   795     2  1.6394836 -0.0002507  0.9999827  0.0058807 -0.0058807  0.9999827 
    4   795     3  1.6322556 -0.0021185  0.9999901  0.0044440 -0.0044440  0.9999901 
    4   795     4  1.6317435 -0.0025739  0.9999822  0.0059652 -0.0059652  0.9999822 
    4   796     1  1.6443923 -0.0018220  0.9999926  0.0038577 -0.0038577  0.9999926 
    4   796     2  1.6520670  0.0004968  0.9999932  0.0036945 -0.0036945  0.9999932 
    4   796     3  1.6441052 -0.0023206  0.9999856  0.0053677 -0.0053677  0.9999856 
    4   796     4  1.6519734  0.0000537  0.9999864  0.0052098 -0.0052098  0.9999864 
    4   797     1  1.6453037 -0.0022354  0.9999867  0.0051550 -0.0051550  0.9999867 
    4   797     2  1.6455855 -0.0018371  0.9999932  0.0036898 -0.0036898  0.9999932 
    4   797     3  1.6528460  0.0000300  0.9999872  0.0050611 -0.0050611  0.9999872 
    4   797     4  1.6529885  0.0003905  0.9999936  0.0035807 -0.0035807  0.9999936 
    4   798     1  1.6408446 -0.0002360  0.9999838  0.0056873 -0.0056873  0.9999838 
    4   798     2  1.6333558 -0.0024801  0.9999836  0.0057244 -0.0057244  0.9999836 
    4   798     3  1.6411855  0.0000772  0.9999912  0.0041938 -0.0041938  0.9999912 
    4   798     4  1.6338065 -0.0021357  0.9999910  0.0042395 -0.0042395  0.9999910 
    4   799     1  1.6425677 -0.0000115  0.9999918  0.0040428 -0.0040428  0.9999918 
    4   799     2  1.6421823 -0.0002370  0.9999848  0.0055048 -0.0055048  0.9999848 
    4   799     3  1.6353673 -0.0021694  0.9999918  0.0040391 -0.0040391  0.9999918 
    4   799     4  1.6349049 -0.0024168  0.9999849  0.0054905 -0.0054905  0.9999849 
    4   800     1  1.6468845 -0.0019095  0.9999938  0.0035268 -0.0035268  0.9999938 
    4   800     2  1.6540584  0.0002421  0.9999939  0.0034964 -0.0034964  0.9999939 
    4   800     3  1.6465472 -0.0021593  0.9999877  0.0049513 -0.0049513  0.9999877 
    4   800     4  1.6537926  0.0000117  0.9999878  0.0049370 -0.0049370  0.9999878 
    4   801     1  1.6213601 -0.0027558  0.9999802  0.0062851 -0.0062851  0.9999802 
    4   801     2  1.6219347 -0.0024980  0.9999885  0.0047961 -0.0047961  0.9999885 
    4   801     3  1.6288138 -0.0005230  0.9999801  0.0063147 -0.0063147  0.9999801 
    4   801     4  1.6292973 -0.0002917  0.9999884  0.0048205 -0.0048205  0.9999884 
    4   802     1  1.6167448 -0.0008724  0.9999760  0.0069251 -0.0069251  0.9999760 
    4   802     2  1.6094072 -0.0030735  0.9999766  0.0068475 -0.0068475  0.9999766 
    4   802     3  1.6173502 -0.0006941  0.9999852  0.0054361 -0.0054361  0.9999852 
    4   802     4  1.6100966 -0.0028705  0.9999856  0.0053613 -0.0053613  0.9999856 
    4   803     1  1.6192216 -0.0007227  0.9999865  0.0051952 -0.0051952  0.9999865 
    4   803     2  1.6186283 -0.0008447  0.9999778  0.0066588 -0.0066588  0.9999778 
    4   803     3  1.6120906 -0.0028653  0.9999870  0.0050969 -0.0050969  0.9999870 
    4   803     4  1.6114344 -0.0030059  0.9999785  0.0065571 -0.0065571  0.9999785 
    4   804     1  1.6237324 -0.0025098  0.9999896  0.0045623 -0.0045623  0.9999896 
    4   804     2  1.6309372 -0.0003488  0.9999893  0.0046207 -0.0046207  0.9999893 
    4   804     3  1.6231655 -0.0026930  0.9999819  0.0060216 -0.0060216  0.9999819 
    4   804     4  1.6304477 -0.0005093  0.9999815  0.0060866 -0.0060866  0.9999815 
    4   805     1  1.6201093 -0.0024785  0.9999873  0.0050469 -0.0050469  0.9999873 
    4   805     2  1.6276219 -0.0002282  0.9999873  0.0050377 -0.0050377  0.9999873 
    4   805     3  1.6194462 -0.0028440  0.9999785  0.0065589 -0.0065589  0.9999785 
    4   805     4  1.6270683 -0.0005616  0.9999785  0.0065520 -0.0065520  0.9999785 
    4   806     1  1.6174359 -0.0029205  0.9999765  0.0068497 -0.0068497  0.9999765 
    4   806     2  1.6181416 -0.0024731  0.9999859  0.0053092 -0.0053092  0.9999859 
    4   806     3  1.6252127 -0.0005915  0.9999768  0.0068125 -0.0068125  0.9999768 
    4   806     4  1.6258088 -0.0001762  0.9999861  0.0052721 -0.0052721  0.9999861 
    4   807     1  1.6126040 -0.0009837  0.9999718  0.0075043 -0.0075043  0.9999718 
    4   807     2  1.6049843 -0.0032654  0.9999721  0.0074734 -0.0074734  0.9999721 
    4   807     3  1.6133338 -0.0006630  0.9999822  0.0059718 -0.0059718  0.9999822 
    4   807     4  1.6058123 -0.0029159  0.9999823  0.0059418 -0.0059418  0.9999823 
    4   808     1  1.6154087 -0.0006644  0.9999838  0.0056957 -0.0056957  0.9999838 
    4   808     2  1.6147125 -0.0009314  0.9999741  0.0072009 -0.0072009  0.9999741 
    4   808     3  1.6080318 -0.0028752  0.9999841  0.0056458 -0.0056458  0.9999841 
    4   808     4  1.6072382 -0.0031708  0.9999744  0.0071494 -0.0071494  0.9999744 
    4   809     1  1.6004627 -0.0032742  0.9999841  0.0056304 -0.0056304  0.9999841 
    4   809     2  1.6075231 -0.0011450  0.9999833  0.0057775 -0.0057775  0.9999833 
    4   809     3  1.5997275 -0.0033515  0.9999749  0.0070828 -0.0070828  0.9999749 
    4   809     4  1.6068565 -0.0012023  0.9999739  0.0072289 -0.0072289  0.9999739 
    4   810     1  1.5974860 -0.0034167  0.9999727  0.0073938 -0.0073938  0.9999727 
    4   810     2  1.5982717 -0.0032984  0.9999825  0.0059195 -0.0059195  0.9999825 
    4   810     3  1.6047398 -0.0012324  0.9999716  0.0075310 -0.0075310  0.9999716 
    4   810     4  1.6054427 -0.0011384  0.9999817  0.0060566 -0.0060566  0.9999817 
    4   811     1  1.5927618 -0.0016399  0.9999670  0.0081240 -0.0081240  0.9999670 
    4   811     2  1.5856825 -0.0037821  0.9999685  0.0079388 -0.0079388  0.9999685 
    4   811     3  1.5935606 -0.0016071  0.9999777  0.0066716 -0.0066716  0.9999777 
    4   811     4  1.5865657 -0.0037248  0.9999790  0.0064847 -0.0064847  0.9999790 
    4   812     1  1.5958495 -0.0015989  0.9999798  0.0063581 -0.0063581  0.9999798 
    4   812     2  1.5951060 -0.0016062  0.9999697  0.0077893 -0.0077893  0.9999697 
    4   812     3  1.5889437 -0.0036907  0.9999810  0.0061703 -0.0061703  0.9999810 
    4   812     4  1.5881306 -0.0037178  0.9999711  0.0076054 -0.0076054  0.9999711 
    4   813     1  1.5959626 -0.0033170  0.9999806  0.0062254 -0.0062254  0.9999806 
    4   813     2  1.6032554 -0.0011243  0.9999799  0.0063450 -0.0063450  0.9999799 
    4   813     3  1.5950641 -0.0035165  0.9999702  0.0077173 -0.0077173  0.9999702 
    4   813     4  1.6024455 -0.0012976  0.9999693  0.0078380 -0.0078380  0.9999693 
    4   814     1  1.5925078 -0.0036290  0.9999675  0.0080565 -0.0080565  0.9999675 
    4   814     2  1.5934547 -0.0033808  0.9999787  0.0065242 -0.0065242  0.9999787 
    4   814     3  1.6000869 -0.0013534  0.9999667  0.0081624 -0.0081624  0.9999667 
    4   814     4  1.6009384 -0.0011333  0.9999780  0.0066279 -0.0066279  0.9999780 
    4   815     1  1.5875141 -0.0017592  0.9999610  0.0088263 -0.0088263  0.9999610 
    4   815     2  1.5801329 -0.0039838  0.9999625  0.0086631 -0.0086631  0.9999625 
    4   815     3  1.5884855 -0.0015911  0.9999732  0.0073144 -0.0073144  0.9999732 
    4   815     4  1.5812039 -0.0037863  0.9999744  0.0071539 -0.0071539  0.9999744 
    4   816     1  1.5911163 -0.0016070  0.9999755  0.0069959 -0.0069959  0.9999755 
    4   816     2  1.5902037 -0.0017079  0.9999642  0.0084643 -0.0084643  0.9999642 
    4   816     3  1.5840186 -0.0037522  0.9999768  0.0068182 -0.0068182  0.9999768 
    4   816     4  1.5830081 -0.0038818  0.9999657  0.0082869 -0.0082869  0.9999657 
    4   817     1  1.5722088 -0.0042570  0.9999725  0.0074126 -0.0074126  0.9999725 
    4   817     2  1.5790826 -0.0021547  0.9999706  0.0076717 -0.0076717  0.9999706 
    4   817     3  1.5711201 -0.0042525  0.9999610  0.0088353 -0.0088353  0.9999610 
    4   817     4  1.5780923 -0.0021219  0.9999587  0.0090925 -0.0090925  0.9999587 
    4   818     1  1.5679899 -0.0043553  0.9999571  0.0092578 -0.0092578  0.9999571 
    4   818     2  1.5691472 -0.0043289  0.9999695  0.0078101 -0.0078101  0.9999695 
    4   818     3  1.5750810 -0.0021902  0.9999547  0.0095162 -0.0095162  0.9999547 
    4   818     4  1.5761201 -0.0021988  0.9999675  0.0080661 -0.0080661  0.9999675 
    4   819     1  1.5628743 -0.0026740  0.9999484  0.0101562 -0.0101562  0.9999484 
    4   819     2  1.5561069 -0.0047897  0.9999520  0.0097934 -0.0097934  0.9999520 
    4   819     3  1.5639836 -0.0029031  0.9999615  0.0087792 -0.0087792  0.9999615 
    4   819     4  1.5573564 -0.0049791  0.9999646  0.0084149 -0.0084149  0.9999646 
    4   820     1  1.5672148 -0.0027401  0.9999653  0.0083273 -0.0083273  0.9999653 
    4   820     2  1.5661567 -0.0025847  0.9999531  0.0096898 -0.0096898  0.9999531 
    4   820     3  1.5606435 -0.0047828  0.9999680  0.0079966 -0.0079966  0.9999680 
    4   820     4  1.5594826 -0.0046553  0.9999562  0.0093642 -0.0093642  0.9999562 
    4   821     1  1.5692171 -0.0025143  0.9999569  0.0092793 -0.0092793  0.9999569 
    4   821     2  1.5625772 -0.0045665  0.9999597  0.0089737 -0.0089737  0.9999597 
    4   821     3  1.5701687 -0.0026673  0.9999687  0.0079119 -0.0079119  0.9999687 
    4   821     4  1.5636194 -0.0046947  0.9999711  0.0076018 -0.0076018  0.9999711 
    4   822     1  1.5728765 -0.0026393  0.9999717  0.0075225 -0.0075225  0.9999717 
    4   822     2  1.5720041 -0.0024868  0.9999606  0.0088772 -0.0088772  0.9999606 
    4   822     3  1.5663848 -0.0046435  0.9999739  0.0072291 -0.0072291  0.9999739 
    4   822     4  1.5654231 -0.0045150  0.9999631  0.0085899 -0.0085899  0.9999631 
    4   823     1  1.5775559 -0.0041601  0.9999775  0.0067027 -0.0067027  0.9999775 
    4   823     2  1.5842950 -0.0021014  0.9999759  0.0069466 -0.0069466  0.9999759 
    4   823     3  1.5766718 -0.0041039  0.9999671  0.0081060 -0.0081060  0.9999671 
    4   823     4  1.5834921 -0.0020230  0.9999652  0.0083437 -0.0083437  0.9999652 
    4   824     1  1.5740225 -0.0041616  0.9999642  0.0084624 -0.0084624  0.9999642 
    4   824     2  1.5749876 -0.0042059  0.9999752  0.0070452 -0.0070452  0.9999752 
    4   824     3  1.5809240 -0.0020531  0.9999620  0.0087134 -0.0087134  0.9999620 
    4   824     4  1.5817970 -0.0021234  0.9999734  0.0072999 -0.0072999  0.9999734 
    4   825     1  1.5553963 -0.0051898  0.9999701  0.0077341 -0.0077341  0.9999701 
    4   825     2  1.5616561 -0.0032205  0.9999672  0.0080965 -0.0080965  0.9999672 
    4   825     3  1.5543606 -0.0049493  0.9999591  0.0090392 -0.0090392  0.9999591 
    4   825     4  1.5607222 -0.0029524  0.9999558  0.0093983 -0.0093983  0.9999558 
    4   826     1  1.5513080 -0.0049922  0.9999554  0.0094486 -0.0094486  0.9999554 
    4   826     2  1.5523999 -0.0052443  0.9999670  0.0081287 -0.0081287  0.9999670 
    4   826     3  1.5577322 -0.0029682  0.9999517  0.0098267 -0.0098267  0.9999517 
    4   826     4  1.5587398 -0.0032428  0.9999638  0.0085099 -0.0085099  0.9999638 
    4   827     1  1.5463648 -0.0034383  0.9999465  0.0103435 -0.0103435  0.9999465 
    4   827     2  1.5401288 -0.0054385  0.9999509  0.0099113 -0.0099113  0.9999509 
    4   827     3  1.5474494 -0.0037834  0.9999590  0.0090543 -0.0090543  0.9999590 
    4   827     4  1.5412814 -0.0057609  0.9999628  0.0086295 -0.0086295  0.9999628 
    4   828     1  1.5505836 -0.0038225  0.9999626  0.0086523 -0.0086523  0.9999626 
    4   828     2  1.5495654 -0.0034484  0.9999510  0.0098984 -0.0098984  0.9999510 
    4   828     3  1.5446053 -0.0057490  0.9999662  0.0082259 -0.0082259  0.9999662 
    4   828     4  1.5434630 -0.0054120  0.9999552  0.0094675 -0.0094675  0.9999552 
    4   829     1  1.5572028 -0.0048958  0.9999627  0.0086424 -0.0086424  0.9999627 
    4   829     2  1.5581192 -0.0051564  0.9999730  0.0073445 -0.0073445  0.9999730 
    4   829     3  1.5635066 -0.0029259  0.9999597  0.0089773 -0.0089773  0.9999597 
    4   829     4  1.5643068 -0.0032164  0.9999704  0.0076879 -0.0076879  0.9999704 
    4   830     1  1.5526392 -0.0034261  0.9999554  0.0094406 -0.0094406  0.9999554 
    4   830     2  1.5466706 -0.0053440  0.9999593  0.0090272 -0.0090272  0.9999593 
    4   830     3  1.5535237 -0.0038475  0.9999662  0.0082274 -0.0082274  0.9999662 
    4   830     4  1.5477000 -0.0057263  0.9999695  0.0078113 -0.0078113  0.9999695 
    4   831     1  1.5561522 -0.0037755  0.9999696  0.0077977 -0.0077977  0.9999696 
    4   831     2  1.5554012 -0.0033721  0.9999596  0.0089934 -0.0089934  0.9999596 
    4   831     3  1.5504095 -0.0056096  0.9999725  0.0074188 -0.0074188  0.9999725 
    4   831     4  1.5495219 -0.0052387  0.9999628  0.0086264 -0.0086264  0.9999628 
    4   832     1  1.5605059 -0.0050696  0.9999756  0.0069814 -0.0069814  0.9999756 
    4   832     2  1.5666423 -0.0031615  0.9999734  0.0072874 -0.0072874  0.9999734 
    4   832     3  1.5597154 -0.0048286  0.9999658  0.0082738 -0.0082738  0.9999658 
    4   832     4  1.5659658 -0.0028927  0.9999633  0.0085656 -0.0085656  0.9999633 
    4   833     1  1.5774159 -0.0025934  0.9999770  0.0067768 -0.0067768  0.9999770 
    4   833     2  1.5768009 -0.0024334  0.9999670  0.0081189 -0.0081189  0.9999670 
    4   833     3  1.5709857 -0.0045623  0.9999787  0.0065326 -0.0065326  0.9999787 
    4   833     4  1.5702832 -0.0044239  0.9999689  0.0078904 -0.0078904  0.9999689 
    4   834     1  1.5817926 -0.0041039  0.9999816  0.0060647 -0.0060647  0.9999816 
    4   834     2  1.5885164 -0.0020615  0.9999804  0.0062659 -0.0062659  0.9999804 
    4   834     3  1.5811611 -0.0040270  0.9999721  0.0074752 -0.0074752  0.9999721 
    4   834     4  1.5879499 -0.0019688  0.9999707  0.0076591 -0.0076591  0.9999707 
    4   835     1  1.5790713 -0.0040556  0.9999698  0.0077776 -0.0077776  0.9999698 
    4   835     2  1.5798122 -0.0041441  0.9999797  0.0063709 -0.0063709  0.9999797 
    4   835     3  1.5858706 -0.0019855  0.9999680  0.0079971 -0.0079971  0.9999680 
    4   835     4  1.5865340 -0.0020941  0.9999782  0.0066013 -0.0066013  0.9999782 
    4   836     1  1.5745675 -0.0024415  0.9999639  0.0084946 -0.0084946  0.9999639 
    4   836     2  1.5680167 -0.0044549  0.9999662  0.0082262 -0.0082262  0.9999662 
    4   836     3  1.5752967 -0.0026264  0.9999745  0.0071442 -0.0071442  0.9999745 
    4   836     4  1.5688396 -0.0046153  0.9999764  0.0068665 -0.0068665  0.9999764 
    4   837     1  1.5787293 -0.0024151  0.9999697  0.0077837 -0.0077837  0.9999697 
    4   837     2  1.5721811 -0.0044010  0.9999711  0.0076044 -0.0076044  0.9999711 
    4   837     3  1.5791394 -0.0025587  0.9999793  0.0064337 -0.0064337  0.9999793 
    4   837     4  1.5726735 -0.0045242  0.9999806  0.0062352 -0.0062352  0.9999806 
    4   838     1  1.5804842 -0.0025325  0.9999812  0.0061276 -0.0061276  0.9999812 
    4   838     2  1.5802056 -0.0024540  0.9999720  0.0074831 -0.0074831  0.9999720 
    4   838     3  1.5739758 -0.0044973  0.9999821  0.0059838 -0.0059838  0.9999821 
    4   838     4  1.5736577 -0.0044284  0.9999729  0.0073558 -0.0073558  0.9999729 
    4   839     1  1.5845718 -0.0040757  0.9999847  0.0055384 -0.0055384  0.9999847 
    4   839     2  1.5912572 -0.0020649  0.9999841  0.0056377 -0.0056377  0.9999841 
    4   839     3  1.5843030 -0.0040637  0.9999759  0.0069418 -0.0069418  0.9999759 
    4   839     4  1.5910859 -0.0020252  0.9999753  0.0070242 -0.0070242  0.9999753 
    4   840     1  1.5829201 -0.0040601  0.9999741  0.0071983 -0.0071983  0.9999741 
    4   840     2  1.5833451 -0.0040823  0.9999833  0.0057822 -0.0057822  0.9999833 
    4   840     3  1.5897234 -0.0020103  0.9999732  0.0073214 -0.0073214  0.9999732 
    4   840     4  1.5900784 -0.0020509  0.9999824  0.0059271 -0.0059271  0.9999824 
    4   841     1  1.5637130 -0.0048933  0.9999795  0.0064070 -0.0064070  0.9999795 
    4   841     2  1.5700078 -0.0029853  0.9999784  0.0065800 -0.0065800  0.9999784 
    4   841     3  1.5633801 -0.0047655  0.9999700  0.0077439 -0.0077439  0.9999700 
    4   841     4  1.5697090 -0.0028529  0.9999689  0.0078848 -0.0078848  0.9999689 
    4   842     1  1.5618153 -0.0047621  0.9999683  0.0079682 -0.0079682  0.9999683 
    4   842     2  1.5623901 -0.0049787  0.9999778  0.0066626 -0.0066626  0.9999778 
    4   842     3  1.5680759 -0.0028458  0.9999664  0.0081987 -0.0081987  0.9999664 
    4   842     4  1.5685501 -0.0030850  0.9999761  0.0069161 -0.0069161  0.9999761 
    4   843     1  1.5577738 -0.0032942  0.9999631  0.0085937 -0.0085937  0.9999631 
    4   843     2  1.5519158 -0.0051195  0.9999656  0.0082962 -0.0082962  0.9999656 
    4   843     3  1.5583249 -0.0036430  0.9999727  0.0073952 -0.0073952  0.9999727 
    4   843     4  1.5526086 -0.0054355  0.9999749  0.0070789 -0.0070789  0.9999749 
    4   844     1  1.5599434 -0.0035316  0.9999753  0.0070287 -0.0070287  0.9999753 
    4   844     2  1.5596333 -0.0032995  0.9999662  0.0082207 -0.0082207  0.9999662 
    4   844     3  1.5542670 -0.0052709  0.9999768  0.0068100 -0.0068100  0.9999768 
    4   844     4  1.5538011 -0.0050723  0.9999676  0.0080481 -0.0080481  0.9999676 
    4   845     1  1.5643532 -0.0049488  0.9999713  0.0075716 -0.0075716  0.9999713 
    4   845     2  1.5643145 -0.0049555  0.9999809  0.0061866 -0.0061866  0.9999809 
    4   845     3  1.5708806 -0.0029911  0.9999709  0.0076348 -0.0076348  0.9999709 
    4   845     4  1.5710205 -0.0029439  0.9999804  0.0062628 -0.0062628  0.9999804 
    4   846     1  1.5608441 -0.0034657  0.9999688  0.0079034 -0.0079034  0.9999688 
    4   846     2  1.5549105 -0.0052504  0.9999681  0.0079896 -0.0079896  0.9999681 
    4   846     3  1.5607240 -0.0034122  0.9999777  0.0066737 -0.0066737  0.9999777 
    4   846     4  1.5546077 -0.0052445  0.9999778  0.0066614 -0.0066614  0.9999778 
    4   847     1  1.5606482 -0.0030587  0.9999804  0.0062627 -0.0062627  0.9999804 
    4   847     2  1.5608342 -0.0036754  0.9999691  0.0078618 -0.0078618  0.9999691 
    4   847     3  1.5524174 -0.0055605  0.9999787  0.0065298 -0.0065298  0.9999787 
    4   847     4  1.5539358 -0.0057368  0.9999680  0.0080030 -0.0080030  0.9999680 
    4   848     1  1.5652428 -0.0050400  0.9999836  0.0057334 -0.0057334  0.9999836 
    4   848     2  1.5719038 -0.0030162  0.9999824  0.0059285 -0.0059285  0.9999824 
    4   848     3  1.5652150 -0.0046235  0.9999749  0.0070881 -0.0070881  0.9999749 
    4   848     4  1.5717952 -0.0026140  0.9999733  0.0073135 -0.0073135  0.9999733 
    4   849     1  1.5452907 -0.0056905  0.9999725  0.0074188 -0.0074188  0.9999725 
    4   849     2  1.5492322 -0.0038111  0.9999779  0.0066446 -0.0066446  0.9999779 
    4   849     3  1.5475124 -0.0064423  0.9999702  0.0077243 -0.0077243  0.9999702 
    4   849     4  1.5498620 -0.0048673  0.9999750  0.0070773 -0.0070773  0.9999750 
    4   850     1  1.5467165 -0.0054419  0.9999667  0.0081612 -0.0081612  0.9999667 
    4   850     2  1.5473374 -0.0055022  0.9999751  0.0070592 -0.0070592  0.9999751 
    4   850     3  1.5518133 -0.0039353  0.9999670  0.0081219 -0.0081219  0.9999670 
    4   850     4  1.5516575 -0.0041878  0.9999741  0.0071953 -0.0071953  0.9999741 
    4   851     1  1.5426311 -0.0040736  0.9999634  0.0085612 -0.0085612  0.9999634 
    4   851     2  1.5391948 -0.0055958  0.9999686  0.0079231 -0.0079231  0.9999686 
    4   851     3  1.5434092 -0.0047802  0.9999694  0.0078206 -0.0078206  0.9999694 
    4   851     4  1.5402998 -0.0059765  0.9999726  0.0073963 -0.0073963  0.9999726 
    4   852     1  1.5454665 -0.0056558  0.9999739  0.0072274 -0.0072274  0.9999739 
    4   852     2  1.5505402 -0.0040553  0.9999717  0.0075296 -0.0075296  0.9999717 
    4   852     3  1.5446972 -0.0053964  0.9999654  0.0083220 -0.0083220  0.9999654 
    4   852     4  1.5500473 -0.0037177  0.9999628  0.0086209 -0.0086209  0.9999628 
    4   853     1  1.5423729 -0.0054788  0.9999628  0.0086212 -0.0086212  0.9999628 
    4   853     2  1.5431881 -0.0058856  0.9999719  0.0074987 -0.0074987  0.9999719 
    4   853     3  1.5478564 -0.0037198  0.9999595  0.0089956 -0.0089956  0.9999595 
    4   853     4  1.5485294 -0.0041614  0.9999689  0.0078818 -0.0078818  0.9999689 
    4   854     1  1.5382378 -0.0041445  0.9999560  0.0093763 -0.0093763  0.9999560 
    4   854     2  1.5331251 -0.0058130  0.9999597  0.0089788 -0.0089788  0.9999597 
    4   854     3  1.5390294 -0.0045604  0.9999654  0.0083169 -0.0083169  0.9999654 
    4   854     4  1.5338967 -0.0062371  0.9999687  0.0079159 -0.0079159  0.9999687 
    4   855     1  1.5414344 -0.0045198  0.9999681  0.0079882 -0.0079882  0.9999681 
    4   855     2  1.5406163 -0.0039814  0.9999593  0.0090221 -0.0090221  0.9999593 
    4   855     3  1.5366025 -0.0061366  0.9999714  0.0075621 -0.0075621  0.9999714 
    4   855     4  1.5356074 -0.0056878  0.9999635  0.0085385 -0.0085385  0.9999635 
    4   856     1  1.5388017 -0.0072810  0.9999753  0.0070315 -0.0070315  0.9999753 
    4   856     2  1.5415615 -0.0049938  0.9999684  0.0079558 -0.0079558  0.9999684 
    4   856     3  1.5382592 -0.0053101  0.9999746  0.0071275 -0.0071275  0.9999746 
    4   856     4  1.5406387 -0.0034067  0.9999687  0.0079179 -0.0079179  0.9999687 
    4   857     1  1.5312379 -0.0056985  0.9999701  0.0077365 -0.0077365  0.9999701 
    4   857     2  1.5320856 -0.0069316  0.9999730  0.0073452 -0.0073452  0.9999730 
    4   857     3  1.5343337 -0.0038834  0.9999640  0.0084909 -0.0084909  0.9999640 
    4   857     4  1.5353364 -0.0052322  0.9999675  0.0080649 -0.0080649  0.9999675 
    4   858     1  1.5250015 -0.0039440  0.9999605  0.0088855 -0.0088855  0.9999605 
    4   858     2  1.5216542 -0.0063583  0.9999689  0.0078807 -0.0078807  0.9999689 
    4   858     3  1.5257960 -0.0060025  0.9999628  0.0086298 -0.0086298  0.9999628 
    4   858     4  1.5228137 -0.0079523  0.9999698  0.0077738 -0.0077738  0.9999698 
    4   859     1  1.5323684 -0.0056046  0.9999664  0.0081930 -0.0081930  0.9999664 
    4   859     2  1.5315657 -0.0041795  0.9999637  0.0085156 -0.0085156  0.9999637 
    4   859     3  1.5294018 -0.0075237  0.9999726  0.0074007 -0.0074007  0.9999726 
    4   859     4  1.5285287 -0.0059924  0.9999700  0.0077454 -0.0077454  0.9999700 
    4   860     1  1.5366782 -0.0038486  0.9999669  0.0081414 -0.0081414  0.9999669 
    4   860     2  1.5324867 -0.0057598  0.9999729  0.0073671 -0.0073671  0.9999729 
    4   860     3  1.5376836 -0.0051740  0.9999721  0.0074642 -0.0074642  0.9999721 
    4   860     4  1.5333482 -0.0072424  0.9999781  0.0066203 -0.0066203  0.9999781 
    4   861     1  1.5426264 -0.0047336  0.9999776  0.0066903 -0.0066903  0.9999776 
    4   861     2  1.5413372 -0.0032839  0.9999703  0.0077085 -0.0077085  0.9999703 
    4   861     3  1.5369019 -0.0072114  0.9999836  0.0057218 -0.0057218  0.9999836 
    4   861     4  1.5361013 -0.0056904  0.9999773  0.0067346 -0.0067346  0.9999773 
    4   862     1  1.5490519 -0.0064588  0.9999841  0.0056464 -0.0056464  0.9999841 
    4   862     2  1.5537736 -0.0044243  0.9999793  0.0064364 -0.0064364  0.9999793 
    4   862     3  1.5479719 -0.0051662  0.9999792  0.0064480 -0.0064480  0.9999792 
    4   862     4  1.5528935 -0.0030009  0.9999734  0.0072975 -0.0072975  0.9999734 
    4   863     1  1.5431324 -0.0056353  0.9999745  0.0071374 -0.0071374  0.9999745 
    4   863     2  1.5444854 -0.0071290  0.9999809  0.0061854 -0.0061854  0.9999809 
    4   863     3  1.5486998 -0.0031883  0.9999672  0.0080992 -0.0080992  0.9999672 
    4   863     4  1.5495242 -0.0047285  0.9999744  0.0071598 -0.0071598  0.9999744 
    4   864     1  1.5612651 -0.0026132  0.9999714  0.0075668 -0.0075668  0.9999714 
    4   864     2  1.5537724 -0.0050903  0.9999758  0.0069512 -0.0069512  0.9999758 
    4   864     3  1.5618670 -0.0035441  0.9999821  0.0059830 -0.0059830  0.9999821 
    4   864     4  1.5549372 -0.0056995  0.9999843  0.0056098 -0.0056098  0.9999843 
    4   865     1  1.5643340 -0.0037856  0.9999819  0.0060229 -0.0060229  0.9999819 
    4   865     2  1.5635710 -0.0026961  0.9999747  0.0071155 -0.0071155  0.9999747 
    4   865     3  1.5589057 -0.0057766  0.9999856  0.0053730 -0.0053730  0.9999856 
    4   865     4  1.5578956 -0.0048104  0.9999795  0.0064068 -0.0064068  0.9999795 
    4   866     1  1.5689047 -0.0051208  0.9999872  0.0050638 -0.0050638  0.9999872 
    4   866     2  1.5748227 -0.0031729  0.9999847  0.0055321 -0.0055321  0.9999847 
    4   866     3  1.5681446 -0.0044425  0.9999806  0.0062265 -0.0062265  0.9999806 
    4   866     4  1.5742614 -0.0023889  0.9999771  0.0067642 -0.0067642  0.9999771 
    4   867     1  1.5661947 -0.0045931  0.9999770  0.0067859 -0.0067859  0.9999770 
    4   867     2  1.5665909 -0.0048634  0.9999851  0.0054655 -0.0054655  0.9999851 
    4   867     3  1.5727629 -0.0025618  0.9999748  0.0070989 -0.0070989  0.9999748 
    4   867     4  1.5731516 -0.0028505  0.9999836  0.0057221 -0.0057221  0.9999836 
    4   868     1  1.5664070 -0.0026460  0.9999776  0.0066896 -0.0066896  0.9999776 
    4   868     2  1.5613735 -0.0046196  0.9999821  0.0059851 -0.0059851  0.9999821 
    4   868     3  1.5671546 -0.0037235  0.9999834  0.0057546 -0.0057546  0.9999834 
    4   868     4  1.5623317 -0.0055906  0.9999870  0.0050985 -0.0050985  0.9999870 
    4   869     1  1.5699424 -0.0037566  0.9999850  0.0054798 -0.0054798  0.9999850 
    4   869     2  1.5692425 -0.0026434  0.9999801  0.0063073 -0.0063073  0.9999801 
    4   869     3  1.5655204 -0.0055565  0.9999884  0.0048166 -0.0048166  0.9999884 
    4   869     4  1.5646344 -0.0045254  0.9999843  0.0056112 -0.0056112  0.9999843 
    4   870     1  1.5741797 -0.0050281  0.9999895  0.0045744 -0.0045744  0.9999895 
    4   870     2  1.5790358 -0.0032486  0.9999867  0.0051493 -0.0051493  0.9999867 
    4   870     3  1.5734439 -0.0041607  0.9999849  0.0054968 -0.0054968  0.9999849 
    4   870     4  1.5784487 -0.0023150  0.9999814  0.0061003 -0.0061003  0.9999814 
    4   871     1  1.5708012 -0.0042767  0.9999830  0.0058379 -0.0058379  0.9999830 
    4   871     2  1.5715585 -0.0050829  0.9999884  0.0048130 -0.0048130  0.9999884 
    4   871     3  1.5762757 -0.0023345  0.9999793  0.0064299 -0.0064299  0.9999793 
    4   871     4  1.5768628 -0.0032224  0.9999856  0.0053641 -0.0053641  0.9999856 
    4   872     1  1.5572764 -0.0060975  0.9999869  0.0051093 -0.0051093  0.9999869 
    4   872     2  1.5608666 -0.0043139  0.9999830  0.0058343 -0.0058343  0.9999830 
    4   872     3  1.5562868 -0.0048915  0.9999841  0.0056429 -0.0056429  0.9999841 
    4   872     4  1.5601501 -0.0029770  0.9999794  0.0064219 -0.0064219  0.9999794 
    4   873     1  1.5517557 -0.0050844  0.9999820  0.0060042 -0.0060042  0.9999820 
    4   873     2  1.5529063 -0.0062967  0.9999860  0.0052854 -0.0052854  0.9999860 
    4   873     3  1.5564258 -0.0029281  0.9999764  0.0068648 -0.0068648  0.9999764 
    4   873     4  1.5573520 -0.0042823  0.9999815  0.0060831 -0.0060831  0.9999815 
    4   874     1  1.5464092 -0.0031406  0.9999766  0.0068356 -0.0068356  0.9999766 
    4   874     2  1.5435757 -0.0054972  0.9999825  0.0059087 -0.0059087  0.9999825 
    4   874     3  1.5468519 -0.0051685  0.9999779  0.0066538 -0.0066538  0.9999779 
    4   874     4  1.5444452 -0.0070106  0.9999827  0.0058893 -0.0058893  0.9999827 
    4   875     1  1.5518513 -0.0049678  0.9999806  0.0062303 -0.0062303  0.9999806 
    4   875     2  1.5515944 -0.0033352  0.9999799  0.0063333 -0.0063333  0.9999799 
    4   875     3  1.5499858 -0.0066533  0.9999844  0.0055861 -0.0055861  0.9999844 
    4   875     4  1.5495248 -0.0051151  0.9999842  0.0056270 -0.0056270  0.9999842 
    4   876     1  1.5598851 -0.0047034  0.9999854  0.0053961 -0.0053961  0.9999854 
    4   876     2  1.5606706 -0.0058393  0.9999885  0.0048023 -0.0048023  0.9999885 
    4   876     3  1.5636173 -0.0029838  0.9999815  0.0060805 -0.0060805  0.9999815 
    4   876     4  1.5642323 -0.0041577  0.9999850  0.0054747 -0.0054747  0.9999850 
    4   877     1  1.5558206 -0.0034377  0.9999813  0.0061087 -0.0061087  0.9999813 
    4   877     2  1.5529079 -0.0049864  0.9999850  0.0054700 -0.0054700  0.9999850 
    4   877     3  1.5564014 -0.0045306  0.9999837  0.0057111 -0.0057111  0.9999837 
    4   877     4  1.5536779 -0.0060783  0.9999871  0.0050773 -0.0050773  0.9999871 
    4   878     1  1.5595755 -0.0044204  0.9999861  0.0052731 -0.0052731  0.9999861 
    4   878     2  1.5590725 -0.0033826  0.9999828  0.0058574 -0.0058574  0.9999828 
    4   878     3  1.5561586 -0.0059769  0.9999892  0.0046566 -0.0046566  0.9999892 
    4   878     4  1.5556325 -0.0048653  0.9999861  0.0052812 -0.0052812  0.9999861 
    4   879     1  1.5632392 -0.0056308  0.9999900  0.0044682 -0.0044682  0.9999900 
    4   879     2  1.5670606 -0.0039907  0.9999870  0.0050964 -0.0050964  0.9999870 
    4   879     3  1.5626133 -0.0045668  0.9999867  0.0051660 -0.0051660  0.9999867 
    4   879     4  1.5665062 -0.0029338  0.9999833  0.0057839 -0.0057839  0.9999833 
    4   880     1  1.5491761 -0.0060504  0.9999886  0.0047702 -0.0047702  0.9999886 
    4   880     2  1.5529623 -0.0045847  0.9999860  0.0053006 -0.0053006  0.9999860 
    4   880     3  1.5493235 -0.0051500  0.9999844  0.0055923 -0.0055923  0.9999844 
    4   880     4  1.5525049 -0.0040381  0.9999825  0.0059244 -0.0059244  0.9999825 
    4   881     1  1.5478471 -0.0053288  0.9999857  0.0053501 -0.0053501  0.9999857 
    4   881     2  1.5482843 -0.0064789  0.9999851  0.0054605 -0.0054605  0.9999851 
    4   881     3  1.5493695 -0.0038836  0.9999824  0.0059337 -0.0059337  0.9999824 
    4   881     4  1.5494772 -0.0051052  0.9999824  0.0059262 -0.0059262  0.9999824 
    4   882     1  1.5462347 -0.0039440  0.9999872  0.0050621 -0.0050621  0.9999872 
    4   882     2  1.5467315 -0.0050388  0.9999828  0.0058661 -0.0058661  0.9999828 
    4   882     3  1.5427080 -0.0055758  0.9999836  0.0057322 -0.0057322  0.9999836 
    4   882     4  1.5439374 -0.0060064  0.9999809  0.0061761 -0.0061761  0.9999809 
    4   883     1  1.5372023 -0.0057285  0.9999816  0.0060679 -0.0060679  0.9999816 
    4   883     2  1.5387578 -0.0038568  0.9999851  0.0054562 -0.0054562  0.9999851 
    4   883     3  1.5376568 -0.0072879  0.9999821  0.0059776 -0.0059776  0.9999821 
    4   883     4  1.5390721 -0.0054584  0.9999853  0.0054164 -0.0054164  0.9999853 
    4   884     1  1.5440832 -0.0067671  0.9999827  0.0058815 -0.0058815  0.9999827 
    4   884     2  1.5445419 -0.0053264  0.9999806  0.0062303 -0.0062303  0.9999806 
    4   884     3  1.5444820 -0.0053512  0.9999846  0.0055445 -0.0055445  0.9999846 
    4   884     4  1.5449887 -0.0037614  0.9999823  0.0059434 -0.0059434  0.9999823 
    4   885     1  1.5382202 -0.0053503  0.9999814  0.0061018 -0.0061018  0.9999814 
    4   885     2  1.5360039 -0.0075543  0.9999762  0.0068956 -0.0068956  0.9999762 
    4   885     3  1.5373801 -0.0037308  0.9999811  0.0061525 -0.0061525  0.9999811 
    4   885     4  1.5356072 -0.0057258  0.9999768  0.0068121 -0.0068121  0.9999768 
    4   886     1  1.5315581 -0.0044533  0.9999824  0.0059253 -0.0059253  0.9999824 
    4   886     2  1.5322100 -0.0056072  0.9999824  0.0059313 -0.0059313  0.9999824 
    4   886     3  1.5299906 -0.0058666  0.9999791  0.0064601 -0.0064601  0.9999791 
    4   886     4  1.5305168 -0.0072092  0.9999788  0.0065182 -0.0065182  0.9999788 
    4   887     1  1.5307899 -0.0074921  0.9999851  0.0054671 -0.0054671  0.9999851 
    4   887     2  1.5330225 -0.0055182  0.9999807  0.0062084 -0.0062084  0.9999807 
    4   887     3  1.5307593 -0.0056450  0.9999834  0.0057548 -0.0057548  0.9999834 
    4   887     4  1.5324617 -0.0045203  0.9999804  0.0062601 -0.0062601  0.9999804 
    4   888     1  1.5288262 -0.0058720  0.9999821  0.0059896 -0.0059896  0.9999821 
    4   888     2  1.5268982 -0.0073238  0.9999782  0.0066071 -0.0066071  0.9999782 
    4   888     3  1.5280150 -0.0045999  0.9999820  0.0059940 -0.0059940  0.9999820 
    4   888     4  1.5264366 -0.0060324  0.9999787  0.0065332 -0.0065332  0.9999787 
    4   889     1  1.5276197 -0.0050186  0.9999845  0.0055610 -0.0055610  0.9999845 
    4   889     2  1.5274744 -0.0058155  0.9999773  0.0067321 -0.0067321  0.9999773 
    4   889     3  1.5224697 -0.0067520  0.9999817  0.0060425 -0.0060425  0.9999817 
    4   889     4  1.5235995 -0.0069636  0.9999765  0.0068529 -0.0068529  0.9999765 
    4   890     1  1.5499481 -0.0051222  0.9999850  0.0054696 -0.0054696  0.9999850 
    4   890     2  1.5500332 -0.0056534  0.9999897  0.0045328 -0.0045328  0.9999897 
    4   890     3  1.5541162 -0.0037580  0.9999832  0.0057983 -0.0057983  0.9999832 
    4   890     4  1.5545286 -0.0041968  0.9999882  0.0048619 -0.0048619  0.9999882 
    4   891     1  1.5464956 -0.0038658  0.9999820  0.0059978 -0.0059978  0.9999820 
    4   891     2  1.5408053 -0.0056782  0.9999841  0.0056312 -0.0056312  0.9999841 
    4   891     3  1.5465665 -0.0045888  0.9999893  0.0046276 -0.0046276  0.9999893 
    4   891     4  1.5410321 -0.0062424  0.9999900  0.0044715 -0.0044715  0.9999900 
    4   892     1  1.5478865 -0.0047919  0.9999889  0.0047211 -0.0047211  0.9999889 
    4   892     2  1.5474905 -0.0038501  0.9999834  0.0057662 -0.0057662  0.9999834 
    4   892     3  1.5430723 -0.0064776  0.9999911  0.0042152 -0.0042152  0.9999911 
    4   892     4  1.5426799 -0.0055658  0.9999863  0.0052287 -0.0052287  0.9999863 
    4   893     1  1.5512936 -0.0060533  0.9999916  0.0040907 -0.0040907  0.9999916 
    4   893     2  1.5559652 -0.0044004  0.9999894  0.0045969 -0.0045969  0.9999894 
    4   893     3  1.5509281 -0.0051253  0.9999873  0.0050459 -0.0050459  0.9999873 
    4   893     4  1.5555263 -0.0034605  0.9999844  0.0055803 -0.0055803  0.9999844 
    4   894     1  1.5322745 -0.0062520  0.9999829  0.0058436 -0.0058436  0.9999829 
    4   894     2  1.5327797 -0.0069886  0.9999893  0.0046353 -0.0046353  0.9999893 
    4   894     3  1.5376868 -0.0044157  0.9999798  0.0063580 -0.0063580  0.9999798 
    4   894     4  1.5379523 -0.0051619  0.9999863  0.0052249 -0.0052249  0.9999863 
    4   895     1  1.5278839 -0.0047187  0.9999786  0.0065436 -0.0065436  0.9999786 
    4   895     2  1.5225965 -0.0066245  0.9999825  0.0059245 -0.0059245  0.9999825 
    4   895     3  1.5283728 -0.0059660  0.9999856  0.0053720 -0.0053720  0.9999856 
    4   895     4  1.5231869 -0.0076924  0.9999881  0.0048882 -0.0048882  0.9999881 
    4   896     1  1.5306424 -0.0057979  0.9999871  0.0050718 -0.0050718  0.9999871 
    4   896     2  1.5301407 -0.0046727  0.9999813  0.0061204 -0.0061204  0.9999813 
    4   896     3  1.5257746 -0.0076152  0.9999901  0.0044492 -0.0044492  0.9999901 
    4   896     4  1.5252159 -0.0065118  0.9999849  0.0054893 -0.0054893  0.9999849 
    4   897     1  1.5344259 -0.0070684  0.9999909  0.0042682 -0.0042682  0.9999909 
    4   897     2  1.5394866 -0.0052823  0.9999884  0.0048180 -0.0048180  0.9999884 
    4   897     3  1.5339184 -0.0060600  0.9999858  0.0053382 -0.0053382  0.9999858 
    4   897     4  1.5390445 -0.0042079  0.9999824  0.0059364 -0.0059364  0.9999824 
    4   898     1  1.5528282 -0.0050202  0.9999890  0.0046944 -0.0046944  0.9999890 
    4   898     2  1.5533375 -0.0060639  0.9999927  0.0038095 -0.0038095  0.9999927 
    4   898     3  1.5572328 -0.0033132  0.9999860  0.0052989 -0.0052989  0.9999860 
    4   898     4  1.5577595 -0.0043766  0.9999903  0.0043954 -0.0043954  0.9999903 
    4   899     1  1.5491605 -0.0036838  0.9999852  0.0054411 -0.0054411  0.9999852 
    4   899     2  1.5445870 -0.0054470  0.9999884  0.0048175 -0.0048175  0.9999884 
    4   899     3  1.5497033 -0.0047920  0.9999899  0.0044899 -0.0044899  0.9999899 
    4   899     4  1.5451188 -0.0065276  0.9999924  0.0038901 -0.0038901  0.9999924 
    4   900     1  1.5518733 -0.0047198  0.9999910  0.0042484 -0.0042484  0.9999910 
    4   900     2  1.5512553 -0.0035217  0.9999869  0.0051166 -0.0051166  0.9999869 
    4   900     3  1.5475362 -0.0064772  0.9999935  0.0035959 -0.0035959  0.9999935 
    4   900     4  1.5469177 -0.0053084  0.9999901  0.0044439 -0.0044439  0.9999901 
    4   901     1  1.5556348 -0.0060554  0.9999938  0.0035255 -0.0035255  0.9999938 
    4   901     2  1.5598588 -0.0043365  0.9999913  0.0041629 -0.0041629  0.9999913 
    4   901     3  1.5550541 -0.0049072  0.9999906  0.0043457 -0.0043457  0.9999906 
    4   901     4  1.5592696 -0.0031659  0.9999875  0.0049995 -0.0049995  0.9999875 
    4   902     1  1.5361641 -0.0058781  0.9999879  0.0049291 -0.0049291  0.9999879 
    4   902     2  1.5367493 -0.0070022  0.9999921  0.0039743 -0.0039743  0.9999921 
    4   902     3  1.5408348 -0.0040654  0.9999844  0.0055785 -0.0055785  0.9999844 
    4   902     4  1.5413992 -0.0052269  0.9999894  0.0045977 -0.0045977  0.9999894 
    4   903     1  1.5322542 -0.0044798  0.9999837  0.0057081 -0.0057081  0.9999837 
    4   903     2  1.5275085 -0.0063362  0.9999873  0.0050336 -0.0050336  0.9999873 
    4   903     3  1.5328700 -0.0056801  0.9999889  0.0047104 -0.0047104  0.9999889 
    4   903     4  1.5281271 -0.0075071  0.9999918  0.0040582 -0.0040582  0.9999918 
    4   904     1  1.5352925 -0.0055845  0.9999902  0.0044161 -0.0044161  0.9999902 
    4   904     2  1.5345999 -0.0042758  0.9999858  0.0053216 -0.0053216  0.9999858 
    4   904     3  1.5308185 -0.0074300  0.9999931  0.0037133 -0.0037133  0.9999931 
    4   904     4  1.5301124 -0.0061608  0.9999894  0.0045943 -0.0045943  0.9999894 
    4   905     1  1.5392895 -0.0069338  0.9999933  0.0036649 -0.0036649  0.9999933 
    4   905     2  1.5436686 -0.0051461  0.9999906  0.0043363 -0.0043363  0.9999906 
    4   905     3  1.5386297 -0.0057180  0.9999897  0.0045322 -0.0045322  0.9999897 
    4   905     4  1.5430186 -0.0038961  0.9999863  0.0052257 -0.0052257  0.9999863 
    4   906     1  1.5576555 -0.0047776  0.9999920  0.0039969 -0.0039969  0.9999920 
    4   906     2  1.5583429 -0.0059669  0.9999947  0.0032668 -0.0032668  0.9999947 
    4   906     3  1.5615888 -0.0030406  0.9999891  0.0046752 -0.0046752  0.9999891 
    4   906     4  1.5622727 -0.0042600  0.9999923  0.0039275 -0.0039275  0.9999923 
    4   907     1  1.5536579 -0.0034121  0.9999886  0.0047720 -0.0047720  0.9999886 
    4   907     2  1.5496301 -0.0051832  0.9999917  0.0040784 -0.0040784  0.9999917 
    4   907     3  1.5543887 -0.0046432  0.9999920  0.0040042 -0.0040042  0.9999920 
    4   907     4  1.5503575 -0.0063889  0.9999945  0.0033263 -0.0033263  0.9999945 
    4   908     1  1.5572551 -0.0045525  0.9999930  0.0037473 -0.0037473  0.9999930 
    4   908     2  1.5564947 -0.0032327  0.9999902  0.0044303 -0.0044303  0.9999902 
    4   908     3  1.5534738 -0.0063149  0.9999954  0.0030415 -0.0030415  0.9999954 
    4   908     4  1.5527233 -0.0050210  0.9999931  0.0037105 -0.0037105  0.9999931 
    4   909     1  1.5613433 -0.0059030  0.9999955  0.0030064 -0.0030064  0.9999955 
    4   909     2  1.5650117 -0.0041926  0.9999932  0.0036879 -0.0036879  0.9999932 
    4   909     3  1.5606174 -0.0046580  0.9999933  0.0036543 -0.0036543  0.9999933 
    4   909     4  1.5642771 -0.0029217  0.9999905  0.0043498 -0.0043498  0.9999905 
    4   910     1  1.5414644 -0.0055815  0.9999914  0.0041490 -0.0041490  0.9999914 
    4   910     2  1.5422247 -0.0068329  0.9999943  0.0033800 -0.0033800  0.9999943 
    4   910     3  1.5455425 -0.0037755  0.9999882  0.0048623 -0.0048623  0.9999882 
    4   910     4  1.5463008 -0.0050547  0.9999917  0.0040767 -0.0040767  0.9999917 
    4   911     1  1.5372558 -0.0041645  0.9999878  0.0049411 -0.0049411  0.9999878 
    4   911     2  1.5330761 -0.0060305  0.9999912  0.0041975 -0.0041975  0.9999912 
    4   911     3  1.5380532 -0.0054808  0.9999914  0.0041434 -0.0041434  0.9999914 
    4   911     4  1.5338937 -0.0073119  0.9999942  0.0034189 -0.0034189  0.9999942 
    4   912     1  1.5411505 -0.0053938  0.9999925  0.0038608 -0.0038608  0.9999925 
    4   912     2  1.5403231 -0.0040429  0.9999895  0.0045726 -0.0045726  0.9999895 
    4   912     3  1.5372567 -0.0072118  0.9999951  0.0031254 -0.0031254  0.9999951 
    4   912     4  1.5364088 -0.0058891  0.9999927  0.0038229 -0.0038229  0.9999927 
    4   913     1  1.5454423 -0.0067545  0.9999952  0.0030891 -0.0030891  0.9999952 
    4   913     2  1.5492825 -0.0049722  0.9999928  0.0038050 -0.0038050  0.9999928 
    4   913     3  1.5446437 -0.0054499  0.9999928  0.0037827 -0.0037827  0.9999928 
    4   913     4  1.5484847 -0.0036453  0.9999898  0.0045107 -0.0045107  0.9999898 
    4   914     1  1.5642165 -0.0044239  0.9999947  0.0032418 -0.0032418  0.9999947 
    4   914     2  1.5649283 -0.0057547  0.9999962  0.0027571 -0.0027571  0.9999962 
    4   914     3  1.5673222 -0.0027196  0.9999922  0.0039376 -0.0039376  0.9999922 
    4   914     4  1.5680593 -0.0040978  0.9999941  0.0034348 -0.0034348  0.9999941 
    4   915     1  1.5596763 -0.0031163  0.9999916  0.0040992 -0.0040992  0.9999916 
    4   915     2  1.5561151 -0.0048846  0.9999943  0.0033805 -0.0033805  0.9999943 
    4   915     3  1.5605766 -0.0044209  0.9999939  0.0035038 -0.0035038  0.9999939 
    4   915     4  1.5569937 -0.0061929  0.9999961  0.0027848 -0.0027848  0.9999961 
    4   916     1  1.5640535 -0.0042368  0.9999950  0.0031628 -0.0031628  0.9999950 
    4   916     2  1.5631793 -0.0027496  0.9999933  0.0036735 -0.0036735  0.9999933 
    4   916     3  1.5608804 -0.0060094  0.9999970  0.0024376 -0.0024376  0.9999970 
    4   916     4  1.5601198 -0.0046830  0.9999958  0.0028926 -0.0028926  0.9999958 
    4   917     1  1.5689050 -0.0057196  0.9999968  0.0025370 -0.0025370  0.9999968 
    4   917     2  1.5719759 -0.0040106  0.9999948  0.0032367 -0.0032367  0.9999948 
    4   917     3  1.5680826 -0.0042650  0.9999955  0.0029940 -0.0029940  0.9999955 
    4   917     4  1.5711661 -0.0027101  0.9999934  0.0036431 -0.0036431  0.9999934 
    4   918     1  1.5483240 -0.0052615  0.9999944  0.0033591 -0.0033591  0.9999944 
    4   918     2  1.5491220 -0.0066149  0.9999961  0.0027877 -0.0027877  0.9999961 
    4   918     3  1.5517382 -0.0035024  0.9999917  0.0040812 -0.0040812  0.9999917 
    4   918     4  1.5525633 -0.0048800  0.9999939  0.0034987 -0.0034987  0.9999939 
    4   919     1  1.5437281 -0.0039647  0.9999911  0.0042205 -0.0042205  0.9999911 
    4   919     2  1.5399402 -0.0057702  0.9999939  0.0034859 -0.0034859  0.9999939 
    4   919     3  1.5446622 -0.0052760  0.9999936  0.0035658 -0.0035658  0.9999936 
    4   919     4  1.5408795 -0.0070924  0.9999960  0.0028269 -0.0028269  0.9999960 
    4   920     1  1.5481286 -0.0050468  0.9999950  0.0031548 -0.0031548  0.9999950 
    4   920     2  1.5471961 -0.0035757  0.9999929  0.0037739 -0.0037739  0.9999929 
    4   920     3  1.5446061 -0.0068670  0.9999971  0.0024061 -0.0024061  0.9999971 
    4   920     4  1.5437953 -0.0055377  0.9999956  0.0029644 -0.0029644  0.9999956 
    4   921     1  1.5530539 -0.0065389  0.9999968  0.0025132 -0.0025132  0.9999968 
    4   921     2  1.5565526 -0.0047693  0.9999948  0.0032382 -0.0032382  0.9999948 
    4   921     3  1.5521261 -0.0050863  0.9999952  0.0031036 -0.0031036  0.9999952 
    4   921     4  1.5556740 -0.0034693  0.9999929  0.0037674 -0.0037674  0.9999929 
    4   922     1  1.5319578 -0.0062245  0.9999940  0.0034666 -0.0034666  0.9999940 
    4   922     2  1.5328313 -0.0075343  0.9999959  0.0028517 -0.0028517  0.9999959 
    4   922     3  1.5355116 -0.0044793  0.9999912  0.0041852 -0.0041852  0.9999912 
    4   922     4  1.5363765 -0.0057930  0.9999936  0.0035678 -0.0035678  0.9999936 
    4   923     1  1.5275517 -0.0050335  0.9999909  0.0042634 -0.0042634  0.9999909 
    4   923     2  1.5238811 -0.0067299  0.9999936  0.0035704 -0.0035704  0.9999936 
    4   923     3  1.5284535 -0.0062251  0.9999933  0.0036575 -0.0036575  0.9999933 
    4   923     4  1.5249239 -0.0079672  0.9999957  0.0029386 -0.0029386  0.9999957 
    4   924     1  1.5318916 -0.0058419  0.9999952  0.0031041 -0.0031041  0.9999952 
    4   924     2  1.5309003 -0.0048108  0.9999924  0.0039111 -0.0039111  0.9999924 
    4   924     3  1.5278102 -0.0075749  0.9999970  0.0024296 -0.0024296  0.9999970 
    4   924     4  1.5271093 -0.0065181  0.9999948  0.0032184 -0.0032184  0.9999948 
    4   925     1  1.5365877 -0.0074073  0.9999969  0.0024915 -0.0024915  0.9999969 
    4   925     2  1.5403962 -0.0056346  0.9999948  0.0032110 -0.0032110  0.9999948 
    4   925     3  1.5356548 -0.0059732  0.9999949  0.0032021 -0.0032021  0.9999949 
    4   925     4  1.5395010 -0.0043807  0.9999926  0.0038355 -0.0038355  0.9999926 
    4   926     1  1.5537740 -0.0058028  0.9999949  0.0031810 -0.0031810  0.9999949 
    4   926     2  1.5550621 -0.0055877  0.9999978  0.0021017 -0.0021017  0.9999978 
    4   926     3  1.5590693 -0.0042189  0.9999949  0.0031960 -0.0031960  0.9999949 
    4   926     4  1.5587540 -0.0044500  0.9999973  0.0023234 -0.0023234  0.9999973 
    4   927     1  1.5512604 -0.0033530  0.9999959  0.0028672 -0.0028672  0.9999959 
    4   927     2  1.5509272 -0.0052356  0.9999966  0.0026064 -0.0026064  0.9999966 
    4   927     3  1.5504537 -0.0053411  0.9999947  0.0032464 -0.0032464  0.9999947 
    4   927     4  1.5503699 -0.0063336  0.9999956  0.0029761 -0.0029761  0.9999956 
    4   928     1  1.5538684 -0.0051125  0.9999965  0.0026456 -0.0026456  0.9999965 
    4   928     2  1.5572733 -0.0038211  0.9999976  0.0021876 -0.0021876  0.9999976 
    4   928     3  1.5549141 -0.0058543  0.9999949  0.0032091 -0.0032091  0.9999949 
    4   928     4  1.5577368 -0.0046465  0.9999962  0.0027448 -0.0027448  0.9999962 
    4   929     1  1.5491096 -0.0047657  0.9999962  0.0027575 -0.0027575  0.9999962 
    4   929     2  1.5449085 -0.0065158  0.9999941  0.0034224 -0.0034224  0.9999941 
    4   929     3  1.5480974 -0.0037432  0.9999981  0.0019570 -0.0019570  0.9999981 
    4   929     4  1.5443940 -0.0054522  0.9999965  0.0026546 -0.0026546  0.9999965 
    4   930     1  1.5463373 -0.0041728  0.9999984  0.0017783 -0.0017783  0.9999984 
    4   930     2  1.5471207 -0.0049338  0.9999969  0.0025084 -0.0025084  0.9999969 
    4   930     3  1.5425090 -0.0056553  0.9999973  0.0023063 -0.0023063  0.9999973 
    4   930     4  1.5433099 -0.0064488  0.9999953  0.0030643 -0.0030643  0.9999953 
    4   931     1  1.5496401 -0.0053487  0.9999975  0.0022226 -0.0022226  0.9999975 
    4   931     2  1.5534157 -0.0038105  0.9999986  0.0016485 -0.0016485  0.9999986 
    4   931     3  1.5503774 -0.0061898  0.9999957  0.0029365 -0.0029365  0.9999957 
    4   931     4  1.5541196 -0.0046815  0.9999972  0.0023799 -0.0023799  0.9999972 
    4   932     1  1.5530648 -0.0061239  0.9999952  0.0030949 -0.0030949  0.9999952 
    4   932     2  1.5524373 -0.0050692  0.9999966  0.0026067 -0.0026067  0.9999966 
    4   932     3  1.5559505 -0.0047702  0.9999968  0.0025477 -0.0025477  0.9999968 
    4   932     4  1.5554812 -0.0036042  0.9999980  0.0020124 -0.0020124  0.9999980 
    4   933     1  1.5367522 -0.0058990  0.9999963  0.0027169 -0.0027169  0.9999963 
    4   933     2  1.5398837 -0.0045148  0.9999977  0.0021542 -0.0021542  0.9999977 
    4   933     3  1.5378385 -0.0068223  0.9999950  0.0031514 -0.0031514  0.9999950 
    4   933     4  1.5404048 -0.0055220  0.9999966  0.0026163 -0.0026163  0.9999966 
    4   934     1  1.5370848 -0.0066942  0.9999947  0.0032436 -0.0032436  0.9999947 
    4   934     2  1.5381334 -0.0062849  0.9999978  0.0020868 -0.0020868  0.9999978 
    4   934     3  1.5424391 -0.0050776  0.9999952  0.0030943 -0.0030943  0.9999952 
    4   934     4  1.5419572 -0.0051491  0.9999976  0.0022103 -0.0022103  0.9999976 
    4   935     1  1.5342921 -0.0041766  0.9999956  0.0029627 -0.0029627  0.9999956 
    4   935     2  1.5333383 -0.0061005  0.9999969  0.0024861 -0.0024861  0.9999969 
    4   935     3  1.5339744 -0.0061709  0.9999951  0.0031208 -0.0031208  0.9999951 
    4   935     4  1.5333180 -0.0072002  0.9999963  0.0027242 -0.0027242  0.9999963 
    4   936     1  1.5310251 -0.0057435  0.9999964  0.0026659 -0.0026659  0.9999964 
    4   936     2  1.5275812 -0.0075986  0.9999941  0.0034408 -0.0034408  0.9999941 
    4   936     3  1.5300003 -0.0042797  0.9999977  0.0021216 -0.0021216  0.9999977 
    4   936     4  1.5268903 -0.0062277  0.9999957  0.0029272 -0.0029272  0.9999957 
    4   937     1  1.5274360 -0.0049568  0.9999984  0.0017707 -0.0017707  0.9999984 
    4   937     2  1.5283592 -0.0059769  0.9999971  0.0024209 -0.0024209  0.9999971 
    4   937     3  1.5239059 -0.0065419  0.9999971  0.0024074 -0.0024074  0.9999971 
    4   937     4  1.5247494 -0.0076012  0.9999953  0.0030732 -0.0030732  0.9999953 
    4   938     1  1.5312830 -0.0062298  0.9999974  0.0022951 -0.0022951  0.9999974 
    4   938     2  1.5347364 -0.0046026  0.9999987  0.0016331 -0.0016331  0.9999987 
    4   938     3  1.5321234 -0.0072805  0.9999958  0.0028870 -0.0028870  0.9999958 
    4   938     4  1.5355487 -0.0057053  0.9999975  0.0022513 -0.0022513  0.9999975 
    4   939     1  1.5354615 -0.0070507  0.9999955  0.0030158 -0.0030158  0.9999955 
    4   939     2  1.5347791 -0.0058938  0.9999965  0.0026592 -0.0026592  0.9999965 
    4   939     3  1.5380089 -0.0056397  0.9999971  0.0024238 -0.0024238  0.9999971 
    4   939     4  1.5374757 -0.0043479  0.9999980  0.0020144 -0.0020144  0.9999980 
    4   940     1  1.5450094 -0.0051389  0.9999973  0.0023420 -0.0023420  0.9999973 
    4   940     2  1.5415066 -0.0066817  0.9999956  0.0029498 -0.0029498  0.9999956 
    4   940     3  1.5443351 -0.0040823  0.9999986  0.0016960 -0.0016960  0.9999986 
    4   940     4  1.5407067 -0.0056676  0.9999973  0.0023190 -0.0023190  0.9999973 
    4   941     1  1.5421766 -0.0042566  0.9999989  0.0014929 -0.0014929  0.9999989 
    4   941     2  1.5428947 -0.0053275  0.9999977  0.0021553 -0.0021553  0.9999977 
    4   941     3  1.5384913 -0.0058702  0.9999977  0.0021282 -0.0021282  0.9999977 
    4   941     4  1.5392891 -0.0068849  0.9999962  0.0027642 -0.0027642  0.9999962 
    4   942     1  1.5456463 -0.0055346  0.9999982  0.0018830 -0.0018830  0.9999982 
    4   942     2  1.5496079 -0.0039098  0.9999992  0.0012727 -0.0012727  0.9999992 
    4   942     3  1.5464042 -0.0064861  0.9999966  0.0025988 -0.0025988  0.9999966 
    4   942     4  1.5503158 -0.0048871  0.9999980  0.0020004 -0.0020004  0.9999980 
    4   943     1  1.5483386 -0.0063354  0.9999962  0.0027713 -0.0027713  0.9999962 
    4   943     2  1.5476149 -0.0053922  0.9999979  0.0020506 -0.0020506  0.9999979 
    4   943     3  1.5521731 -0.0047656  0.9999976  0.0021839 -0.0021839  0.9999976 
    4   943     4  1.5515193 -0.0037981  0.9999989  0.0014549 -0.0014549  0.9999989 
    4   944     1  1.5443315 -0.0065266  0.9999971  0.0023942 -0.0023942  0.9999971 
    4   944     2  1.5435885 -0.0056848  0.9999986  0.0016582 -0.0016582  0.9999986 
    4   944     3  1.5483476 -0.0049623  0.9999983  0.0018344 -0.0018344  0.9999983 
    4   944     4  1.5476004 -0.0041013  0.9999994  0.0010829 -0.0010829  0.9999994 
    4   945     1  1.5408052 -0.0054042  0.9999981  0.0019748 -0.0019748  0.9999981 
    4   945     2  1.5367789 -0.0069965  0.9999967  0.0025566 -0.0025566  0.9999967 
    4   945     3  1.5400167 -0.0044758  0.9999993  0.0012071 -0.0012071  0.9999993 
    4   945     4  1.5359501 -0.0061143  0.9999983  0.0018169 -0.0018169  0.9999983 
    4   946     1  1.5380816 -0.0046307  0.9999996  0.0009443 -0.0009443  0.9999996 
    4   946     2  1.5388579 -0.0053878  0.9999984  0.0018126 -0.0018126  0.9999984 
    4   946     3  1.5336959 -0.0062497  0.9999989  0.0014879 -0.0014879  0.9999989 
    4   946     4  1.5344887 -0.0069648  0.9999973  0.0023205 -0.0023205  0.9999973 
    4   947     1  1.5415804 -0.0057926  0.9999991  0.0013718 -0.0013718  0.9999991 
    4   947     2  1.5457947 -0.0042342  0.9999996  0.0008499 -0.0008499  0.9999996 
    4   947     3  1.5422766 -0.0065115  0.9999977  0.0021667 -0.0021667  0.9999977 
    4   947     4  1.5465245 -0.0049718  0.9999986  0.0016692 -0.0016692  0.9999986 
    4   948     1  1.5372318 -0.0053916  0.9999986  0.0016636 -0.0016636  0.9999986 
    4   948     2  1.5324796 -0.0069753  0.9999978  0.0020742 -0.0020742  0.9999978 
    4   948     3  1.5365745 -0.0047830  0.9999998  0.0006886 -0.0006886  0.9999998 
    4   948     4  1.5318427 -0.0063936  0.9999994  0.0011399 -0.0011399  0.9999994 
    4   949     1  1.5355532 -0.0049865  0.9999999  0.0004504 -0.0004504  0.9999999 
    4   949     2  1.5360174 -0.0053700  0.9999989  0.0014861 -0.0014861  0.9999989 
    4   949     3  1.5306592 -0.0065387  0.9999997  0.0007572 -0.0007572  0.9999997 
    4   949     4  1.5310871 -0.0069110  0.9999985  0.0017495 -0.0017495  0.9999985 
    4   950     1  1.5387214 -0.0060702  0.9999997  0.0007242 -0.0007242  0.9999997 
    4   950     2  1.5433444 -0.0045929  0.9999999  0.0004165 -0.0004165  0.9999999 
    4   950     3  1.5391353 -0.0064443  0.9999986  0.0016461 -0.0016461  0.9999986 
    4   950     4  1.5437811 -0.0049792  0.9999991  0.0013736 -0.0013736  0.9999991 
    4   951     1  1.5405008 -0.0064870  0.9999982  0.0019155 -0.0019155  0.9999982 
    4   951     2  1.5399228 -0.0059237  0.9999994  0.0010558 -0.0010558  0.9999994 
    4   951     3  1.5449571 -0.0049914  0.9999988  0.0015191 -0.0015191  0.9999988 
    4   951     4  1.5443432 -0.0044101  0.9999998  0.0006261 -0.0006261  0.9999998 
    4   952     1  1.5530043 -0.0038223  0.9999997  0.0007792 -0.0007792  0.9999997 
    4   952     2  1.5537860 -0.0045872  0.9999989  0.0014913 -0.0014913  0.9999989 
    4   952     3  1.5491640 -0.0053134  0.9999991  0.0013095 -0.0013095  0.9999991 
    4   952     4  1.5498025 -0.0060933  0.9999980  0.0020098 -0.0020098  0.9999980 
    4   953     1  1.5563044 -0.0049025  0.9999991  0.0013417 -0.0013417  0.9999991 
    4   953     2  1.5592494 -0.0035990  0.9999997  0.0008314 -0.0008314  0.9999997 
    4   953     3  1.5568639 -0.0056302  0.9999983  0.0018271 -0.0018271  0.9999983 
    4   953     4  1.5599592 -0.0043664  0.9999991  0.0013546 -0.0013546  0.9999991 
    4   954     1  1.5595722 -0.0058669  0.9999979  0.0020273 -0.0020273  0.9999979 
    4   954     2  1.5588810 -0.0047021  0.9999988  0.0015672 -0.0015672  0.9999988 
    4   954     3  1.5631236 -0.0040464  0.9999992  0.0012831 -0.0012831  0.9999992 
    4   954     4  1.5618524 -0.0032044  0.9999995  0.0009540 -0.0009540  0.9999995 
    4   955     1  1.5560000 -0.0045224  0.9999986  0.0016562 -0.0016562  0.9999986 
    4   955     2  1.5518736 -0.0061495  0.9999975  0.0022436 -0.0022436  0.9999975 
    4   955     3  1.5551550 -0.0037278  0.9999996  0.0009214 -0.0009214  0.9999996 
    4   955     4  1.5511039 -0.0053328  0.9999989  0.0015044 -0.0015044  0.9999989 
    4   956     1  1.5521363 -0.0046602  0.9999990  0.0014040 -0.0014040  0.9999990 
    4   956     2  1.5480197 -0.0060538  0.9999984  0.0017830 -0.0017830  0.9999984 
    4   956     3  1.5515563 -0.0041064  0.9999998  0.0005897 -0.0005897  0.9999998 
    4   956     4  1.5474796 -0.0055205  0.9999995  0.0010046 -0.0010046  0.9999995 
    4   957     1  1.5506813 -0.0042542  0.9999999  0.0003958 -0.0003958  0.9999999 
    4   957     2  1.5510542 -0.0046474  0.9999992  0.0012861 -0.0012861  0.9999992 
    4   957     3  1.5463326 -0.0056513  0.9999998  0.0006962 -0.0006962  0.9999998 
    4   957     4  1.5467131 -0.0060233  0.9999988  0.0015523 -0.0015523  0.9999988 
    4   958     1  1.5534879 -0.0052715  0.9999998  0.0006369 -0.0006369  0.9999998 
    4   958     2  1.5576726 -0.0039348  0.9999999  0.0003621 -0.0003621  0.9999999 
    4   958     3  1.5538030 -0.0056292  0.9999989  0.0014533 -0.0014533  0.9999989 
    4   958     4  1.5579285 -0.0043269  0.9999993  0.0012109 -0.0012109  0.9999993 
    4   959     1  1.5549630 -0.0056190  0.9999986  0.0016503 -0.0016503  0.9999986 
    4   959     2  1.5544650 -0.0051864  0.9999996  0.0009432 -0.0009432  0.9999996 
    4   959     3  1.5586913 -0.0043733  0.9999991  0.0013286 -0.0013286  0.9999991 
    4   959     4  1.5582427 -0.0038873  0.9999998  0.0005707 -0.0005707  0.9999998 
    4   960     1  1.5661207 -0.0045668  0.9999991  0.0013122 -0.0013122  0.9999991 
    4   960     2  1.5667223 -0.0052612  0.9999990  0.0013890 -0.0013890  0.9999990 
    4   960     3  1.5673039 -0.0036835  0.9999986  0.0016968 -0.0016968  0.9999986 
    4   960     4  1.5674375 -0.0044356  0.9999986  0.0016516 -0.0016516  0.9999986 
    4   961     1  1.5649190 -0.0037152  0.9999998  0.0006875 -0.0006875  0.9999998 
    4   961     2  1.5651924 -0.0042040  0.9999991  0.0013147 -0.0013147  0.9999991 
    4   961     3  1.5620049 -0.0048492  0.9999994  0.0011194 -0.0011194  0.9999994 
    4   961     4  1.5626169 -0.0051054  0.9999987  0.0015830 -0.0015830  0.9999987 
    4   962     1  1.5675240 -0.0045076  0.9999997  0.0007535 -0.0007535  0.9999997 
    4   962     2  1.5708508 -0.0035472  0.9999997  0.0007952 -0.0007952  0.9999997 
    4   962     3  1.5674483 -0.0047909  0.9999989  0.0014854 -0.0014854  0.9999989 
    4   962     4  1.5703458 -0.0039148  0.9999990  0.0014097 -0.0014097  0.9999990 
    4   963     1  1.5648756 -0.0040712  0.9999992  0.0012614 -0.0012614  0.9999992 
    4   963     2  1.5612506 -0.0052382  0.9999989  0.0015119 -0.0015119  0.9999989 
    4   963     3  1.5647118 -0.0036110  0.9999999  0.0004888 -0.0004888  0.9999999 
    4   963     4  1.5608894 -0.0048594  0.9999997  0.0007804 -0.0007804  0.9999997 
    4   964     1  1.5644026 -0.0036550  0.9999999  0.0003194 -0.0003194  0.9999999 
    4   964     2  1.5644940 -0.0040276  0.9999993  0.0011523 -0.0011523  0.9999993 
    4   964     3  1.5603062 -0.0049406  0.9999999  0.0005450 -0.0005450  0.9999999 
    4   964     4  1.5605043 -0.0052710  0.9999991  0.0013536 -0.0013536  0.9999991 
    4   965     1  1.5669008 -0.0046559  0.9999999  0.0004674 -0.0004674  0.9999999 
    4   965     2  1.5709511 -0.0034119  1.0000000  0.0003077 -0.0003077  1.0000000 
    4   965     3  1.5669384 -0.0049490  0.9999992  0.0012792 -0.0012792  0.9999992 
    4   965     4  1.5708801 -0.0037400  0.9999994  0.0011282 -0.0011282  0.9999994 
    4   966     1  1.5672019 -0.0049103  0.9999990  0.0014195 -0.0014195  0.9999990 
    4   966     2  1.5671263 -0.0046340  0.9999998  0.0006450 -0.0006450  0.9999998 
    4   966     3  1.5708494 -0.0037886  0.9999992  0.0012719 -0.0012719  0.9999992 
    4   966     4  1.5709771 -0.0034521  0.9999999  0.0004952 -0.0004952  0.9999999 
    4   967     1  1.5745971 -0.0033133  0.9999985  0.0017569 -0.0017569  0.9999985 
    4   967     2  1.5696334 -0.0048362  0.9999988  0.0015660 -0.0015660  0.9999988 
    4   967     3  1.5752468 -0.0034697  0.9999997  0.0008106 -0.0008106  0.9999997 
    4   967     4  1.5711189 -0.0047194  0.9999998  0.0006977 -0.0006977  0.9999998 
    4   968     1  1.5765148 -0.0033786  0.9999997  0.0007374 -0.0007374  0.9999997 
    4   968     2  1.5760156 -0.0034975  0.9999989  0.0014771 -0.0014771  0.9999989 
    4   968     3  1.5729647 -0.0044465  0.9999998  0.0006609 -0.0006609  0.9999998 
    4   968     4  1.5722902 -0.0046156  0.9999989  0.0014562 -0.0014562  0.9999989 
    4   969     1  1.5788192 -0.0042120  0.9999998  0.0006106 -0.0006106  0.9999998 
    4   969     2  1.5829489 -0.0029694  0.9999998  0.0005533 -0.0005533  0.9999998 
    4   969     3  1.5782912 -0.0044926  0.9999989  0.0014854 -0.0014854  0.9999989 
    4   969     4  1.5825922 -0.0031982  0.9999990  0.0014235 -0.0014235  0.9999990 
    4   970     1  1.5774765 -0.0046483  0.9999984  0.0017867 -0.0017867  0.9999984 
    4   970     2  1.5779510 -0.0041191  0.9999996  0.0008507 -0.0008507  0.9999996 
    4   970     3  1.5820629 -0.0032555  0.9999986  0.0016432 -0.0016432  0.9999986 
    4   970     4  1.5824318 -0.0027482  0.9999998  0.0006869 -0.0006869  0.9999998 
    4   971     1  1.5768239 -0.0034887  0.9999992  0.0012836 -0.0012836  0.9999992 
    4   971     2  1.5730749 -0.0046251  0.9999990  0.0013831 -0.0013831  0.9999990 
    4   971     3  1.5771018 -0.0031776  0.9999999  0.0005024 -0.0005024  0.9999999 
    4   971     4  1.5732864 -0.0043272  0.9999998  0.0005796 -0.0005796  0.9999998 
    4   972     1  1.5773233 -0.0031495  1.0000000  0.0002997 -0.0002997  1.0000000 
    4   972     2  1.5771447 -0.0034597  0.9999994  0.0011135 -0.0011135  0.9999994 
    4   972     3  1.5733505 -0.0043572  0.9999999  0.0004177 -0.0004177  0.9999999 
    4   972     4  1.5732335 -0.0046498  0.9999992  0.0012332 -0.0012332  0.9999992 
    4   973     1  1.5796780 -0.0040736  0.9999999  0.0003705 -0.0003705  0.9999999 
    4   973     2  1.5836723 -0.0028624  1.0000000  0.0002637 -0.0002637  1.0000000 
    4   973     3  1.5794743 -0.0043790  0.9999993  0.0011925 -0.0011925  0.9999993 
    4   973     4  1.5834536 -0.0031714  0.9999994  0.0010826 -0.0010826  0.9999994 
    4   974     1  1.5790870 -0.0043976  0.9999991  0.0013410 -0.0013410  0.9999991 
    4   974     2  1.5793898 -0.0040882  0.9999999  0.0005046 -0.0005046  0.9999999 
    4   974     3  1.5831178 -0.0031778  0.9999992  0.0012436 -0.0012436  0.9999992 
    4   974     4  1.5833801 -0.0028834  0.9999999  0.0004192 -0.0004192  0.9999999 
    4   975     1  1.5889709 -0.0029990  0.9999989  0.0015090 -0.0015090  0.9999989 
    4   975     2  1.5846835 -0.0043265  0.9999985  0.0017056 -0.0017056  0.9999985 
    4   975     3  1.5892005 -0.0024838  0.9999998  0.0006164 -0.0006164  0.9999998 
    4   975     4  1.5849805 -0.0037980  0.9999997  0.0008249 -0.0008249  0.9999997 
    4   976     1  1.5894848 -0.0025781  0.9999999  0.0004788 -0.0004788  0.9999999 
    4   976     2  1.5892154 -0.0029868  0.9999991  0.0013450 -0.0013450  0.9999991 
    4   976     3  1.5853773 -0.0038364  0.9999998  0.0006302 -0.0006302  0.9999998 
    4   976     4  1.5850429 -0.0042625  0.9999989  0.0014925 -0.0014925  0.9999989 
    4   977     1  1.5918740 -0.0035405  0.9999998  0.0006117 -0.0006117  0.9999998 
    4   977     2  1.5959489 -0.0022756  0.9999999  0.0004204 -0.0004204  0.9999999 
    4   977     3  1.5916247 -0.0040122  0.9999989  0.0014514 -0.0014514  0.9999989 
    4   977     4  1.5957337 -0.0027407  0.9999992  0.0012669 -0.0012669  0.9999992 
    4   978     1  1.5914469 -0.0040622  0.9999987  0.0016361 -0.0016361  0.9999987 
    4   978     2  1.5916491 -0.0035162  0.9999997  0.0007868 -0.0007868  0.9999997 
    4   978     3  1.5956054 -0.0027564  0.9999990  0.0014092 -0.0014092  0.9999990 
    4   978     4  1.5957842 -0.0022107  0.9999998  0.0005489 -0.0005489  0.9999998 
    4   979     1  1.5918831 -0.0039363  0.9999992  0.0012724 -0.0012724  0.9999992 
    4   979     2  1.5920834 -0.0035615  0.9999999  0.0004481 -0.0004481  0.9999999 
    4   979     3  1.5959200 -0.0026997  0.9999994  0.0011240 -0.0011240  0.9999994 
    4   979     4  1.5960860 -0.0023331  1.0000000  0.0002953 -0.0002953  1.0000000 
    4   980     1  1.5895212 -0.0029343  0.9999993  0.0011853 -0.0011853  0.9999993 
    4   980     2  1.5854608 -0.0041692  0.9999991  0.0013065 -0.0013065  0.9999991 
    4   980     3  1.5897331 -0.0026123  0.9999999  0.0003452 -0.0003452  0.9999999 
    4   980     4  1.5857124 -0.0038356  0.9999999  0.0004666 -0.0004666  0.9999999 
    4   981     1  1.5899741 -0.0026004  1.0000000  0.0002115 -0.0002115  1.0000000 
    4   981     2  1.5897676 -0.0029170  0.9999995  0.0010358 -0.0010358  0.9999995 
    4   981     3  1.5860077 -0.0038058  0.9999999  0.0003268 -0.0003268  0.9999999 
    4   981     4  1.5857851 -0.0041270  0.9999993  0.0011508 -0.0011508  0.9999993 
    4   982     1  1.5922969 -0.0035572  1.0000000  0.0002972 -0.0002972  1.0000000 
    4   982     2  1.5962663 -0.0023464  1.0000000  0.0001674 -0.0001674  1.0000000 
    4   982     3  1.5920970 -0.0038895  0.9999994  0.0011121 -0.0011121  0.9999994 
    4   982     4  1.5960781 -0.0026767  0.9999995  0.0009865 -0.0009865  0.9999995 
    4   983     1  1.6021710 -0.0024815  0.9999994  0.0010658 -0.0010658  0.9999994 
    4   983     2  1.5982521 -0.0036893  0.9999992  0.0012288 -0.0012288  0.9999992 
    4   983     3  1.6023087 -0.0020884  1.0000000  0.0002535 -0.0002535  1.0000000 
    4   983     4  1.5984068 -0.0032943  0.9999999  0.0004232 -0.0004232  0.9999999 
    4   984     1  1.6024340 -0.0021166  1.0000000  0.0001328 -0.0001328  1.0000000 
    4   984     2  1.6022705 -0.0024594  0.9999996  0.0009389 -0.0009389  0.9999996 
    4   984     3  1.5985630 -0.0033020  1.0000000  0.0002726 -0.0002726  1.0000000 
    4   984     4  1.5983829 -0.0036476  0.9999994  0.0010734 -0.0010734  0.9999994 
    4   985     1  1.6046883 -0.0030674  1.0000000  0.0002507 -0.0002507  1.0000000 
    4   985     2  1.6085113 -0.0018925  1.0000000  0.0001015 -0.0001015  1.0000000 
    4   985     3  1.6045347 -0.0034205  0.9999995  0.0010347 -0.0010347  0.9999995 
    4   985     4  1.6083707 -0.0022444  0.9999996  0.0008922 -0.0008922  0.9999996 
    4   986     1  1.6044586 -0.0034604  0.9999993  0.0011809 -0.0011809  0.9999993 
    4   986     2  1.6045863 -0.0030549  0.9999999  0.0003943 -0.0003943  0.9999999 
    4   986     3  1.6083237 -0.0022635  0.9999995  0.0010072 -0.0010072  0.9999995 
    4   986     4  1.6084336 -0.0018598  1.0000000  0.0002135 -0.0002135  1.0000000 
    4   987     1  1.6045269 -0.0030224  0.9999999  0.0005416 -0.0005416  0.9999999 
    4   987     2  1.6084175 -0.0017951  0.9999999  0.0003213 -0.0003213  0.9999999 
    4   987     3  1.6043580 -0.0035241  0.9999991  0.0013382 -0.0013382  0.9999991 
    4   987     4  1.6082644 -0.0022969  0.9999994  0.0011261 -0.0011261  0.9999994 
    4   988     1  1.6043329 -0.0035668  0.9999989  0.0014912 -0.0014912  0.9999989 
    4   988     2  1.6044663 -0.0030037  0.9999998  0.0006932 -0.0006932  0.9999998 
    4   988     3  1.6082558 -0.0023139  0.9999992  0.0012423 -0.0012423  0.9999992 
    4   988     4  1.6083790 -0.0017478  0.9999999  0.0004355 -0.0004355  0.9999999 
    4   989     1  1.6020013 -0.0025331  0.9999991  0.0013225 -0.0013225  0.9999991 
    4   989     2  1.5979991 -0.0038019  0.9999988  0.0015618 -0.0015618  0.9999988 
    4   989     3  1.6021451 -0.0019738  0.9999999  0.0004910 -0.0004910  0.9999999 
    4   989     4  1.5981640 -0.0032428  0.9999997  0.0007400 -0.0007400  0.9999997 
    4   990     1  1.6022383 -0.0020292  0.9999999  0.0003697 -0.0003697  0.9999999 
    4   990     2  1.6020576 -0.0025199  0.9999993  0.0011951 -0.0011951  0.9999993 
    4   990     3  1.5982918 -0.0032656  0.9999998  0.0005778 -0.0005778  0.9999998 
    4   990     4  1.5980908 -0.0037581  0.9999990  0.0013959 -0.0013959  0.9999990 
    4   991     1  1.6143361 -0.0021056  0.9999993  0.0011733 -0.0011733  0.9999993 
    4   991     2  1.6105346 -0.0033218  0.9999990  0.0014168 -0.0014168  0.9999990 
    4   991     3  1.6144330 -0.0015558  0.9999999  0.0003886 -0.0003886  0.9999999 
    4   991     4  1.6106445 -0.0027740  0.9999998  0.0006406 -0.0006406  0.9999998 
    4   992     1  1.6144311 -0.0016052  1.0000000  0.0002814 -0.0002814  1.0000000 
    4   992     2  1.6143057 -0.0020965  0.9999994  0.0010656 -0.0010656  0.9999994 
    4   992     3  1.6106602 -0.0027973  0.9999999  0.0004987 -0.0004987  0.9999999 
    4   992     4  1.6105218 -0.0032882  0.9999992  0.0012759 -0.0012759  0.9999992 
    4   993     1  1.6166299 -0.0025910  0.9999999  0.0004605 -0.0004605  0.9999999 
    4   993     2  1.6203560 -0.0014090  1.0000000  0.0002397 -0.0002397  1.0000000 
    4   993     3  1.6165140 -0.0030768  0.9999993  0.0012190 -0.0012190  0.9999993 
    4   993     4  1.6202478 -0.0018971  0.9999995  0.0010057 -0.0010057  0.9999995 
    4   994     1  1.6165675 -0.0031110  0.9999991  0.0013495 -0.0013495  0.9999991 
    4   994     2  1.6166556 -0.0025709  0.9999998  0.0005927 -0.0005927  0.9999998 
    4   994     3  1.6203067 -0.0019106  0.9999994  0.0011046 -0.0011046  0.9999994 
    4   994     4  1.6203887 -0.0013671  0.9999999  0.0003403 -0.0003403  0.9999999 
    4   995     1  1.6143221 -0.0020639  0.9999995  0.0009557 -0.0009557  0.9999995 
    4   995     2  1.6105697 -0.0032287  0.9999994  0.0011299 -0.0011299  0.9999994 
    4   995     3  1.6144128 -0.0016631  1.0000000  0.0001803 -0.0001803  1.0000000 
    4   995     4  1.6106687 -0.0028292  0.9999999  0.0003620 -0.0003620  0.9999999 
    4   996     1  1.6144478 -0.0016987  1.0000000  0.0000750 -0.0000750  1.0000000 
    4   996     2  1.6143337 -0.0020470  0.9999996  0.0008486 -0.0008486  0.9999996 
    4   996     3  1.6107244 -0.0028453  1.0000000  0.0002258 -0.0002258  1.0000000 
    4   996     4  1.6105961 -0.0031950  0.9999995  0.0009929 -0.0009929  0.9999995 
    4   997     1  1.6166216 -0.0026416  1.0000000  0.0002030 -0.0002030  1.0000000 
    4   997     2  1.6203002 -0.0015062  1.0000000  0.0000482 -0.0000482  1.0000000 
    4   997     3  1.6165183 -0.0029877  0.9999995  0.0009528 -0.0009528  0.9999995 
    4   997     4  1.6202082 -0.0018520  0.9999997  0.0008051 -0.0008051  0.9999997 
    4   998     1  1.6165230 -0.0030228  0.9999994  0.0010814 -0.0010814  0.9999994 
    4   998     2  1.6166062 -0.0026229  0.9999999  0.0003312 -0.0003312  0.9999999 
    4   998     3  1.6202322 -0.0018681  0.9999996  0.0009028 -0.0009028  0.9999996 
    4   998     4  1.6203025 -0.0014684  1.0000000  0.0001456 -0.0001456  1.0000000 
    4   999     1  1.6261577 -0.0012491  1.0000000  0.0002059 -0.0002059  1.0000000 
    4   999     2  1.6260764 -0.0017104  0.9999995  0.0009539 -0.0009539  0.9999995 
    4   999     3  1.6225189 -0.0024011  0.9999999  0.0004169 -0.0004169  0.9999999 
    4   999     4  1.6224257 -0.0028622  0.9999993  0.0011588 -0.0011588  0.9999993 
    4  1000     1  1.6282943 -0.0022214  0.9999999  0.0003808 -0.0003808  0.9999999 
    4  1000     2  1.6319059 -0.0010759  1.0000000  0.0001686 -0.0001686  1.0000000 
    4  1000     3  1.6282216 -0.0026727  0.9999994  0.0011061 -0.0011061  0.9999994 
    4  1000     4  1.6318388 -0.0015297  0.9999996  0.0009006 -0.0009006  0.9999996 
    4  1001     1  1.6283166 -0.0027045  0.9999993  0.0012196 -0.0012196  0.9999993 
    4  1001     2  1.6283754 -0.0022026  0.9999999  0.0004949 -0.0004949  0.9999999 
    4  1001     3  1.6319375 -0.0015436  0.9999995  0.0009865 -0.0009865  0.9999995 
    4  1001     4  1.6319924 -0.0010385  1.0000000  0.0002554 -0.0002554  1.0000000 
    4  1002     1  1.6261578 -0.0017200  0.9999995  0.0010469 -0.0010469  0.9999995 
    4  1002     2  1.6225012 -0.0028903  0.9999992  0.0012800 -0.0012800  0.9999992 
    4  1002     3  1.6262219 -0.0012067  1.0000000  0.0002997 -0.0002997  1.0000000 
    4  1002     4  1.6225703 -0.0023803  0.9999999  0.0005399 -0.0005399  0.9999999 
    4  1003     1  1.6281673 -0.0026304  0.9999995  0.0009857 -0.0009857  0.9999995 
    4  1003     2  1.6282150 -0.0022526  1.0000000  0.0002670 -0.0002670  1.0000000 
    4  1003     3  1.6317674 -0.0015080  0.9999997  0.0008101 -0.0008101  0.9999997 
    4  1003     4  1.6318056 -0.0011298  1.0000000  0.0000854 -0.0000854  1.0000000 
    4  1004     1  1.6260291 -0.0016855  0.9999996  0.0008574 -0.0008574  0.9999996 
    4  1004     2  1.6224040 -0.0028138  0.9999995  0.0010310 -0.0010310  0.9999995 
    4  1004     3  1.6260830 -0.0013014  1.0000000  0.0001170 -0.0001170  1.0000000 
    4  1004     4  1.6224632 -0.0024316  1.0000000  0.0002973 -0.0002973  1.0000000 
    4  1005     1  1.6260414 -0.0013400  1.0000000  0.0000251 -0.0000251  1.0000000 
    4  1005     2  1.6259775 -0.0016721  0.9999997  0.0007648 -0.0007648  0.9999997 
    4  1005     3  1.6224411 -0.0024518  1.0000000  0.0001772 -0.0001772  1.0000000 
    4  1005     4  1.6223622 -0.0027856  0.9999996  0.0009108 -0.0009108  0.9999996 
    4  1006     1  1.6281588 -0.0022747  1.0000000  0.0001547 -0.0001547  1.0000000 
    4  1006     2  1.6317346 -0.0011685  1.0000000 -7.13e-007  7.13e-007  1.0000000 
    4  1006     3  1.6281039 -0.0026041  0.9999996  0.0008728 -0.0008728  0.9999996 
    4  1006     4  1.6316893 -0.0014977  0.9999997  0.0007233 -0.0007233  0.9999997 
    4  1007     1  1.6374459 -0.0013377  0.9999997  0.0007720 -0.0007720  0.9999997 
    4  1007     2  1.6338930 -0.0024432  0.9999996  0.0009399 -0.0009399  0.9999996 
    4  1007     3  1.6374717 -0.0009828  1.0000000  0.0000607 -0.0000607  1.0000000 
    4  1007     4  1.6339207 -0.0020902  1.0000000  0.0002338 -0.0002338  1.0000000 
    4  1008     1  1.6373650 -0.0010172  1.0000000 -0.0000232  0.0000232  1.0000000 
    4  1008     2  1.6373438 -0.0013306  0.9999998  0.0006860 -0.0006860  0.9999998 
    4  1008     3  1.6338353 -0.0021087  1.0000000  0.0001286 -0.0001286  1.0000000 
    4  1008     4  1.6338012 -0.0024241  0.9999997  0.0008338 -0.0008338  0.9999997 
    4  1009     1  1.6394629 -0.0019543  1.0000000  0.0001065 -0.0001065  1.0000000 
    4  1009     2  1.6430044 -0.0008595  1.0000000 -0.0000445  0.0000445  1.0000000 
    4  1009     3  1.6394509 -0.0022538  0.9999997  0.0008038 -0.0008038  0.9999997 
    4  1009     4  1.6429960 -0.0011592  0.9999998  0.0006556 -0.0006556  0.9999998 
    4  1010     1  1.6395519 -0.0022786  0.9999996  0.0009000 -0.0009000  0.9999996 
    4  1010     2  1.6395739 -0.0019354  1.0000000  0.0002043 -0.0002043  1.0000000 
    4  1010     3  1.6431018 -0.0011745  0.9999997  0.0007337 -0.0007337  0.9999997 
    4  1010     4  1.6431226 -0.0008293  1.0000000  0.0000332 -0.0000332  1.0000000 
    4  1011     1  1.6396837 -0.0019081  1.0000000  0.0003029 -0.0003029  1.0000000 
    4  1011     2  1.6432363 -0.0007876  1.0000000  0.0001064 -0.0001064  1.0000000 
    4  1011     3  1.6396431 -0.0023110  0.9999995  0.0010020 -0.0010020  0.9999995 
    4  1011     4  1.6431950 -0.0011942  0.9999997  0.0008117 -0.0008117  0.9999997 
    4  1012     1  1.6397607 -0.0023398  0.9999994  0.0010999 -0.0010999  0.9999994 
    4  1012     2  1.6397952 -0.0018889  0.9999999  0.0004024 -0.0004024  0.9999999 
    4  1012     3  1.6433090 -0.0012096  0.9999996  0.0008848 -0.0008848  0.9999996 
    4  1012     4  1.6433433 -0.0007550  1.0000000  0.0001814 -0.0001814  1.0000000 
    4  1013     1  1.6376463 -0.0013663  0.9999996  0.0009382 -0.0009382  0.9999996 
    4  1013     2  1.6340764 -0.0025031  0.9999993  0.0011549 -0.0011549  0.9999993 
    4  1013     3  1.6376844 -0.0009019  1.0000000  0.0002210 -0.0002210  1.0000000 
    4  1013     4  1.6341172 -0.0020421  0.9999999  0.0004443 -0.0004443  0.9999999 
    4  1014     1  1.6375823 -0.0009414  1.0000000  0.0001399 -0.0001399  1.0000000 
    4  1014     2  1.6375368 -0.0013571  0.9999996  0.0008574 -0.0008574  0.9999996 
    4  1014     3  1.6340211 -0.0020645  0.9999999  0.0003374 -0.0003374  0.9999999 
    4  1014     4  1.6339692 -0.0024792  0.9999994  0.0010498 -0.0010498  0.9999994 
    4  1015     1  1.6489382 -0.0010464  0.9999996  0.0008428 -0.0008428  0.9999996 
    4  1015     2  1.6454125 -0.0021599  0.9999995  0.0010399 -0.0010399  0.9999995 
    4  1015     3  1.6489629 -0.0006343  1.0000000  0.0001512 -0.0001512  1.0000000 
    4  1015     4  1.6454348 -0.0017525  0.9999999  0.0003550 -0.0003550  0.9999999 
    4  1016     1  1.6488588 -0.0006699  1.0000000  0.0000815 -0.0000815  1.0000000 
    4  1016     2  1.6488291 -0.0010359  0.9999997  0.0007749 -0.0007749  0.9999997 
    4  1016     3  1.6453257 -0.0017759  1.0000000  0.0002609 -0.0002609  1.0000000 
    4  1016     4  1.6452962 -0.0021393  0.9999995  0.0009492 -0.0009492  0.9999995 
    4  1017     1  1.6509407 -0.0016391  1.0000000  0.0002272 -0.0002272  1.0000000 
    4  1017     2  1.6544696 -0.0005363  1.0000000  0.0000524 -0.0000524  1.0000000 
    4  1017     3  1.6509130 -0.0019881  0.9999996  0.0009034 -0.0009034  0.9999996 
    4  1017     4  1.6544354 -0.0008904  0.9999997  0.0007351 -0.0007351  0.9999997 
    4  1018     1  1.6510255 -0.0020123  0.9999995  0.0009882 -0.0009882  0.9999995 
    4  1018     2  1.6510480 -0.0016190  1.0000000  0.0003155 -0.0003155  1.0000000 
    4  1018     3  1.6545381 -0.0009050  0.9999997  0.0007961 -0.0007961  0.9999997 
    4  1018     4  1.6545636 -0.0005072  1.0000000  0.0001173 -0.0001173  1.0000000 
    4  1019     1  1.6487401 -0.0010177  0.9999998  0.0007038 -0.0007038  0.9999998 
    4  1019     2  1.6452044 -0.0021121  0.9999996  0.0008573 -0.0008573  0.9999996 
    4  1019     3  1.6487615 -0.0007007  1.0000000  0.0000122 -0.0000122  1.0000000 
    4  1019     4  1.6452183 -0.0017994  1.0000000  0.0001704 -0.0001704  1.0000000 
    4  1020     1  1.6486610 -0.0007239  1.0000000 -0.0000619  0.0000619  1.0000000 
    4  1020     2  1.6486505 -0.0010054  0.9999998  0.0006331 -0.0006331  0.9999998 
    4  1020     3  1.6451036 -0.0018196  1.0000000  0.0000799 -0.0000799  1.0000000 
    4  1020     4  1.6451004 -0.0020980  0.9999997  0.0007722 -0.0007722  0.9999997 
    4  1021     1  1.6507601 -0.0016892  1.0000000  0.0000506 -0.0000506  1.0000000 
    4  1021     2  1.6543393 -0.0005920  1.0000000 -0.0000780  0.0000780  1.0000000 
    4  1021     3  1.6507495 -0.0019392  0.9999997  0.0007353 -0.0007353  0.9999997 
    4  1021     4  1.6543078 -0.0008499  0.9999998  0.0006118 -0.0006118  0.9999998 
    4  1022     1  1.6508257 -0.0019629  0.9999997  0.0008162 -0.0008162  0.9999997 
    4  1022     2  1.6508482 -0.0016642  1.0000000  0.0001397 -0.0001397  1.0000000 
    4  1022     3  1.6543616 -0.0008720  0.9999998  0.0006714 -0.0006714  0.9999998 
    4  1022     4  1.6543940 -0.0005678  1.0000000 -0.0000113  0.0000113  1.0000000 
    4  1023     1  1.6600605 -0.0004271  1.0000000  0.0000306 -0.0000306  1.0000000 
    4  1023     2  1.6600312 -0.0007455  0.9999998  0.0007017 -0.0007017  0.9999998 
    4  1023     3  1.6565406 -0.0015199  1.0000000  0.0001898 -0.0001898  1.0000000 
    4  1023     4  1.6565142 -0.0018346  0.9999996  0.0008545 -0.0008545  0.9999996 
    4  1024     1  1.6621267 -0.0013976  1.0000000  0.0001604 -0.0001604  1.0000000 
    4  1024     2  1.6656377 -0.0003092  1.0000000  5.80e-006 -5.80e-006  1.0000000 
    4  1024     3  1.6620987 -0.0017007  0.9999997  0.0008126 -0.0008126  0.9999997 
    4  1024     4  1.6656053 -0.0006166  0.9999998  0.0006648 -0.0006648  0.9999998 
    4  1025     1  1.6621946 -0.0017239  0.9999996  0.0008876 -0.0008876  0.9999996 
    4  1025     2  1.6622143 -0.0013789  1.0000000  0.0002381 -0.0002381  1.0000000 
    4  1025     3  1.6656925 -0.0006309  0.9999997  0.0007157 -0.0007157  0.9999997 
    4  1025     4  1.6657143 -0.0002822  1.0000000  0.0000602 -0.0000602  1.0000000 
    4  1026     1  1.6601250 -0.0007588  0.9999997  0.0007577 -0.0007577  0.9999997 
    4  1026     2  1.6566187 -0.0018564  0.9999996  0.0009343 -0.0009343  0.9999996 
    4  1026     3  1.6601462 -0.0003973  1.0000000  0.0000903 -0.0000903  1.0000000 
    4  1026     4  1.6566358 -0.0014994  1.0000000  0.0002733 -0.0002733  1.0000000 
    4  1027     1  1.6620353 -0.0016765  0.9999997  0.0007345 -0.0007345  0.9999997 
    4  1027     2  1.6620754 -0.0014198  1.0000000  0.0000826 -0.0000826  1.0000000 
    4  1027     3  1.6655545 -0.0005994  0.9999998  0.0006136 -0.0006136  0.9999998 
    4  1027     4  1.6656001 -0.0003382  1.0000000 -0.0000462  0.0000462  1.0000000 
    4  1028     1  1.6599695 -0.0007283  0.9999998  0.0006444 -0.0006444  0.9999998 
    4  1028     2  1.6564426 -0.0018102  0.9999997  0.0007726 -0.0007726  0.9999997 
    4  1028     3  1.6600089 -0.0004554  1.0000000 -0.0000276  0.0000276  1.0000000 
    4  1028     4  1.6564713 -0.0015430  1.0000000  0.0001074 -0.0001074  1.0000000 
    4  1029     1  1.6599941 -0.0004796  1.0000000 -0.0000880  0.0000880  1.0000000 
    4  1029     2  1.6599407 -0.0007105  0.9999998  0.0005928 -0.0005928  0.9999998 
    4  1029     3  1.6564247 -0.0015678  1.0000000  0.0000218 -0.0000218  1.0000000 
    4  1029     4  1.6563903 -0.0017902  0.9999998  0.0006939 -0.0006939  0.9999998 
    4  1030     1  1.6620685 -0.0014441  1.0000000  3.62e-007 -3.62e-007  1.0000000 
    4  1030     2  1.6656110 -0.0003676  1.0000000 -0.0000970  0.0000970  1.0000000 
    4  1030     3  1.6620155 -0.0016441  0.9999998  0.0006561 -0.0006561  0.9999998 
    4  1030     4  1.6655491 -0.0005731  0.9999998  0.0005690 -0.0005690  0.9999998 
    4  1031     1  1.6711232 -0.0004752  0.9999998  0.0005822 -0.0005822  0.9999998 
    4  1031     2  1.6676169 -0.0015458  0.9999998  0.0006951 -0.0006951  0.9999998 
    4  1031     3  1.6711618 -0.0002364  1.0000000 -0.0000625  0.0000625  1.0000000 
    4  1031     4  1.6676569 -0.0013090  1.0000000  0.0000571 -0.0000571  1.0000000 
    4  1032     1  1.6711611 -0.0002662  1.0000000 -0.0001096  0.0001096  1.0000000 
    4  1032     2  1.6711105 -0.0004580  0.9999999  0.0005362 -0.0005362  0.9999999 
    4  1032     3  1.6676663 -0.0013271  1.0000000 -0.0000178  0.0000178  1.0000000 
    4  1032     4  1.6676088 -0.0015185  0.9999998  0.0006193 -0.0006193  0.9999998 
    4  1033     1  1.6732010 -0.0012109  1.0000000 -0.0000321  0.0000321  1.0000000 
    4  1033     2  1.6766638 -0.0001587  1.0000000 -0.0001264  0.0001264  1.0000000 
    4  1033     3  1.6731596 -0.0013963  0.9999998  0.0005891 -0.0005891  0.9999998 
    4  1033     4  1.6766364 -0.0003417  0.9999999  0.0005008 -0.0005008  0.9999999 
    4  1034     1  1.6731752 -0.0014293  0.9999998  0.0006611 -0.0006611  0.9999998 
    4  1034     2  1.6732101 -0.0011963  1.0000000  0.0000366 -0.0000366  1.0000000 
    4  1034     3  1.6766684 -0.0003619  0.9999999  0.0005470 -0.0005470  0.9999999 
    4  1034     4  1.6766977 -0.0001285  1.0000000 -0.0000834  0.0000834  1.0000000 
    4  1035     1  1.6732546 -0.0011798  1.0000000  0.0001032 -0.0001032  1.0000000 
    4  1035     2  1.6767491 -0.0001009  1.0000000 -0.0000396  0.0000396  1.0000000 
    4  1035     3  1.6732331 -0.0014511  0.9999997  0.0007309 -0.0007309  0.9999997 
    4  1035     4  1.6767275 -0.0003748  0.9999998  0.0005939 -0.0005939  0.9999998 
    4  1036     1  1.6733231 -0.0014738  0.9999997  0.0007972 -0.0007972  0.9999997 
    4  1036     2  1.6733367 -0.0011648  1.0000000  0.0001695 -0.0001695  1.0000000 
    4  1036     3  1.6768161 -0.0003882  0.9999998  0.0006383 -0.0006383  0.9999998 
    4  1036     4  1.6768289 -0.0000769  1.0000000  5.62e-006 -5.62e-006  1.0000000 
    4  1037     1  1.6712616 -0.0005005  0.9999998  0.0006792 -0.0006792  0.9999998 
    4  1037     2  1.6677606 -0.0015888  0.9999996  0.0008392 -0.0008392  0.9999996 
    4  1037     3  1.6712767 -0.0001822  1.0000000  0.0000351 -0.0000351  1.0000000 
    4  1037     4  1.6677747 -0.0012735  1.0000000  0.0002007 -0.0002007  1.0000000 
    4  1038     1  1.6711993 -0.0002090  1.0000000 -0.0000149  0.0000149  1.0000000 
    4  1038     2  1.6711757 -0.0004887  0.9999998  0.0006312 -0.0006312  0.9999998 
    4  1038     3  1.6676951 -0.0012907  1.0000000  0.0001286 -0.0001286  1.0000000 
    4  1038     4  1.6676699 -0.0015684  0.9999997  0.0007687 -0.0007687  0.9999997 
    4  1039     1  1.6823032 -0.0000109  1.0000000 -0.0000599  0.0000599  1.0000000 
    4  1039     2  1.6822948 -0.0002604  0.9999998  0.0005620 -0.0005620  0.9999998 
    4  1039     3  1.6788020 -0.0010883  1.0000000  0.0000744 -0.0000744  1.0000000 
    4  1039     4  1.6787886 -0.0013376  0.9999998  0.0006922 -0.0006922  0.9999998 
    4  1040     1  1.6843607 -0.0009936  1.0000000  0.0000511 -0.0000511  1.0000000 
    4  1040     2  1.6878671  0.0000856  1.0000000 -0.0000833  0.0000833  1.0000000 
    4  1040     3  1.6843550 -0.0012373  0.9999998  0.0006599 -0.0006599  0.9999998 
    4  1040     4  1.6878618 -0.0001596  0.9999999  0.0005295 -0.0005295  0.9999999 
    4  1041     1  1.6844478 -0.0012565  0.9999997  0.0007142 -0.0007142  0.9999997 
    4  1041     2  1.6844531 -0.0009805  1.0000000  0.0001060 -0.0001060  1.0000000 
    4  1041     3  1.6879531 -0.0001720  0.9999998  0.0005666 -0.0005666  0.9999998 
    4  1041     4  1.6879585  0.0001059  1.0000000 -0.0000459  0.0000459  1.0000000 
    4  1042     1  1.6823845 -0.0002703  0.9999998  0.0006040 -0.0006040  0.9999998 
    4  1042     2  1.6788798 -0.0013549  0.9999997  0.0007527 -0.0007527  0.9999997 
    4  1042     3  1.6823908  0.0000142  1.0000000 -0.0000185  0.0000185  1.0000000 
    4  1042     4  1.6788852 -0.0010730  1.0000000  0.0001353 -0.0001353  1.0000000 
    4  1043     1  1.6822193 -0.0002488  0.9999999  0.0005171 -0.0005171  0.9999999 
    4  1043     2  1.6787229 -0.0013168  0.9999998  0.0006298 -0.0006298  0.9999998 
    4  1043     3  1.6822323 -0.0000315  1.0000000 -0.0001010  0.0001010  1.0000000 
    4  1043     4  1.6787436 -0.0010986  1.0000000  0.0000155 -0.0000155  1.0000000 
    4  1044     1  1.6821542 -0.0000570  1.0000000 -0.0001428  0.0001428  1.0000000 
    4  1044     2  1.6821528 -0.0002397  0.9999999  0.0004710 -0.0004710  0.9999999 
    4  1044     3  1.6786955 -0.0011095  1.0000000 -0.0000435  0.0000435  1.0000000 
    4  1044     4  1.6786771 -0.0012963  0.9999998  0.0005670 -0.0005670  0.9999998 
    4  1045     1  1.6841976 -0.0010173  1.0000000 -0.0000545  0.0000545  1.0000000 
    4  1045     2  1.6876824  0.0000443  1.0000000 -0.0001579  0.0001579  1.0000000 
    4  1045     3  1.6842055 -0.0011976  0.9999998  0.0005505 -0.0005505  0.9999998 
    4  1045     4  1.6876999 -0.0001334  0.9999999  0.0004482 -0.0004482  0.9999999 
    4  1046     1  1.6842743 -0.0012202  0.9999998  0.0006046 -0.0006046  0.9999998 
    4  1046     2  1.6842832 -0.0010056  1.0000000 -1.94e-006  1.94e-006  1.0000000 
    4  1046     3  1.6877805 -0.0001483  0.9999999  0.0004894 -0.0004894  0.9999999 
    4  1046     4  1.6877855  0.0000662  1.0000000 -0.0001202  0.0001202  1.0000000 
    4  1047     1  1.6935422 -0.0000716  0.9999999  0.0005350 -0.0005350  0.9999999 
    4  1047     2  1.6900202 -0.0011574  0.9999998  0.0006740 -0.0006740  0.9999998 
    4  1047     3  1.6935443  0.0001850  1.0000000 -0.0000690  0.0000690  1.0000000 
    4  1047     4  1.6900202 -0.0009032  1.0000000  0.0000741 -0.0000741  1.0000000 
    4  1048     1  1.6934549  0.0001651  1.0000000 -0.0001029  0.0001029  1.0000000 
    4  1048     2  1.6934550 -0.0000617  0.9999999  0.0005018 -0.0005018  0.9999999 
    4  1048     3  1.6899285 -0.0009171  1.0000000  0.0000240 -0.0000240  1.0000000 
    4  1048     4  1.6899285 -0.0011427  0.9999998  0.0006254 -0.0006254  0.9999998 
    4  1049     1  1.6955233 -0.0008397  1.0000000 -2.03e-007  2.03e-007  1.0000000 
    4  1049     2  1.6990608  0.0002449  1.0000000 -0.0001245  0.0001245  1.0000000 
    4  1049     3  1.6955238 -0.0010582  0.9999998  0.0005937 -0.0005937  0.9999998 
    4  1049     4  1.6990572  0.0000239  0.9999999  0.0004731 -0.0004731  0.9999999 
    4  1050     1  1.6956110 -0.0010730  0.9999998  0.0006375 -0.0006375  0.9999998 
    4  1050     2  1.6956124 -0.0008270  1.0000000  0.0000456 -0.0000456  1.0000000 
    4  1050     3  1.6991378  0.0000130  0.9999999  0.0005019 -0.0005019  0.9999999 
    4  1050     4  1.6991421  0.0002614  1.0000000 -0.0000938  0.0000938  1.0000000 
    4  1051     1  1.6933749 -0.0000517  0.9999999  0.0004665 -0.0004665  0.9999999 
    4  1051     2  1.6898458 -0.0011290  0.9999998  0.0005776 -0.0005776  0.9999998 
    4  1051     3  1.6933748  0.0001495  1.0000000 -0.0001366  0.0001366  1.0000000 
    4  1051     4  1.6898456 -0.0009286  1.0000000 -0.0000231  0.0000231  1.0000000 
    4  1052     1  1.6932720  0.0001321  1.0000000 -0.0001724  0.0001724  1.0000000 
    4  1052     2  1.6932925 -0.0000442  0.9999999  0.0004306 -0.0004306  0.9999999 
    4  1052     3  1.6897425 -0.0009428  1.0000000 -0.0000690  0.0000690  1.0000000 
    4  1052     4  1.6897636 -0.0011188  0.9999999  0.0005334 -0.0005334  0.9999999 
    4  1053     1  1.6953486 -0.0008716  1.0000000 -0.0000890  0.0000890  1.0000000 
    4  1053     2  1.6989169  0.0002130  1.0000000 -0.0001860  0.0001860  1.0000000 
    4  1053     3  1.6953695 -0.0010323  0.9999999  0.0005096 -0.0005096  0.9999999 
    4  1053     4  1.6989255  0.0000481  0.9999999  0.0004146 -0.0004146  0.9999999 
    4  1054     1  1.6954431 -0.0010481  0.9999998  0.0005499 -0.0005499  0.9999998 
    4  1054     2  1.6954434 -0.0008536  1.0000000 -0.0000441  0.0000441  1.0000000 
    4  1054     3  1.6989852  0.0000320  0.9999999  0.0004424 -0.0004424  0.9999999 
    4  1054     4  1.6989913  0.0002293  1.0000000 -0.0001548  0.0001548  1.0000000 
    4  1055     1  1.7046907  0.0003090  1.0000000 -0.0001411  0.0001411  1.0000000 
    4  1055     2  1.7046858  0.0001092  0.9999999  0.0004495 -0.0004495  0.9999999 
    4  1055     3  1.7011323 -0.0007780  1.0000000 -0.0000276  0.0000276  1.0000000 
    4  1055     4  1.7011323 -0.0009752  0.9999998  0.0005595 -0.0005595  0.9999998 
    4  1056     1  1.7067689 -0.0007153  1.0000000 -0.0000505  0.0000505  1.0000000 
    4  1056     2  1.7103344  0.0003725  1.0000000 -0.0001600  0.0001600  1.0000000 
    4  1056     3  1.7067627 -0.0009062  0.9999999  0.0005301 -0.0005301  0.9999999 
    4  1056     4  1.7103223  0.0001788  0.9999999  0.0004240 -0.0004240  0.9999999 
    4  1057     1  1.7068321 -0.0009170  0.9999998  0.0005650 -0.0005650  0.9999998 
    4  1057     2  1.7068347 -0.0007019  1.0000000 -0.0000127  0.0000127  1.0000000 
    4  1057     3  1.7103791  0.0001692  0.9999999  0.0004448 -0.0004448  0.9999999 
    4  1057     4  1.7103881  0.0003877  1.0000000 -0.0001370  0.0001370  1.0000000 
    4  1058     1  1.7047596  0.0000993  0.9999999  0.0004747 -0.0004747  0.9999999 
    4  1058     2  1.7012126 -0.0009882  0.9999998  0.0005989 -0.0005989  0.9999998 
    4  1058     3  1.7047611  0.0003229  1.0000000 -0.0001139  0.0001139  1.0000000 
    4  1058     4  1.7012114 -0.0007667  1.0000000  0.0000137 -0.0000137  1.0000000 
    4  1059     1  1.7046265  0.0001176  0.9999999  0.0004230 -0.0004230  0.9999999 
    4  1059     2  1.7010634 -0.0009655  0.9999999  0.0005199 -0.0005199  0.9999999 
    4  1059     3  1.7046351  0.0002948  1.0000000 -0.0001682  0.0001682  1.0000000 
    4  1059     4  1.7010667 -0.0007908  1.0000000 -0.0000682  0.0000682  1.0000000 
    4  1060     1  1.7045801  0.0002796  1.0000000 -0.0001982  0.0001982  1.0000000 
    4  1060     2  1.7045723  0.0001198  0.9999999  0.0003972 -0.0003972  0.9999999 
    4  1060     3  1.7009970 -0.0008071  1.0000000 -0.0001098  0.0001098  1.0000000 
    4  1060     4  1.7010002 -0.0009625  0.9999999  0.0004813 -0.0004813  0.9999999 
    4  1061     1  1.7066701 -0.0007418  1.0000000 -0.0001278  0.0001278  1.0000000 
    4  1061     2  1.7102633  0.0003453  1.0000000 -0.0002057  0.0002057  1.0000000 
    4  1061     3  1.7066641 -0.0008750  0.9999999  0.0004566 -0.0004566  0.9999999 
    4  1061     4  1.7102507  0.0002092  0.9999999  0.0003828 -0.0003828  0.9999999 
    4  1062     1  1.7067044 -0.0008950  0.9999999  0.0004941 -0.0004941  0.9999999 
    4  1062     2  1.7067150 -0.0007262  1.0000000 -0.0000871  0.0000871  1.0000000 
    4  1062     3  1.7102774  0.0001896  0.9999999  0.0004024 -0.0004024  0.9999999 
    4  1062     4  1.7102957  0.0003619  1.0000000 -0.0001829  0.0001829  1.0000000 
    4  1063     1  1.6957216 -0.0008166  1.0000000  0.0000893 -0.0000893  1.0000000 
    4  1063     2  1.6992358  0.0002741  1.0000000 -0.0000653  0.0000653  1.0000000 
    4  1063     3  1.6957545 -0.0010773  0.9999998  0.0006822 -0.0006822  0.9999998 
    4  1063     4  1.6992621  9.29e-006  0.9999999  0.0005325 -0.0005325  0.9999999 
    4  1064     1  1.6959329 -0.0010913  0.9999997  0.0007257 -0.0007257  0.9999997 
    4  1064     2  1.6958882 -0.0008060  1.0000000  0.0001351 -0.0001351  1.0000000 
    4  1064     3  1.6994288 -4.49e-008  0.9999998  0.0005594 -0.0005594  0.9999998 
    4  1064     4  1.6993853  0.0002877  1.0000000 -0.0000353  0.0000353  1.0000000 
    4  1065     1  1.6938547 -0.0000820  0.9999998  0.0006012 -0.0006012  0.9999998 
    4  1065     2  1.6903546 -0.0011761  0.9999997  0.0007712 -0.0007712  0.9999997 
    4  1065     3  1.6938100  0.0002153  1.0000000 -2.53e-006  2.53e-006  1.0000000 
    4  1065     4  1.6903076 -0.0008818  1.0000000  0.0001721 -0.0001721  1.0000000 
    4  1066     1  1.6936468  0.0001958  1.0000000 -0.0000362  0.0000362  1.0000000 
    4  1066     2  1.6936807 -0.0000756  0.9999998  0.0005697 -0.0005697  0.9999998 
    4  1066     3  1.6901363 -0.0008951  1.0000000  0.0001215 -0.0001215  1.0000000 
    4  1066     4  1.6901706 -0.0011645  0.9999997  0.0007233 -0.0007233  0.9999997 
    4  1067     1  1.7050336  0.0000901  0.9999999  0.0005257 -0.0005257  0.9999999 
    4  1067     2  1.7015125 -0.0010013  0.9999998  0.0006769 -0.0006769  0.9999998 
    4  1067     3  1.7049857  0.0003441  1.0000000 -0.0000616  0.0000616  1.0000000 
    4  1067     4  1.7014615 -0.0007500  1.0000000  0.0000937 -0.0000937  1.0000000 
    4  1068     1  1.7048470  0.0003311  1.0000000 -0.0000881  0.0000881  1.0000000 
    4  1068     2  1.7048756  0.0000963  0.9999999  0.0005015 -0.0005015  0.9999999 
    4  1068     3  1.7013103 -0.0007600  1.0000000  0.0000523 -0.0000523  1.0000000 
    4  1068     4  1.7013415 -0.0009924  0.9999998  0.0006381 -0.0006381  0.9999998 
    4  1069     1  1.7069256 -0.0006950  1.0000000  0.0000224 -0.0000224  1.0000000 
    4  1069     2  1.7104598  0.0003942  1.0000000 -0.0001150  0.0001150  1.0000000 
    4  1069     3  1.7069517 -0.0009228  0.9999998  0.0006008 -0.0006008  0.9999998 
    4  1069     4  1.7104790  0.0001628  0.9999999  0.0004674 -0.0004674  0.9999999 
    4  1070     1  1.7071092 -0.0009297  0.9999998  0.0006351 -0.0006351  0.9999998 
    4  1070     2  1.7070650 -0.0006822  1.0000000  0.0000603 -0.0000603  1.0000000 
    4  1070     3  1.7106156  0.0001562  0.9999999  0.0004871 -0.0004871  0.9999999 
    4  1070     4  1.7105793  0.0004081  1.0000000 -0.0000926  0.0000926  1.0000000 
    4  1071     1  1.7051670  0.0003465  1.0000000 -0.0000365  0.0000365  1.0000000 
    4  1071     2  1.7052779  0.0000943  0.9999998  0.0005513 -0.0005513  0.9999998 
    4  1071     3  1.7016704 -0.0007458  1.0000000  0.0001313 -0.0001313  1.0000000 
    4  1071     4  1.7017846 -0.0009947  0.9999997  0.0007141 -0.0007141  0.9999997 
    4  1072     1  1.7072618 -0.0006782  1.0000000  0.0000947 -0.0000947  1.0000000 
    4  1072     2  1.7107406  0.0004080  1.0000000 -0.0000706  0.0000706  1.0000000 
    4  1072     3  1.7073660 -0.0009263  0.9999998  0.0006692 -0.0006692  0.9999998 
    4  1072     4  1.7108361  0.0001551  0.9999999  0.0005087 -0.0005087  0.9999999 
    4  1073     1  1.7076970 -0.0009262  0.9999998  0.0007016 -0.0007016  0.9999998 
    4  1073     2  1.7075553 -0.0006627  1.0000000  0.0001338 -0.0001338  1.0000000 
    4  1073     3  1.7111276  0.0001521  0.9999999  0.0005256 -0.0005256  0.9999999 
    4  1073     4  1.7109957  0.0004217  1.0000000 -0.0000485  0.0000485  1.0000000 
    4  1074     1  1.7056034  0.0000913  0.9999998  0.0005724 -0.0005724  0.9999998 
    4  1074     2  1.7021368 -0.0009983  0.9999997  0.0007509 -0.0007509  0.9999997 
    4  1074     3  1.7054524  0.0003574  1.0000000 -0.0000107  0.0000107  1.0000000 
    4  1074     4  1.7019835 -0.0007355  1.0000000  0.0001729 -0.0001729  1.0000000 
    4  1075     1  1.6961088 -0.0007978  1.0000000  0.0001775 -0.0001775  1.0000000 
    4  1075     2  1.6995767  0.0002952  1.0000000 -7.22e-006  7.22e-006  1.0000000 
    4  1075     3  1.6962260 -0.0010827  0.9999997  0.0007678 -0.0007678  0.9999997 
    4  1075     4  1.6996865  5.18e-006  0.9999998  0.0005888 -0.0005888  0.9999998 
    4  1076     1  1.6965846 -0.0010909  0.9999997  0.0008083 -0.0008083  0.9999997 
    4  1076     2  1.6964393 -0.0007869  1.0000000  0.0002219 -0.0002219  1.0000000 
    4  1076     3  1.7000248  1.20e-006  0.9999998  0.0006124 -0.0006124  0.9999998 
    4  1076     4  1.6998786  0.0003076  1.0000000  0.0000212 -0.0000212  1.0000000 
    4  1077     1  1.6944751 -0.0000745  0.9999998  0.0006642 -0.0006642  0.9999998 
    4  1077     2  1.6910199 -0.0011722  0.9999996  0.0008629 -0.0008629  0.9999996 
    4  1077     3  1.6943268  0.0002403  1.0000000  0.0000631 -0.0000631  1.0000000 
    4  1077     4  1.6908692 -0.0008613  1.0000000  0.0002674 -0.0002674  1.0000000 
    4  1078     1  1.6940090  0.0002185  1.0000000  0.0000307 -0.0000307  1.0000000 
    4  1078     2  1.6941292 -0.0000772  0.9999998  0.0006349 -0.0006349  0.9999998 
    4  1078     3  1.6905354 -0.0008774  1.0000000  0.0002180 -0.0002180  1.0000000 
    4  1078     4  1.6906533 -0.0011716  0.9999997  0.0008181 -0.0008181  0.9999997 
    4  1079     1  1.6968671 -0.0007806  1.0000000  0.0002612 -0.0002612  1.0000000 
    4  1079     2  1.7002572  0.0003085  1.0000000  0.0000474 -0.0000474  1.0000000 
    4  1079     3  1.6971256 -0.0010672  0.9999996  0.0008443 -0.0008443  0.9999996 
    4  1079     4  1.7005099  0.0000161  0.9999998  0.0006373 -0.0006373  0.9999998 
    4  1080     1  1.6977736 -0.0010704  0.9999996  0.0008786 -0.0008786  0.9999996 
    4  1080     2  1.6974701 -0.0007686  1.0000000  0.0003025 -0.0003025  1.0000000 
    4  1080     3  1.7011232  0.0000157  0.9999998  0.0006537 -0.0006537  0.9999998 
    4  1080     4  1.7008178  0.0003207  1.0000000  0.0000717 -0.0000717  1.0000000 
    4  1081     1  1.6955899 -0.0000478  0.9999997  0.0007170 -0.0007170  0.9999997 
    4  1081     2  1.6921998 -0.0011458  0.9999996  0.0009438 -0.0009438  0.9999996 
    4  1081     3  1.6952755  0.0002603  1.0000000  0.0001210 -0.0001210  1.0000000 
    4  1081     4  1.6918884 -0.0008417  0.9999999  0.0003552 -0.0003552  0.9999999 
    4  1082     1  1.6947107  0.0002392  1.0000000  0.0000953 -0.0000953  1.0000000 
    4  1082     2  1.6949751 -0.0000598  0.9999998  0.0006937 -0.0006937  0.9999998 
    4  1082     3  1.6913041 -0.0008555  1.0000000  0.0003112 -0.0003112  1.0000000 
    4  1082     4  1.6915627 -0.0011535  0.9999996  0.0009051 -0.0009051  0.9999996 
    4  1083     1  1.7066577  0.0001012  0.9999998  0.0006131 -0.0006131  0.9999998 
    4  1083     2  1.7032999 -0.0009745  0.9999997  0.0008194 -0.0008194  0.9999997 
    4  1083     3  1.7063507  0.0003627  1.0000000  0.0000438 -0.0000438  1.0000000 
    4  1083     4  1.7029936 -0.0007161  1.0000000  0.0002556 -0.0002556  1.0000000 
    4  1084     1  1.7058176  0.0003541  1.0000000  0.0000148 -0.0000148  1.0000000 
    4  1084     2  1.7060682  0.0001031  0.9999998  0.0005946 -0.0005946  0.9999998 
    4  1084     3  1.7024024 -0.0007306  1.0000000  0.0002107 -0.0002107  1.0000000 
    4  1084     4  1.7026554 -0.0009777  0.9999997  0.0007844 -0.0007844  0.9999997 
    4  1085     1  1.7079529 -0.0006565  1.0000000  0.0001699 -0.0001699  1.0000000 
    4  1085     2  1.7113260  0.0004164  1.0000000 -0.0000253  0.0000253  1.0000000 
    4  1085     3  1.7081893 -0.0009095  0.9999997  0.0007326 -0.0007326  0.9999997 
    4  1085     4  1.7115547  0.0001576  0.9999999  0.0005437 -0.0005437  0.9999999 
    4  1086     1  1.7087970 -0.0008997  0.9999997  0.0007637 -0.0007637  0.9999997 
    4  1086     2  1.7085072 -0.0006247  1.0000000  0.0002129 -0.0002129  1.0000000 
    4  1086     3  1.7121006  0.0001628  0.9999998  0.0005556 -0.0005556  0.9999998 
    4  1086     4  1.7118118  0.0004423  1.0000000 -1.95e-006  1.95e-006  1.0000000 
    4  1087     1  1.7070293  0.0004080  1.0000000  0.0000803 -0.0000803  1.0000000 
    4  1087     2  1.7074197  0.0001299  0.9999998  0.0006341 -0.0006341  0.9999998 
    4  1087     3  1.7037332 -0.0006585  1.0000000  0.0002973 -0.0002973  1.0000000 
    4  1087     4  1.7041336 -0.0009368  0.9999996  0.0008552 -0.0008552  0.9999996 
    4  1088     1  1.7091707 -0.0006266  1.0000000  0.0002371 -0.0002371  1.0000000 
    4  1088     2  1.7124101  0.0004275  1.0000000  0.0000140 -0.0000140  1.0000000 
    4  1088     3  1.7095767 -0.0008693  0.9999997  0.0007874 -0.0007874  0.9999997 
    4  1088     4  1.7128500  0.0001918  0.9999998  0.0005685 -0.0005685  0.9999998 
    4  1089     1  1.7102933 -0.0009718  0.9999997  0.0008052 -0.0008052  0.9999997 
    4  1089     2  1.7099452 -0.0006569  1.0000000  0.0001450 -0.0001450  1.0000000 
    4  1089     3  1.7141590  0.0002687  0.9999998  0.0005658 -0.0005658  0.9999998 
    4  1089     4  1.7135019  0.0004477  1.0000000 -0.0000166  0.0000166  1.0000000 
    4  1090     1  1.7080098  0.0001268  0.9999997  0.0007138 -0.0007138  0.9999997 
    4  1090     2  1.7047403 -0.0008920  0.9999996  0.0008715 -0.0008715  0.9999996 
    4  1090     3  1.7077610  0.0002651  1.0000000  0.0001496 -0.0001496  1.0000000 
    4  1090     4  1.7043557 -0.0007852  1.0000000  0.0002854 -0.0002854  1.0000000 
    4  1091     1  1.6982758 -0.0007766  0.9999999  0.0003638 -0.0003638  0.9999999 
    4  1091     2  1.7014609  0.0002794  1.0000000  0.0001163 -0.0001163  1.0000000 
    4  1091     3  1.6987319 -0.0010253  0.9999996  0.0009096 -0.0009096  0.9999996 
    4  1091     4  1.7018863  9.42e-006  0.9999998  0.0006808 -0.0006808  0.9999998 
    4  1092     1  1.7002126 -0.0009718  0.9999996  0.0009176 -0.0009176  0.9999996 
    4  1092     2  1.6996933 -0.0006577  0.9999999  0.0005024 -0.0005024  0.9999999 
    4  1092     3  1.7026819 -0.0001036  0.9999998  0.0006778 -0.0006778  0.9999998 
    4  1092     4  1.7023650  0.0002900  1.0000000  0.0002350 -0.0002350  1.0000000 
    4  1093     1  1.6974923  0.0000245  0.9999997  0.0007088 -0.0007088  0.9999997 
    4  1093     2  1.6944061 -0.0010952  0.9999995  0.0010411 -0.0010411  0.9999995 
    4  1093     3  1.6967387  0.0004541  1.0000000  0.0001472 -0.0001472  1.0000000 
    4  1093     4  1.6938614 -0.0007029  0.9999998  0.0005607 -0.0005607  0.9999998 
    4  1094     1  1.6959607  0.0002505  1.0000000  0.0001289 -0.0001289  1.0000000 
    4  1094     2  1.6964629 -0.0000244  0.9999997  0.0007247 -0.0007247  0.9999997 
    4  1094     3  1.6926228 -0.0008519  0.9999999  0.0003823 -0.0003823  0.9999999 
    4  1094     4  1.6930925 -0.0011305  0.9999995  0.0009702 -0.0009702  0.9999995 
    4  1095     1  1.6986847  0.0003151  0.9999998  0.0005865 -0.0005865  0.9999998 
    4  1095     2  1.6984719 -0.0005082  0.9999999  0.0004618 -0.0004618  0.9999999 
    4  1095     3  1.6983913 -0.0005474  0.9999997  0.0007335 -0.0007335  0.9999997 
    4  1095     4  1.6983069 -0.0009435  0.9999998  0.0006022 -0.0006022  0.9999998 
    4  1096     1  1.7001747 -0.0008182  0.9999999  0.0004342 -0.0004342  0.9999999 
    4  1096     2  1.7031348  0.0000993  1.0000000  0.0002949 -0.0002949  1.0000000 
    4  1096     3  1.7009555 -0.0009425  0.9999996  0.0009050 -0.0009050  0.9999996 
    4  1096     4  1.7033171 -0.0001579  0.9999997  0.0007212 -0.0007212  0.9999997 
    4  1097     1  1.7001213 -0.0008028  0.9999998  0.0006896 -0.0006896  0.9999998 
    4  1097     2  1.7009225 -0.0008752  1.0000000  0.0002378 -0.0002378  1.0000000 
    4  1097     3  1.7029123  0.0000602  0.9999997  0.0008133 -0.0008133  0.9999997 
    4  1097     4  1.7031744 -0.0001333  0.9999999  0.0004070 -0.0004070  0.9999999 
    4  1098     1  1.7076963  0.0001543  0.9999996  0.0008663 -0.0008663  0.9999996 
    4  1098     2  1.7045827 -0.0007856  0.9999997  0.0008082 -0.0008082  0.9999997 
    4  1098     3  1.7079796  0.0001359  0.9999999  0.0003325 -0.0003325  0.9999999 
    4  1098     4  1.7048712 -0.0008106  1.0000000  0.0002325 -0.0002325  1.0000000 
    4  1099     1  1.7081350  0.0001658  1.0000000  0.0001737 -0.0001737  1.0000000 
    4  1099     2  1.7081582  0.0000758  0.9999997  0.0007238 -0.0007238  0.9999997 
    4  1099     3  1.7048464 -0.0008209  1.0000000  0.0002012 -0.0002012  1.0000000 
    4  1099     4  1.7049711 -0.0008886  0.9999997  0.0007967 -0.0007967  0.9999997 
    4  1100     1  1.7103292 -0.0008892  1.0000000  0.0001103 -0.0001103  1.0000000 
    4  1100     2  1.7142786  0.0003060  1.0000000  0.0001975 -0.0001975  1.0000000 
    4  1100     3  1.7102043 -0.0007767  0.9999997  0.0008083 -0.0008083  0.9999997 
    4  1100     4  1.7137263  0.0002750  0.9999997  0.0008201 -0.0008201  0.9999997 
    4  1101     1  1.7095574 -0.0007292  0.9999997  0.0007296 -0.0007296  0.9999997 
    4  1101     2  1.7098822 -0.0007800  1.0000000  0.0001520 -0.0001520  1.0000000 
    4  1101     3  1.7126889  0.0002269  0.9999997  0.0008319 -0.0008319  0.9999997 
    4  1101     4  1.7130695  0.0001953  1.0000000  0.0002644 -0.0002644  1.0000000 
    4  1102     1  1.7072252  0.0000789  0.9999999  0.0003750 -0.0003750  0.9999999 
    4  1102     2  1.7069401  0.0002940  0.9999996  0.0009126 -0.0009126  0.9999996 
    4  1102     3  1.7042532 -0.0008678  1.0000000  0.0001997 -0.0001997  1.0000000 
    4  1102     4  1.7038796 -0.0006736  0.9999997  0.0007451 -0.0007451  0.9999997 
    4  1103     1  1.7091822 -0.0008049  1.0000000  0.0001674 -0.0001674  1.0000000 
    4  1103     2  1.7122924  0.0001622  1.0000000  0.0003094 -0.0003094  1.0000000 
    4  1103     3  1.7088863 -0.0006616  0.9999997  0.0007410 -0.0007410  0.9999997 
    4  1103     4  1.7120150  0.0003083  0.9999996  0.0008765 -0.0008765  0.9999996 
    4  1104     1  1.7082036 -0.0006419  0.9999997  0.0007582 -0.0007582  0.9999997 
    4  1104     2  1.7084883 -0.0008358  1.0000000  0.0001790 -0.0001790  1.0000000 
    4  1104     3  1.7113705  0.0003504  0.9999996  0.0009161 -0.0009161  0.9999996 
    4  1104     4  1.7116164  0.0001454  0.9999999  0.0003371 -0.0003371  0.9999999 
    4  1105     1  1.7061895  0.0003210  0.9999995  0.0009644 -0.0009644  0.9999995 
    4  1105     2  1.7031270 -0.0006649  0.9999997  0.0007691 -0.0007691  0.9999997 
    4  1105     3  1.7064684  0.0000486  0.9999999  0.0004125 -0.0004125  0.9999999 
    4  1105     4  1.7034663 -0.0009172  1.0000000  0.0002222 -0.0002222  1.0000000 
    4  1106     1  1.6979635 -0.0007674  0.9999996  0.0008368 -0.0008368  0.9999996 
    4  1106     2  1.6983749 -0.0010016  1.0000000  0.0002922 -0.0002922  1.0000000 
    4  1106     3  1.7009622  0.0002167  0.9999994  0.0010577 -0.0010577  0.9999994 
    4  1106     4  1.7013471 -0.0000360  0.9999999  0.0004956 -0.0004956  0.9999999 
    4  1107     1  1.6957520  0.0001651  0.9999993  0.0011540 -0.0011540  0.9999993 
    4  1107     2  1.6925912 -0.0008575  0.9999996  0.0009417 -0.0009417  0.9999996 
    4  1107     3  1.6962015 -0.0000635  0.9999998  0.0005625 -0.0005625  0.9999998 
    4  1107     4  1.6929934 -0.0010986  0.9999999  0.0003519 -0.0003519  0.9999999 
    4  1108     1  1.6973324  0.0000121  0.9999999  0.0005363 -0.0005363  0.9999999 
    4  1108     2  1.6966163  0.0003904  0.9999994  0.0011067 -0.0011067  0.9999994 
    4  1108     3  1.6943204 -0.0010478  1.0000000  0.0002408 -0.0002408  1.0000000 
    4  1108     4  1.6938389 -0.0006843  0.9999997  0.0007350 -0.0007350  0.9999997 
    4  1109     1  1.6999913 -0.0009239  1.0000000  0.0002519 -0.0002519  1.0000000 
    4  1109     2  1.7022894 -0.0001167  0.9999999  0.0004744 -0.0004744  0.9999999 
    4  1109     3  1.6995077 -0.0006006  0.9999998  0.0006549 -0.0006549  0.9999998 
    4  1109     4  1.7019712  0.0002762  0.9999996  0.0009041 -0.0009041  0.9999996 
    4  1110     1  1.6952358 -0.0001009  0.9999998  0.0005946 -0.0005946  0.9999998 
    4  1110     2  1.6949700  0.0002012  0.9999993  0.0011962 -0.0011962  0.9999993 
    4  1110     3  1.6920480 -0.0011304  0.9999999  0.0003847 -0.0003847  0.9999999 
    4  1110     4  1.6917744 -0.0008308  0.9999995  0.0009858 -0.0009858  0.9999995 
    4  1111     1  1.6973157 -0.0010568  0.9999999  0.0003255 -0.0003255  0.9999999 
    4  1111     2  1.7004885 -0.0000377  0.9999999  0.0005257 -0.0005257  0.9999999 
    4  1111     3  1.6970560 -0.0007691  0.9999996  0.0009238 -0.0009238  0.9999996 
    4  1111     4  1.7002476  0.0002579  0.9999994  0.0011285 -0.0011285  0.9999994 
    4  1112     1  1.6963385 -0.0007651  0.9999995  0.0009733 -0.0009733  0.9999995 
    4  1112     2  1.6965669 -0.0010705  0.9999999  0.0003626 -0.0003626  0.9999999 
    4  1112     3  1.6995753  0.0002730  0.9999993  0.0011752 -0.0011752  0.9999993 
    4  1112     4  1.6997836 -0.0000392  0.9999998  0.0005625 -0.0005625  0.9999998 
    4  1113     1  1.6942615  0.0002185  0.9999992  0.0012415 -0.0012415  0.9999992 
    4  1113     2  1.6910485 -0.0008219  0.9999995  0.0010265 -0.0010265  0.9999995 
    4  1113     3  1.6944895 -0.0001153  0.9999998  0.0006352 -0.0006352  0.9999998 
    4  1113     4  1.6912902 -0.0011520  0.9999999  0.0004202 -0.0004202  0.9999999 
    4  1114     1  1.7057483  0.0000381  0.9999999  0.0004461 -0.0004461  0.9999999 
    4  1114     2  1.7055426  0.0003248  0.9999995  0.0010432 -0.0010432  0.9999995 
    4  1114     3  1.7025533 -0.0009802  1.0000000  0.0002576 -0.0002576  1.0000000 
    4  1114     4  1.7023260 -0.0007020  0.9999996  0.0008503 -0.0008503  0.9999996 
    4  1115     1  1.7077919 -0.0008912  1.0000000  0.0001989 -0.0001989  1.0000000 
    4  1115     2  1.7109960  0.0001172  0.9999999  0.0003662 -0.0003662  0.9999999 
    4  1115     3  1.7075937 -0.0006369  0.9999997  0.0007986 -0.0007986  0.9999997 
    4  1115     4  1.7108316  0.0003823  0.9999995  0.0009679 -0.0009679  0.9999995 
    4  1116     1  1.7070121 -0.0006552  0.9999996  0.0008514 -0.0008514  0.9999996 
    4  1116     2  1.7071800 -0.0009133  1.0000000  0.0002320 -0.0002320  1.0000000 
    4  1116     3  1.7103183  0.0003823  0.9999995  0.0010188 -0.0010188  0.9999995 
    4  1116     4  1.7104620  0.0001164  0.9999999  0.0003977 -0.0003977  0.9999999 
    4  1117     1  1.7049531  0.0003343  0.9999994  0.0010992 -0.0010992  0.9999994 
    4  1117     2  1.7016541 -0.0007130  0.9999996  0.0009108 -0.0009108  0.9999996 
    4  1117     3  1.7051267  0.0000421  0.9999999  0.0004826 -0.0004826  0.9999999 
    4  1117     4  1.7018561 -0.0009957  1.0000000  0.0002969 -0.0002969  1.0000000 
    4  1118     1  1.6938182 -0.0001425  0.9999998  0.0006763 -0.0006763  0.9999998 
    4  1118     2  1.6936850  0.0002555  0.9999992  0.0013027 -0.0013027  0.9999992 
    4  1118     3  1.6905647 -0.0012008  0.9999999  0.0004526 -0.0004526  0.9999999 
    4  1118     4  1.6904072 -0.0008105  0.9999994  0.0010775 -0.0010775  0.9999994 
    4  1119     1  1.6958735 -0.0011134  0.9999999  0.0003909 -0.0003909  0.9999999 
    4  1119     2  1.6991633 -0.0000572  0.9999998  0.0005970 -0.0005970  0.9999998 
    4  1119     3  1.6957410 -0.0007534  0.9999995  0.0010239 -0.0010239  0.9999995 
    4  1119     4  1.6990531  0.0003099  0.9999992  0.0012314 -0.0012314  0.9999992 
    4  1120     1  1.6951968 -0.0007565  0.9999994  0.0010731 -0.0010731  0.9999994 
    4  1120     2  1.6953153 -0.0011294  0.9999999  0.0004299 -0.0004299  0.9999999 
    4  1120     3  1.6985433  0.0003173  0.9999992  0.0012819 -0.0012819  0.9999992 
    4  1120     4  1.6986418 -0.0000620  0.9999998  0.0006375 -0.0006375  0.9999998 
    4  1121     1  1.6931259  0.0002550  0.9999991  0.0013598 -0.0013598  0.9999991 
    4  1121     2  1.6898101 -0.0008220  0.9999994  0.0011336 -0.0011336  0.9999994 
    4  1121     3  1.6932440 -0.0001523  0.9999997  0.0007219 -0.0007219  0.9999997 
    4  1121     4  1.6899470 -0.0012235  0.9999999  0.0004968 -0.0004968  0.9999999 
    4  1122     1  1.7045655  0.0000309  0.9999999  0.0005148 -0.0005148  0.9999999 
    4  1122     2  1.7044660  0.0003651  0.9999993  0.0011524 -0.0011524  0.9999993 
    4  1122     3  1.7012156 -0.0010320  0.9999999  0.0003251 -0.0003251  0.9999999 
    4  1122     4  1.7011040 -0.0007019  0.9999995  0.0009613 -0.0009613  0.9999995 
    4  1123     1  1.7066201 -0.0009476  1.0000000  0.0002590 -0.0002590  1.0000000 
    4  1123     2  1.7099695  0.0001039  0.9999999  0.0004289 -0.0004289  0.9999999 
    4  1123     3  1.7065197 -0.0006499  0.9999996  0.0008980 -0.0008980  0.9999996 
    4  1123     4  1.7098914  0.0004086  0.9999994  0.0010691 -0.0010691  0.9999994 
    4  1124     1  1.7060734 -0.0006543  0.9999996  0.0009437 -0.0009437  0.9999996 
    4  1124     2  1.7061512 -0.0009598  1.0000000  0.0002910 -0.0002910  1.0000000 
    4  1124     3  1.7094885  0.0004161  0.9999994  0.0011141 -0.0011141  0.9999994 
    4  1124     4  1.7095475  0.0001048  0.9999999  0.0004605 -0.0004605  0.9999999 
    4  1125     1  1.7040122  0.0003723  0.9999993  0.0012000 -0.0012000  0.9999993 
    4  1125     2  1.7006100 -0.0007054  0.9999995  0.0010102 -0.0010102  0.9999995 
    4  1125     3  1.7040906  0.0000295  0.9999998  0.0005501 -0.0005501  0.9999998 
    4  1125     4  1.7007099 -0.0010412  0.9999999  0.0003618 -0.0003618  0.9999999 
    4  1126     1  1.6927007 -0.0001620  0.9999997  0.0007676 -0.0007676  0.9999997 
    4  1126     2  1.6926356  0.0002729  0.9999990  0.0014218 -0.0014218  0.9999990 
    4  1126     3  1.6893461 -0.0012507  0.9999999  0.0005403 -0.0005403  0.9999999 
    4  1126     4  1.6892611 -0.0008226  0.9999993  0.0011925 -0.0011925  0.9999993 
    4  1127     1  1.6947707 -0.0011580  0.9999999  0.0004676 -0.0004676  0.9999999 
    4  1127     2  1.6981532 -0.0000731  0.9999998  0.0006779 -0.0006779  0.9999998 
    4  1127     3  1.6947062 -0.0007583  0.9999994  0.0011254 -0.0011254  0.9999994 
    4  1127     4  1.6981091  0.0003331  0.9999991  0.0013369 -0.0013369  0.9999991 
    4  1128     1  1.6942374 -0.0007651  0.9999993  0.0011779 -0.0011779  0.9999993 
    4  1128     2  1.6942960 -0.0011675  0.9999999  0.0005104 -0.0005104  0.9999999 
    4  1128     3  1.6976724  0.0003347  0.9999990  0.0013887 -0.0013887  0.9999990 
    4  1128     4  1.6977139 -0.0000732  0.9999997  0.0007200 -0.0007200  0.9999997 
    4  1129     1  1.6921529  0.0002702  0.9999989  0.0014786 -0.0014786  0.9999989 
    4  1129     2  1.6887411 -0.0008344  0.9999992  0.0012509 -0.0012509  0.9999992 
    4  1129     3  1.6922112 -0.0001655  0.9999997  0.0008146 -0.0008146  0.9999997 
    4  1129     4  1.6888182 -0.0012642  0.9999998  0.0005879 -0.0005879  0.9999998 
    4  1130     1  1.7036477  0.0000220  0.9999998  0.0005857 -0.0005857  0.9999998 
    4  1130     2  1.7036082  0.0003842  0.9999992  0.0012481 -0.0012481  0.9999992 
    4  1130     3  1.7002187 -0.0010631  0.9999999  0.0003963 -0.0003963  0.9999999 
    4  1130     4  1.7001689 -0.0007042  0.9999994  0.0010579 -0.0010579  0.9999994 
    4  1131     1  1.7057154 -0.0009777  0.9999999  0.0003222 -0.0003222  0.9999999 
    4  1131     2  1.7091530  0.0000998  0.9999999  0.0004934 -0.0004934  0.9999999 
    4  1131     3  1.7056727 -0.0006521  0.9999995  0.0009859 -0.0009859  0.9999995 
    4  1131     4  1.7091275  0.0004306  0.9999993  0.0011579 -0.0011579  0.9999993 
    4  1132     1  1.7052882 -0.0006579  0.9999995  0.0010305 -0.0010305  0.9999995 
    4  1132     2  1.7053224 -0.0009855  0.9999999  0.0003572 -0.0003572  0.9999999 
    4  1132     3  1.7087690  0.0004317  0.9999993  0.0012013 -0.0012013  0.9999993 
    4  1132     4  1.7087894  0.0001000  0.9999999  0.0005277 -0.0005277  0.9999999 
    4  1133     1  1.7032134  0.0003840  0.9999992  0.0012946 -0.0012946  0.9999992 
    4  1133     2  1.6997478 -0.0007103  0.9999994  0.0011070 -0.0011070  0.9999994 
    4  1133     3  1.7032457  0.0000226  0.9999998  0.0006226 -0.0006226  0.9999998 
    4  1133     4  1.6997956 -0.0010666  0.9999999  0.0004363 -0.0004363  0.9999999 
    4  1134     1  1.6917277 -0.0001627  0.9999996  0.0008619 -0.0008619  0.9999996 
    4  1134     2  1.6916831  0.0002737  0.9999988  0.0015330 -0.0015330  0.9999988 
    4  1134     3  1.6882940 -0.0012710  0.9999998  0.0006376 -0.0006376  0.9999998 
    4  1134     4  1.6882332 -0.0008406  0.9999991  0.0013063 -0.0013063  0.9999991 
    4  1135     1  1.6938272 -0.0011785  0.9999998  0.0005562 -0.0005562  0.9999998 
    4  1135     2  1.6972810 -0.0000748  0.9999997  0.0007649 -0.0007649  0.9999997 
    4  1135     3  1.6937824 -0.0007753  0.9999992  0.0012281 -0.0012281  0.9999992 
    4  1135     4  1.6972535  0.0003339  0.9999990  0.0014380 -0.0014380  0.9999990 
    4  1136     1  1.6933304 -0.0007846  0.9999992  0.0012814 -0.0012814  0.9999992 
    4  1136     2  1.6933731 -0.0011817  0.9999998  0.0006015 -0.0006015  0.9999998 
    4  1136     3  1.6968285  0.0003303  0.9999989  0.0014882 -0.0014882  0.9999989 
    4  1136     4  1.6968584 -0.0000712  0.9999997  0.0008069 -0.0008069  0.9999997 
    4  1137     1  1.6912189  0.0002643  0.9999987  0.0015878 -0.0015878  0.9999987 
    4  1137     2  1.6877342 -0.0008565  0.9999991  0.0013656 -0.0013656  0.9999991 
    4  1137     3  1.6912612 -0.0001635  0.9999996  0.0009089 -0.0009089  0.9999996 
    4  1137     4  1.6877948 -0.0012783  0.9999998  0.0006882 -0.0006882  0.9999998 
    4  1138     1  1.7028499  0.0000219  0.9999998  0.0006634 -0.0006634  0.9999998 
    4  1138     2  1.7028225  0.0003785  0.9999991  0.0013388 -0.0013388  0.9999991 
    4  1138     3  1.6993731 -0.0010735  0.9999999  0.0004795 -0.0004795  0.9999999 
    4  1138     4  1.6993364 -0.0007198  0.9999993  0.0011542 -0.0011542  0.9999993 
    4  1139     1  1.7049380 -0.0009904  0.9999999  0.0003959 -0.0003959  0.9999999 
    4  1139     2  1.7084263  0.0001010  0.9999998  0.0005660 -0.0005660  0.9999998 
    4  1139     3  1.7049080 -0.0006628  0.9999994  0.0010720 -0.0010720  0.9999994 
    4  1139     4  1.7084096  0.0004324  0.9999992  0.0012423 -0.0012423  0.9999992 
    4  1140     1  1.7045210 -0.0006685  0.9999994  0.0011165 -0.0011165  0.9999994 
    4  1140     2  1.7045539 -0.0009914  0.9999999  0.0004368 -0.0004368  0.9999999 
    4  1140     3  1.7080347  0.0004294  0.9999992  0.0012852 -0.0012852  0.9999992 
    4  1140     4  1.7080576  0.0001035  0.9999998  0.0006052 -0.0006052  0.9999998 
    4  1141     1  1.7024252  0.0003729  0.9999990  0.0013840 -0.0013840  0.9999990 
    4  1141     2  1.6989239 -0.0007274  0.9999993  0.0012035 -0.0012035  0.9999993 
    4  1141     3  1.7024565  0.0000257  0.9999998  0.0007024 -0.0007024  0.9999998 
    4  1141     4  1.6989646 -0.0010713  0.9999999  0.0005232 -0.0005232  0.9999999 
    4  1142     1  1.6907871 -0.0001465  0.9999995  0.0009565 -0.0009565  0.9999995 
    4  1142     2  1.6907307  0.0002528  0.9999987  0.0016350 -0.0016350  0.9999987 
    4  1142     3  1.6872891 -0.0012636  0.9999997  0.0007455 -0.0007455  0.9999997 
    4  1142     4  1.6872234 -0.0008691  0.9999990  0.0014203 -0.0014203  0.9999990 
    4  1143     1  1.6929243 -0.0011749  0.9999998  0.0006545 -0.0006545  0.9999998 
    4  1143     2  1.6964285 -0.0000625  0.9999996  0.0008547 -0.0008547  0.9999996 
    4  1143     3  1.6928660 -0.0008014  0.9999991  0.0013289 -0.0013289  0.9999991 
    4  1143     4  1.6963791  0.0003141  0.9999988  0.0015302 -0.0015302  0.9999988 
    4  1144     1  1.6923995 -0.0008092  0.9999990  0.0013809 -0.0013809  0.9999990 
    4  1144     2  1.6924547 -0.0011685  0.9999998  0.0007013 -0.0007013  0.9999998 
    4  1144     3  1.6959204  0.0003045  0.9999988  0.0015758 -0.0015758  0.9999988 
    4  1144     4  1.6959801 -0.0000535  0.9999996  0.0008959 -0.0008959  0.9999996 
    4  1145     1  1.6902623  0.0002368  0.9999986  0.0016851 -0.0016851  0.9999986 
    4  1145     2  1.6867322 -0.0008834  0.9999989  0.0014832 -0.0014832  0.9999989 
    4  1145     3  1.6903122 -0.0001374  0.9999995  0.0010001 -0.0010001  0.9999995 
    4  1145     4  1.6867844 -0.0012553  0.9999997  0.0008012 -0.0008012  0.9999997 
    4  1146     1  1.7020535  0.0000306  0.9999997  0.0007492 -0.0007492  0.9999997 
    4  1146     2  1.7019987  0.0003522  0.9999990  0.0014240 -0.0014240  0.9999990 
    4  1146     3  1.6985543 -0.0010659  0.9999998  0.0005746 -0.0005746  0.9999998 
    4  1146     4  1.6984922 -0.0007463  0.9999992  0.0012495 -0.0012495  0.9999992 
    4  1147     1  1.7041644 -0.0009839  0.9999999  0.0004849 -0.0004849  0.9999999 
    4  1147     2  1.7076723  0.0001105  0.9999998  0.0006503 -0.0006503  0.9999998 
    4  1147     3  1.7041090 -0.0006813  0.9999993  0.0011591 -0.0011591  0.9999993 
    4  1147     4  1.7076280  0.0004162  0.9999991  0.0013244 -0.0013244  0.9999991 
    4  1148     1  1.7036684 -0.0006881  0.9999993  0.0012048 -0.0012048  0.9999993 
    4  1148     2  1.7037422 -0.0009795  0.9999999  0.0005319 -0.0005319  0.9999999 
    4  1148     3  1.7071936  0.0004105  0.9999991  0.0013687 -0.0013687  0.9999991 
    4  1148     4  1.7072528  0.0001150  0.9999998  0.0006961 -0.0006961  0.9999998 
    4  1149     1  1.7015458  0.0003434  0.9999989  0.0014682 -0.0014682  0.9999989 
    4  1149     2  1.6980412 -0.0007525  0.9999992  0.0012974 -0.0012974  0.9999992 
    4  1149     3  1.7016205  0.0000388  0.9999997  0.0007930 -0.0007930  0.9999997 
    4  1149     4  1.6981180 -0.0010567  0.9999998  0.0006218 -0.0006218  0.9999998 
    4  1150     1  1.6898397 -0.0001050  0.9999995  0.0010429 -0.0010429  0.9999995 
    4  1150     2  1.6897713  0.0002112  0.9999985  0.0017193 -0.0017193  0.9999985 
    4  1150     3  1.6863016 -0.0012116  0.9999996  0.0008692 -0.0008692  0.9999996 
    4  1150     4  1.6862700 -0.0008881  0.9999988  0.0015389 -0.0015389  0.9999988 
    4  1151     1  1.6920040 -0.0011408  0.9999997  0.0007596 -0.0007596  0.9999997 
    4  1151     2  1.6955066 -0.0000351  0.9999995  0.0009501 -0.0009501  0.9999995 
    4  1151     3  1.6919158 -0.0008189  0.9999990  0.0014205 -0.0014205  0.9999990 
    4  1151     4  1.6953841  0.0002747  0.9999987  0.0016070 -0.0016070  0.9999987 
    4  1152     1  1.6914321 -0.0008032  0.9999989  0.0014545 -0.0014545  0.9999989 
    4  1152     2  1.6915259 -0.0011403  0.9999997  0.0008107 -0.0008107  0.9999997 
    4  1152     3  1.6947322  0.0002441  0.9999987  0.0016431 -0.0016431  0.9999987 
    4  1152     4  1.6949414 -0.0000499  0.9999995  0.0010172 -0.0010172  0.9999995 
    4  1153     1  1.6893442  0.0001658  0.9999985  0.0017448 -0.0017448  0.9999985 
    4  1153     2  1.6859641 -0.0008775  0.9999987  0.0016071 -0.0016071  0.9999987 
    4  1153     3  1.6893871 -0.0000761  0.9999994  0.0010735 -0.0010735  0.9999994 
    4  1153     4  1.6858836 -0.0011516  0.9999996  0.0009464 -0.0009464  0.9999996 
    4  1154     1  1.7011390  0.0000497  0.9999996  0.0008569 -0.0008569  0.9999996 
    4  1154     2  1.7009963  0.0003154  0.9999989  0.0015076 -0.0015076  0.9999989 
    4  1154     3  1.6976762 -0.0010363  0.9999998  0.0006812 -0.0006812  0.9999998 
    4  1154     4  1.6975290 -0.0007686  0.9999991  0.0013386 -0.0013386  0.9999991 
    4  1155     1  1.7032879 -0.0009576  0.9999998  0.0005826 -0.0005826  0.9999998 
    4  1155     2  1.7068011  0.0001370  0.9999997  0.0007464 -0.0007464  0.9999997 
    4  1155     3  1.7031484 -0.0007068  0.9999992  0.0012464 -0.0012464  0.9999992 
    4  1155     4  1.7066989  0.0003978  0.9999990  0.0014083 -0.0014083  0.9999990 
    4  1156     1  1.7024423 -0.0007293  0.9999992  0.0012781 -0.0012781  0.9999992 
    4  1156     2  1.7026959 -0.0009608  0.9999998  0.0006043 -0.0006043  0.9999998 
    4  1156     3  1.7061295  0.0004221  0.9999989  0.0014553 -0.0014553  0.9999989 
    4  1156     4  1.7062698  0.0001593  0.9999997  0.0007847 -0.0007847  0.9999997 
    4  1157     1  1.7002167  0.0003111  0.9999988  0.0015635 -0.0015635  0.9999988 
    4  1157     2  1.6968962 -0.0007384  0.9999990  0.0013800 -0.0013800  0.9999990 
    4  1157     3  1.7004718  0.0000743  0.9999995  0.0009550 -0.0009550  0.9999995 
    4  1157     4  1.6971620 -0.0009833  0.9999997  0.0007500 -0.0007500  0.9999997 
    4  1158     1  1.6888704 -0.0001780  0.9999994  0.0010740 -0.0010740  0.9999994 
    4  1158     2  1.6889665  0.0000318  0.9999985  0.0017177 -0.0017177  0.9999985 
    4  1158     3  1.6857242 -0.0010931  0.9999994  0.0011338 -0.0011338  0.9999994 
    4  1158     4  1.6861753 -0.0008096  0.9999986  0.0016662 -0.0016662  0.9999986 
    4  1159     1  1.6913171 -0.0008733  0.9999996  0.0009129 -0.0009129  0.9999996 
    4  1159     2  1.6940227  0.0000482  0.9999993  0.0011988 -0.0011988  0.9999993 
    4  1159     3  1.6910659 -0.0006811  0.9999989  0.0014527 -0.0014527  0.9999989 
    4  1159     4  1.6934905  0.0001006  0.9999987  0.0016195 -0.0016195  0.9999987 
    4  1160     1  1.6901865 -0.0001929  0.9999989  0.0014709 -0.0014709  0.9999989 
    4  1160     2  1.6890753 -0.0009644  0.9999984  0.0017726 -0.0017726  0.9999984 
    4  1160     3  1.6894967  0.0002443  0.9999988  0.0015169 -0.0015169  0.9999988 
    4  1160     4  1.6888663 -0.0004392  0.9999985  0.0017261 -0.0017261  0.9999985 
    4  1161     1  1.6802717 -0.0009891  0.9999985  0.0017525 -0.0017525  0.9999985 
    4  1161     2  1.6801297 -0.0013389  0.9999994  0.0010677 -0.0010677  0.9999994 
    4  1161     3  1.6839159  0.0001416  0.9999982  0.0019134 -0.0019134  0.9999982 
    4  1161     4  1.6837647 -0.0002256  0.9999993  0.0011961 -0.0011961  0.9999993 
    4  1162     1  1.6781133  0.0000874  0.9999979  0.0020615 -0.0020615  0.9999979 
    4  1162     2  1.6741512 -0.0011530  0.9999983  0.0018630 -0.0018630  0.9999983 
    4  1162     3  1.6779893 -0.0003200  0.9999992  0.0013009 -0.0013009  0.9999992 
    4  1162     4  1.6741425 -0.0015140  0.9999994  0.0011294 -0.0011294  0.9999994 
    4  1163     1  1.6783535 -0.0003554  0.9999992  0.0012905 -0.0012905  0.9999992 
    4  1163     2  1.6783271  0.0000849  0.9999980  0.0019988 -0.0019988  0.9999980 
    4  1163     3  1.6747047 -0.0015203  0.9999994  0.0010696 -0.0010696  0.9999994 
    4  1163     4  1.6746177 -0.0011071  0.9999984  0.0017618 -0.0017618  0.9999984 
    4  1164     1  1.6805434 -0.0013682  0.9999995  0.0009739 -0.0009739  0.9999995 
    4  1164     2  1.6841404 -0.0002313  0.9999993  0.0011722 -0.0011722  0.9999993 
    4  1164     3  1.6805308 -0.0009771  0.9999986  0.0016541 -0.0016541  0.9999986 
    4  1164     4  1.6841376  0.0001702  0.9999983  0.0018657 -0.0018657  0.9999983 
    4  1165     1  1.6779784 -0.0001493  0.9999992  0.0012681 -0.0012681  0.9999992 
    4  1165     2  1.6783362  0.0001366  0.9999978  0.0020931 -0.0020931  0.9999978 
    4  1165     3  1.6738081 -0.0014114  0.9999993  0.0011736 -0.0011736  0.9999993 
    4  1165     4  1.6738953 -0.0012120  0.9999981  0.0019715 -0.0019715  0.9999981 
    4  1166     1  1.6801275 -0.0012205  0.9999993  0.0011771 -0.0011771  0.9999993 
    4  1166     2  1.6837457 -0.0001383  0.9999994  0.0011349 -0.0011349  0.9999994 
    4  1166     3  1.6805313 -0.0010586  0.9999983  0.0018572 -0.0018572  0.9999983 
    4  1166     4  1.6843937  0.0001008  0.9999982  0.0018811 -0.0018811  0.9999982 
    4  1167     1  1.6815737 -0.0012895  0.9999980  0.0020045 -0.0020045  0.9999980 
    4  1167     2  1.6809361 -0.0011073  0.9999993  0.0011499 -0.0011499  0.9999993 
    4  1167     3  1.6867756  0.0003135  0.9999984  0.0017999 -0.0017999  0.9999984 
    4  1167     4  1.6851426  0.0001812  0.9999995  0.0010027 -0.0010027  0.9999995 
    4  1168     1  1.6786818  0.0002347  0.9999975  0.0022354 -0.0022354  0.9999975 
    4  1168     2  1.6737908 -0.0012487  0.9999978  0.0021103 -0.0021103  0.9999978 
    4  1168     3  1.6782903 -0.0001681  0.9999991  0.0013339 -0.0013339  0.9999991 
    4  1168     4  1.6736304 -0.0015826  0.9999993  0.0012106 -0.0012106  0.9999993 
    4  1169     1  1.6663505 -0.0013355  0.9999976  0.0021725 -0.0021725  0.9999976 
    4  1169     2  1.6664329 -0.0017683  0.9999991  0.0013233 -0.0013233  0.9999991 
    4  1169     3  1.6710028  0.0001308  0.9999971  0.0024241 -0.0024241  0.9999971 
    4  1169     4  1.6709257 -0.0003554  0.9999988  0.0015603 -0.0015603  0.9999988 
    4  1170     1  1.6635155  0.0000250  0.9999966  0.0025954 -0.0025954  0.9999966 
    4  1170     2  1.6590189 -0.0014538  0.9999974  0.0022589 -0.0022589  0.9999974 
    4  1170     3  1.6636404 -0.0005533  0.9999984  0.0017621 -0.0017621  0.9999984 
    4  1170     4  1.6592565 -0.0019876  0.9999990  0.0014443 -0.0014443  0.9999990 
    4  1171     1  1.6644576 -0.0005514  0.9999986  0.0016943 -0.0016943  0.9999986 
    4  1171     2  1.6642761  0.0000284  0.9999969  0.0024739 -0.0024739  0.9999969 
    4  1171     3  1.6603327 -0.0019278  0.9999991  0.0013619 -0.0013619  0.9999991 
    4  1171     4  1.6600122 -0.0014047  0.9999978  0.0021172 -0.0021172  0.9999978 
    4  1172     1  1.6671317 -0.0017057  0.9999992  0.0012581 -0.0012581  0.9999992 
    4  1172     2  1.6713278 -0.0003728  0.9999989  0.0015025 -0.0015025  0.9999989 
    4  1172     3  1.6670031 -0.0012829  0.9999979  0.0020445 -0.0020445  0.9999979 
    4  1172     4  1.6713608  0.0001079  0.9999973  0.0023099 -0.0023099  0.9999973 
    4  1173     1  1.6658104 -0.0018255  0.9999990  0.0013923 -0.0013923  0.9999990 
    4  1173     2  1.6705616 -0.0003389  0.9999987  0.0016297 -0.0016297  0.9999987 
    4  1173     3  1.6657155 -0.0014194  0.9999974  0.0022858 -0.0022858  0.9999974 
    4  1173     4  1.6705744  0.0000996  0.9999968  0.0025260 -0.0025260  0.9999968 
    4  1174     1  1.6650002 -0.0014513  0.9999971  0.0023878 -0.0023878  0.9999971 
    4  1174     2  1.6651287 -0.0018419  0.9999989  0.0014680 -0.0014680  0.9999989 
    4  1174     3  1.6699353  0.0000901  0.9999965  0.0026295 -0.0026295  0.9999965 
    4  1174     4  1.6699991 -0.0003181  0.9999985  0.0017119 -0.0017119  0.9999985 
    4  1175     1  1.6619773 -0.0000297  0.9999960  0.0028377 -0.0028377  0.9999960 
    4  1175     2  1.6571322 -0.0015761  0.9999968  0.0025411 -0.0025411  0.9999968 
    4  1175     3  1.6621103 -0.0005191  0.9999981  0.0019336 -0.0019336  0.9999981 
    4  1175     4  1.6573221 -0.0020472  0.9999987  0.0016409 -0.0016409  0.9999987 
    4  1176     1  1.6628761 -0.0005313  0.9999983  0.0018451 -0.0018451  0.9999983 
    4  1176     2  1.6627559 -0.0000201  0.9999963  0.0027203 -0.0027203  0.9999963 
    4  1176     3  1.6582369 -0.0020212  0.9999988  0.0015475 -0.0015475  0.9999988 
    4  1176     4  1.6580364 -0.0015393  0.9999971  0.0024116 -0.0024116  0.9999971 
    4  1177     1  1.6781175  0.0002615  0.9999970  0.0024488 -0.0024488  0.9999970 
    4  1177     2  1.6729903 -0.0013126  0.9999974  0.0022608 -0.0022608  0.9999974 
    4  1177     3  1.6781736 -0.0000910  0.9999989  0.0014997 -0.0014997  0.9999989 
    4  1177     4  1.6730566 -0.0016701  0.9999992  0.0012917 -0.0012917  0.9999992 
    4  1178     1  1.6782976 -0.0001185  0.9999991  0.0013574 -0.0013574  0.9999991 
    4  1178     2  1.6784793  0.0001008  0.9999974  0.0022682 -0.0022682  0.9999974 
    4  1178     3  1.6734617 -0.0015833  0.9999992  0.0012379 -0.0012379  0.9999992 
    4  1178     4  1.6734824 -0.0014094  0.9999977  0.0021633 -0.0021633  0.9999977 
    4  1179     1  1.6815833 -0.0016554  0.9999995  0.0010322 -0.0010322  0.9999995 
    4  1179     2  1.6873825  0.0001035  0.9999993  0.0011777 -0.0011777  0.9999993 
    4  1179     3  1.6817725 -0.0013238  0.9999977  0.0021565 -0.0021565  0.9999977 
    4  1179     4  1.6872801  0.0003191  0.9999976  0.0021812 -0.0021812  0.9999976 
    4  1180     1  1.6811488 -0.0012024  0.9999979  0.0020526 -0.0020526  0.9999979 
    4  1180     2  1.6812309 -0.0015260  0.9999994  0.0010860 -0.0010860  0.9999994 
    4  1180     3  1.6862923  0.0003798  0.9999975  0.0022493 -0.0022493  0.9999975 
    4  1180     4  1.6864176  0.0000718  0.9999992  0.0012902 -0.0012902  0.9999992 
    4  1181     1  1.6774840 -0.0001076  0.9999987  0.0015979 -0.0015979  0.9999987 
    4  1181     2  1.6773630  0.0002439  0.9999968  0.0025388 -0.0025388  0.9999968 
    4  1181     3  1.6724253 -0.0016765  0.9999991  0.0013737 -0.0013737  0.9999991 
    4  1181     4  1.6722919 -0.0013260  0.9999973  0.0023207 -0.0023207  0.9999973 
    4  1182     1  1.6805803 -0.0015187  0.9999993  0.0011709 -0.0011709  0.9999993 
    4  1182     2  1.6856986  0.0000629  0.9999990  0.0013837 -0.0013837  0.9999990 
    4  1182     3  1.6804492 -0.0011867  0.9999977  0.0021215 -0.0021215  0.9999977 
    4  1182     4  1.6855590  0.0003907  0.9999973  0.0023301 -0.0023301  0.9999973 
    4  1183     1  1.6796822 -0.0011983  0.9999976  0.0022067 -0.0022067  0.9999976 
    4  1183     2  1.6798334 -0.0015188  0.9999992  0.0012544 -0.0012544  0.9999992 
    4  1183     3  1.6847848  0.0003771  0.9999971  0.0024160 -0.0024160  0.9999971 
    4  1183     4  1.6849323  0.0000563  0.9999989  0.0014655 -0.0014655  0.9999989 
    4  1184     1  1.6765812  0.0002502  0.9999965  0.0026381 -0.0026381  0.9999965 
    4  1184     2  1.6715123 -0.0013234  0.9999971  0.0024103 -0.0024103  0.9999971 
    4  1184     3  1.6767216 -0.0001108  0.9999986  0.0016903 -0.0016903  0.9999986 
    4  1184     4  1.6716646 -0.0016819  0.9999989  0.0014604 -0.0014604  0.9999989 
    4  1185     1  1.6634000 -0.0014519  0.9999966  0.0025988 -0.0025988  0.9999966 
    4  1185     2  1.6635588 -0.0018779  0.9999986  0.0016566 -0.0016566  0.9999986 
    4  1185     3  1.6684175  0.0001245  0.9999959  0.0028623 -0.0028623  0.9999959 
    4  1185     4  1.6685541 -0.0003074  0.9999982  0.0019208 -0.0019208  0.9999982 
    4  1186     1  1.6602982 -0.0000247  0.9999953  0.0030765 -0.0030765  0.9999953 
    4  1186     2  1.6553354 -0.0016030  0.9999961  0.0027816 -0.0027816  0.9999961 
    4  1186     3  1.6604501 -0.0005114  0.9999977  0.0021425 -0.0021425  0.9999977 
    4  1186     4  1.6555150 -0.0020814  0.9999983  0.0018485 -0.0018485  0.9999983 
    4  1187     1  1.6612935 -0.0005112  0.9999979  0.0020357 -0.0020357  0.9999979 
    4  1187     2  1.6611511 -0.0000273  0.9999956  0.0029524 -0.0029524  0.9999956 
    4  1187     3  1.6564204 -0.0020633  0.9999985  0.0017425 -0.0017425  0.9999985 
    4  1187     4  1.6562384 -0.0015916  0.9999965  0.0026575 -0.0026575  0.9999965 
    4  1188     1  1.6643708 -0.0018655  0.9999988  0.0015604 -0.0015604  0.9999988 
    4  1188     2  1.6693375 -0.0003041  0.9999983  0.0018228 -0.0018228  0.9999983 
    4  1188     3  1.6642272 -0.0014382  0.9999969  0.0024920 -0.0024920  0.9999969 
    4  1188     4  1.6692229  0.0001300  0.9999962  0.0027515 -0.0027515  0.9999962 
    4  1189     1  1.6595762 -0.0005141  0.9999975  0.0022512 -0.0022512  0.9999975 
    4  1189     2  1.6594262 -0.0000328  0.9999949  0.0031978 -0.0031978  0.9999949 
    4  1189     3  1.6545962 -0.0020943  0.9999981  0.0019611 -0.0019611  0.9999981 
    4  1189     4  1.6544252 -0.0016197  0.9999958  0.0029061 -0.0029061  0.9999958 
    4  1190     1  1.6627041 -0.0018850  0.9999985  0.0017596 -0.0017596  0.9999985 
    4  1190     2  1.6677276 -0.0003080  0.9999980  0.0020210 -0.0020210  0.9999980 
    4  1190     3  1.6625450 -0.0014646  0.9999963  0.0027091 -0.0027091  0.9999963 
    4  1190     4  1.6675858  0.0001175  0.9999956  0.0029710 -0.0029710  0.9999956 
    4  1191     1  1.6616757 -0.0014795  0.9999960  0.0028278 -0.0028278  0.9999960 
    4  1191     2  1.6618339 -0.0018904  0.9999983  0.0018645 -0.0018645  0.9999983 
    4  1191     3  1.6667399  0.0001060  0.9999952  0.0030839 -0.0030839  0.9999952 
    4  1191     4  1.6668832 -0.0003095  0.9999978  0.0021196 -0.0021196  0.9999978 
    4  1192     1  1.6585451 -0.0000462  0.9999945  0.0033222 -0.0033222  0.9999945 
    4  1192     2  1.6535113 -0.0016384  0.9999954  0.0030371 -0.0030371  0.9999954 
    4  1192     3  1.6586932 -0.0005178  0.9999972  0.0023601 -0.0023601  0.9999972 
    4  1192     4  1.6536784 -0.0021039  0.9999978  0.0020767 -0.0020767  0.9999978 
    4  1193     1  1.6759215 -0.0001154  0.9999984  0.0017830 -0.0017830  0.9999984 
    4  1193     2  1.6757744  0.0002418  0.9999963  0.0027363 -0.0027363  0.9999963 
    4  1193     3  1.6708546 -0.0016889  0.9999988  0.0015538 -0.0015538  0.9999988 
    4  1193     4  1.6706968 -0.0013342  0.9999969  0.0025083 -0.0025083  0.9999969 
    4  1194     1  1.6790438 -0.0015180  0.9999991  0.0013398 -0.0013398  0.9999991 
    4  1194     2  1.6841472  0.0000568  0.9999988  0.0015474 -0.0015474  0.9999988 
    4  1194     3  1.6788854 -0.0012061  0.9999974  0.0022961 -0.0022961  0.9999974 
    4  1194     4  1.6839957  0.0003704  0.9999969  0.0025032 -0.0025032  0.9999969 
    4  1195     1  1.6780707 -0.0012173  0.9999971  0.0023913 -0.0023913  0.9999971 
    4  1195     2  1.6782306 -0.0015190  0.9999990  0.0014249 -0.0014249  0.9999990 
    4  1195     3  1.6831926  0.0003603  0.9999966  0.0025932 -0.0025932  0.9999966 
    4  1195     4  1.6833449  0.0000565  0.9999987  0.0016267 -0.0016267  0.9999987 
    4  1196     1  1.6749513  0.0002371  0.9999960  0.0028384 -0.0028384  0.9999960 
    4  1196     2  1.6698598 -0.0013413  0.9999966  0.0026136 -0.0026136  0.9999966 
    4  1196     3  1.6750993 -0.0001141  0.9999982  0.0018725 -0.0018725  0.9999982 
    4  1196     4  1.6700180 -0.0016895  0.9999986  0.0016481 -0.0016481  0.9999986 
    4  1197     1  1.6577962 -0.0005156  0.9999969  0.0024719 -0.0024719  0.9999969 
    4  1197     2  1.6576395 -0.0000649  0.9999941  0.0034462 -0.0034462  0.9999941 
    4  1197     3  1.6527537 -0.0021038  0.9999976  0.0021983 -0.0021983  0.9999976 
    4  1197     4  1.6525828 -0.0016581  0.9999950  0.0031706 -0.0031706  0.9999950 
    4  1198     1  1.6609525 -0.0018873  0.9999980  0.0019758 -0.0019758  0.9999980 
    4  1198     2  1.6660216 -0.0003056  0.9999975  0.0022216 -0.0022216  0.9999975 
    4  1198     3  1.6607854 -0.0014970  0.9999957  0.0029485 -0.0029485  0.9999957 
    4  1198     4  1.6658704  0.0000899  0.9999949  0.0031961 -0.0031961  0.9999949 
    4  1199     1  1.6598823 -0.0015148  0.9999953  0.0030754 -0.0030754  0.9999953 
    4  1199     2  1.6600465 -0.0018858  0.9999978  0.0020877 -0.0020877  0.9999978 
    4  1199     3  1.6649960  0.0000750  0.9999945  0.0033124 -0.0033124  0.9999945 
    4  1199     4  1.6651446 -0.0003013  0.9999973  0.0023225 -0.0023225  0.9999973 
    4  1200     1  1.6567285 -0.0000823  0.9999936  0.0035742 -0.0035742  0.9999936 
    4  1200     2  1.6516412 -0.0016783  0.9999945  0.0033091 -0.0033091  0.9999945 
    4  1200     3  1.6568841 -0.0005137  0.9999967  0.0025851 -0.0025851  0.9999967 
    4  1200     4  1.6518165 -0.0021031  0.9999973  0.0023221 -0.0023221  0.9999973 
    4  1201     1  1.6742618 -0.0001114  0.9999981  0.0019644 -0.0019644  0.9999981 
    4  1201     2  1.6741062  0.0002217  0.9999957  0.0029396 -0.0029396  0.9999957 
    4  1201     3  1.6691675 -0.0016868  0.9999985  0.0017481 -0.0017481  0.9999985 
    4  1201     4  1.6690024 -0.0013566  0.9999963  0.0027226 -0.0027226  0.9999963 
    4  1202     1  1.6774011 -0.0015134  0.9999989  0.0015131 -0.0015131  0.9999989 
    4  1202     2  1.6825267  0.0000620  0.9999985  0.0017067 -0.0017067  0.9999985 
    4  1202     3  1.6772338 -0.0012305  0.9999969  0.0024880 -0.0024880  0.9999969 
    4  1202     4  1.6823674  0.0003474  0.9999964  0.0026823 -0.0026823  0.9999964 
    4  1203     1  1.6763832 -0.0012431  0.9999967  0.0025880 -0.0025880  0.9999967 
    4  1203     2  1.6765487 -0.0015100  0.9999987  0.0016022 -0.0016022  0.9999987 
    4  1203     3  1.6815265  0.0003340  0.9999962  0.0027733 -0.0027733  0.9999962 
    4  1203     4  1.6816880  0.0000657  0.9999984  0.0017864 -0.0017864  0.9999984 
    4  1204     1  1.6732526  0.0002102  0.9999954  0.0030431 -0.0030431  0.9999954 
    4  1204     2  1.6681328 -0.0013687  0.9999960  0.0028355 -0.0028355  0.9999960 
    4  1204     3  1.6734056 -0.0001066  0.9999979  0.0020541 -0.0020541  0.9999979 
    4  1204     4  1.6682940 -0.0016824  0.9999983  0.0018485 -0.0018485  0.9999983 
    4  1205     1  1.6559474 -0.0005005  0.9999964  0.0027018 -0.0027018  0.9999964 
    4  1205     2  1.6557568 -0.0001102  0.9999932  0.0037011 -0.0037011  0.9999932 
    4  1205     3  1.6508599 -0.0020886  0.9999970  0.0024519 -0.0024519  0.9999970 
    4  1205     4  1.6506494 -0.0017048  0.9999941  0.0034491 -0.0034491  0.9999941 
    4  1206     1  1.6591338 -0.0018732  0.9999976  0.0022058 -0.0022058  0.9999976 
    4  1206     2  1.6642527 -0.0002896  0.9999971  0.0024257 -0.0024257  0.9999971 
    4  1206     3  1.6589382 -0.0015417  0.9999949  0.0032034 -0.0032034  0.9999949 
    4  1206     4  1.6640813  0.0000502  0.9999941  0.0034267 -0.0034267  0.9999941 
    4  1207     1  1.6579675 -0.0015732  0.9999944  0.0033365 -0.0033365  0.9999944 
    4  1207     2  1.6581620 -0.0018749  0.9999973  0.0023181 -0.0023181  0.9999973 
    4  1207     3  1.6631886  0.0000350  0.9999937  0.0035454 -0.0035454  0.9999937 
    4  1207     4  1.6633440 -0.0002799  0.9999968  0.0025214 -0.0025214  0.9999968 
    4  1208     1  1.6547619 -0.0001235  0.9999926  0.0038346 -0.0038346  0.9999926 
    4  1208     2  1.6495953 -0.0017303  0.9999935  0.0035922 -0.0035922  0.9999935 
    4  1208     3  1.6549617 -0.0004877  0.9999960  0.0028191 -0.0028191  0.9999960 
    4  1208     4  1.6498386 -0.0020812  0.9999967  0.0025784 -0.0025784  0.9999967 
    4  1209     1  1.6725395 -0.0000969  0.9999977  0.0021452 -0.0021452  0.9999977 
    4  1209     2  1.6723739  0.0001849  0.9999951  0.0031451 -0.0031451  0.9999951 
    4  1209     3  1.6674144 -0.0016701  0.9999981  0.0019560 -0.0019560  0.9999981 
    4  1209     4  1.6672355 -0.0013932  0.9999956  0.0029524 -0.0029524  0.9999956 
    4  1210     1  1.6756866 -0.0014959  0.9999986  0.0016973 -0.0016973  0.9999986 
    4  1210     2  1.6808327  0.0000763  0.9999983  0.0018663 -0.0018663  0.9999983 
    4  1210     3  1.6755107 -0.0012622  0.9999964  0.0026906 -0.0026906  0.9999964 
    4  1210     4  1.6806581  0.0003110  0.9999959  0.0028622 -0.0028622  0.9999959 
    4  1211     1  1.6746562 -0.0012786  0.9999961  0.0027980 -0.0027980  0.9999961 
    4  1211     2  1.6748058 -0.0014857  0.9999984  0.0017969 -0.0017969  0.9999984 
    4  1211     3  1.6798027  0.0002882  0.9999956  0.0029512 -0.0029512  0.9999956 
    4  1211     4  1.6799620  0.0000826  0.9999981  0.0019439 -0.0019439  0.9999981 
    4  1212     1  1.6715310  0.0001647  0.9999947  0.0032486 -0.0032486  0.9999947 
    4  1212     2  1.6663494 -0.0014192  0.9999953  0.0030745 -0.0030745  0.9999953 
    4  1212     3  1.6716704 -0.0000910  0.9999975  0.0022292 -0.0022292  0.9999975 
    4  1212     4  1.6665053 -0.0016679  0.9999979  0.0020627 -0.0020627  0.9999979 
    4  1213     1  1.6539122 -0.0004610  0.9999957  0.0029362 -0.0029362  0.9999957 
    4  1213     2  1.6536447 -0.0001419  0.9999921  0.0039681 -0.0039681  0.9999921 
    4  1213     3  1.6487280 -0.0020690  0.9999964  0.0027010 -0.0027010  0.9999964 
    4  1213     4  1.6483858 -0.0017721  0.9999930  0.0037318 -0.0037318  0.9999930 
    4  1214     1  1.6571772 -0.0018724  0.9999971  0.0024269 -0.0024269  0.9999971 
    4  1214     2  1.6624603 -0.0002568  0.9999966  0.0026062 -0.0026062  0.9999966 
    4  1214     3  1.6569319 -0.0016320  0.9999940  0.0034700 -0.0034700  0.9999940 
    4  1214     4  1.6622957  0.0000102  0.9999933  0.0036590 -0.0036590  0.9999933 
    4  1215     1  1.6558555 -0.0017046  0.9999934  0.0036205 -0.0036205  0.9999934 
    4  1215     2  1.6561120 -0.0018636  0.9999968  0.0025229 -0.0025229  0.9999968 
    4  1215     3  1.6615177  0.0000152  0.9999929  0.0037789 -0.0037789  0.9999929 
    4  1215     4  1.6616189 -0.0001926  0.9999964  0.0026685 -0.0026685  0.9999964 
    4  1216     1  1.6524329 -0.0001328  0.9999915  0.0041269 -0.0041269  0.9999915 
    4  1216     2  1.6469612 -0.0018314  0.9999925  0.0038760 -0.0038760  0.9999925 
    4  1216     3  1.6527239 -0.0004769  0.9999953  0.0030588 -0.0030588  0.9999953 
    4  1216     4  1.6474031 -0.0021303  0.9999960  0.0028113 -0.0028113  0.9999960 
    4  1217     1  1.6708637 -0.0000737  0.9999973  0.0023029 -0.0023029  0.9999973 
    4  1217     2  1.6707635  0.0001259  0.9999944  0.0033467 -0.0033467  0.9999944 
    4  1217     3  1.6656371 -0.0016569  0.9999976  0.0021784 -0.0021784  0.9999976 
    4  1217     4  1.6654927 -0.0014736  0.9999949  0.0032066 -0.0032066  0.9999949 
    4  1218     1  1.6739728 -0.0014521  0.9999982  0.0019136 -0.0019136  0.9999982 
    4  1218     2  1.6791268  0.0001042  0.9999980  0.0020148 -0.0020148  0.9999980 
    4  1218     3  1.6738685 -0.0013081  0.9999957  0.0029160 -0.0029160  0.9999957 
    4  1218     4  1.6790003  0.0002441  0.9999954  0.0030321 -0.0030321  0.9999954 
    4  1219     1  1.6733547 -0.0013371  0.9999953  0.0030513 -0.0030513  0.9999953 
    4  1219     2  1.6732683 -0.0014164  0.9999979  0.0020603 -0.0020603  0.9999979 
    4  1219     3  1.6784538  0.0001943  0.9999952  0.0030971 -0.0030971  0.9999952 
    4  1219     4  1.6783943  0.0001208  0.9999979  0.0020632 -0.0020632  0.9999979 
    4  1220     1  1.6703104  0.0001112  0.9999941  0.0034293 -0.0034293  0.9999941 
    4  1220     2  1.6647829 -0.0015518  0.9999944  0.0033516 -0.0033516  0.9999944 
    4  1220     3  1.6702340 -0.0000136  0.9999973  0.0023300 -0.0023300  0.9999973 
    4  1220     4  1.6648274 -0.0016379  0.9999974  0.0022805 -0.0022805  0.9999974 
    4  1221     1  1.6550198 -0.0018584  0.9999965  0.0026429 -0.0026429  0.9999965 
    4  1221     2  1.6608057 -0.0001113  0.9999962  0.0027610 -0.0027610  0.9999962 
    4  1221     3  1.6547124 -0.0017754  0.9999928  0.0038028 -0.0038028  0.9999928 
    4  1221     4  1.6607118  0.0000370  0.9999923  0.0039320 -0.0039320  0.9999923 
    4  1222     1  1.6534999 -0.0018674  0.9999920  0.0040000 -0.0040000  0.9999920 
    4  1222     2  1.6538215 -0.0019203  0.9999962  0.0027527 -0.0027527  0.9999962 
    4  1222     3  1.6599078  0.0000638  0.9999915  0.0041124 -0.0041124  0.9999915 
    4  1222     4  1.6600009 -0.0000579  0.9999959  0.0028601 -0.0028601  0.9999959 
    4  1223     1  1.6495972 -0.0001136  0.9999897  0.0045408 -0.0045408  0.9999897 
    4  1223     2  1.6434366 -0.0020093  0.9999908  0.0042920 -0.0042920  0.9999908 
    4  1223     3  1.6499958 -0.0003692  0.9999944  0.0033329 -0.0033329  0.9999944 
    4  1223     4  1.6440596 -0.0021942  0.9999952  0.0030995 -0.0030995  0.9999952 
    4  1224     1  1.6514193 -0.0004635  0.9999949  0.0031961 -0.0031961  0.9999949 
    4  1224     2  1.6510542 -0.0001404  0.9999907  0.0043233 -0.0043233  0.9999907 
    4  1224     3  1.6458365 -0.0021944  0.9999957  0.0029444 -0.0029444  0.9999957 
    4  1224     4  1.6452579 -0.0019371  0.9999917  0.0040623 -0.0040623  0.9999917 
    4  1225     1  1.6525888 -0.0019414  0.9999959  0.0028575 -0.0028575  0.9999959 
    4  1225     2  1.6591102  0.0000206  0.9999956  0.0029546 -0.0029546  0.9999956 
    4  1225     3  1.6521873 -0.0019643  0.9999913  0.0041742 -0.0041742  0.9999913 
    4  1225     4  1.6588807  0.0000489  0.9999909  0.0042704 -0.0042704  0.9999909 
    4  1226     1  1.6507834 -0.0019921  0.9999905  0.0043480 -0.0043480  0.9999905 
    4  1226     2  1.6511825 -0.0019530  0.9999955  0.0029874 -0.0029874  0.9999955 
    4  1226     3  1.6576276  0.0000652  0.9999901  0.0044399 -0.0044399  0.9999901 
    4  1226     4  1.6579319  0.0000762  0.9999953  0.0030796 -0.0030796  0.9999953 
    4  1227     1  1.6465696 -0.0001159  0.9999879  0.0049282 -0.0049282  0.9999879 
    4  1227     2  1.6398317 -0.0021593  0.9999887  0.0047462 -0.0047462  0.9999887 
    4  1227     3  1.6469785 -0.0002470  0.9999936  0.0035737 -0.0035737  0.9999936 
    4  1227     4  1.6403380 -0.0022588  0.9999942  0.0034074 -0.0034074  0.9999942 
    4  1228     1  1.6484996 -0.0002820  0.9999941  0.0034388 -0.0034388  0.9999941 
    4  1228     2  1.6480567 -0.0000864  0.9999888  0.0047393 -0.0047393  0.9999888 
    4  1228     3  1.6421149 -0.0022298  0.9999948  0.0032308 -0.0032308  0.9999948 
    4  1228     4  1.6415077 -0.0020872  0.9999898  0.0045132 -0.0045132  0.9999898 
    4  1229     1  1.6369774 -0.0025648  0.9999946  0.0032773 -0.0032773  0.9999946 
    4  1229     2  1.6420517 -0.0008857  0.9999932  0.0036754 -0.0036754  0.9999932 
    4  1229     3  1.6360739 -0.0020903  0.9999909  0.0042630 -0.0042630  0.9999909 
    4  1229     4  1.6414644 -0.0003165  0.9999891  0.0046728 -0.0046728  0.9999891 
    4  1230     1  1.6330590 -0.0022416  0.9999896  0.0045584 -0.0045584  0.9999896 
    4  1230     2  1.6340590 -0.0025558  0.9999942  0.0034103 -0.0034103  0.9999942 
    4  1230     3  1.6392118 -0.0002627  0.9999876  0.0049742 -0.0049742  0.9999876 
    4  1230     4  1.6399391 -0.0006729  0.9999928  0.0037908 -0.0037908  0.9999928 
    4  1231     1  1.6285532 -0.0003188  0.9999860  0.0052899 -0.0052899  0.9999860 
    4  1231     2  1.6235189 -0.0024401  0.9999898  0.0045141 -0.0045141  0.9999898 
    4  1231     3  1.6294413 -0.0015186  0.9999898  0.0045222 -0.0045222  0.9999898 
    4  1231     4  1.6253309 -0.0031972  0.9999923  0.0039202 -0.0039202  0.9999923 
    4  1232     1  1.6329467 -0.0013607  0.9999909  0.0042621 -0.0042621  0.9999909 
    4  1232     2  1.6322989 -0.0006482  0.9999879  0.0049248 -0.0049248  0.9999879 
    4  1232     3  1.6292734 -0.0027951  0.9999929  0.0037716 -0.0037716  0.9999929 
    4  1232     4  1.6283782 -0.0020925  0.9999900  0.0044680 -0.0044680  0.9999900 
    4  1233     1  1.6317589 -0.0026190  0.9999936  0.0035780 -0.0035780  0.9999936 
    4  1233     2  1.6378495 -0.0006914  0.9999923  0.0039279 -0.0039279  0.9999923 
    4  1233     3  1.6309803 -0.0021765  0.9999886  0.0047654 -0.0047654  0.9999886 
    4  1233     4  1.6372541 -0.0001728  0.9999867  0.0051589 -0.0051589  0.9999867 
    4  1234     1  1.6285078 -0.0024808  0.9999864  0.0052238 -0.0052238  0.9999864 
    4  1234     2  1.6290580 -0.0026230  0.9999926  0.0038507 -0.0038507  0.9999926 
    4  1234     3  1.6353840 -0.0003800  0.9999850  0.0054727 -0.0054727  0.9999850 
    4  1234     4  1.6359371 -0.0005289  0.9999917  0.0040640 -0.0040640  0.9999917 
    4  1235     1  1.6240459 -0.0006736  0.9999821  0.0059768 -0.0059768  0.9999821 
    4  1235     2  1.6169891 -0.0028202  0.9999834  0.0057595 -0.0057595  0.9999834 
    4  1235     3  1.6246058 -0.0008164  0.9999898  0.0045194 -0.0045194  0.9999898 
    4  1235     4  1.6174767 -0.0029833  0.9999907  0.0043099 -0.0043099  0.9999907 
    4  1236     1  1.6265541 -0.0006952  0.9999907  0.0043235 -0.0043235  0.9999907 
    4  1236     2  1.6256269 -0.0002454  0.9999829  0.0058414 -0.0058414  0.9999829 
    4  1236     3  1.6192453 -0.0029950  0.9999923  0.0039216 -0.0039216  0.9999923 
    4  1236     4  1.6187877 -0.0024758  0.9999860  0.0052977 -0.0052977  0.9999860 
    4  1237     1  1.6227770 -0.0007922  0.9999888  0.0047350 -0.0047350  0.9999888 
    4  1237     2  1.6222230 -0.0007665  0.9999809  0.0061758 -0.0061758  0.9999809 
    4  1237     3  1.6157548 -0.0029136  0.9999895  0.0045773 -0.0045773  0.9999895 
    4  1237     4  1.6151995 -0.0028888  0.9999819  0.0060114 -0.0060114  0.9999819 
    4  1238     1  1.6272142 -0.0025721  0.9999916  0.0041001 -0.0041001  0.9999916 
    4  1238     2  1.6342058 -0.0004627  0.9999910  0.0042420 -0.0042420  0.9999910 
    4  1238     3  1.6266702 -0.0025689  0.9999848  0.0055130 -0.0055130  0.9999848 
    4  1238     4  1.6336870 -0.0004508  0.9999839  0.0056682 -0.0056682  0.9999839 
    4  1239     1  1.6249368 -0.0026267  0.9999834  0.0057689 -0.0057689  0.9999834 
    4  1239     2  1.6254446 -0.0025500  0.9999906  0.0043271 -0.0043271  0.9999906 
    4  1239     3  1.6320839 -0.0004783  0.9999827  0.0058752 -0.0058752  0.9999827 
    4  1239     4  1.6325413 -0.0004168  0.9999902  0.0044252 -0.0044252  0.9999902 
    4  1240     1  1.6204780 -0.0007978  0.9999794  0.0064132 -0.0064132  0.9999794 
    4  1240     2  1.6133744 -0.0029374  0.9999803  0.0062815 -0.0062815  0.9999803 
    4  1240     3  1.6210021 -0.0007682  0.9999877  0.0049602 -0.0049602  0.9999877 
    4  1240     4  1.6139384 -0.0028959  0.9999883  0.0048324 -0.0048324  0.9999883 
    4  1241     1  1.6018219 -0.0032901  0.9999769  0.0067918 -0.0067918  0.9999769 
    4  1241     2  1.6024332 -0.0032880  0.9999857  0.0053436 -0.0053436  0.9999857 
    4  1241     3  1.6088848 -0.0011578  0.9999759  0.0069480 -0.0069480  0.9999759 
    4  1241     4  1.6094541 -0.0011675  0.9999849  0.0055027 -0.0055027  0.9999849 
    4  1242     1  1.5973159 -0.0015597  0.9999720  0.0074776 -0.0074776  0.9999720 
    4  1242     2  1.5903740 -0.0036615  0.9999734  0.0072975 -0.0072975  0.9999734 
    4  1242     3  1.5979300 -0.0016061  0.9999817  0.0060489 -0.0060489  0.9999817 
    4  1242     4  1.5910440 -0.0036928  0.9999828  0.0058613 -0.0058613  0.9999828 
    4  1243     1  1.5998217 -0.0015940  0.9999835  0.0057456 -0.0057456  0.9999835 
    4  1243     2  1.5992823 -0.0015538  0.9999743  0.0071739 -0.0071739  0.9999743 
    4  1243     3  1.5929274 -0.0036793  0.9999845  0.0055751 -0.0055751  0.9999845 
    4  1243     4  1.5923475 -0.0036488  0.9999754  0.0070173 -0.0070173  0.9999754 
    4  1244     1  1.6042611 -0.0032918  0.9999871  0.0050697 -0.0050697  0.9999871 
    4  1244     2  1.6112977 -0.0011652  0.9999863  0.0052334 -0.0052334  0.9999863 
    4  1244     3  1.6037165 -0.0032575  0.9999788  0.0065170 -0.0065170  0.9999788 
    4  1244     4  1.6107484 -0.0011336  0.9999777  0.0066740 -0.0066740  0.9999777 
    4  1245     1  1.6069732 -0.0035318  0.9999896  0.0045560 -0.0045560  0.9999896 
    4  1245     2  1.6150964 -0.0010945  0.9999894  0.0046077 -0.0046077  0.9999894 
    4  1245     3  1.6069255 -0.0035370  0.9999802  0.0062854 -0.0062854  0.9999802 
    4  1245     4  1.6146218 -0.0012284  0.9999810  0.0061587 -0.0061587  0.9999810 
    4  1246     1  1.6054375 -0.0032391  0.9999804  0.0062661 -0.0062661  0.9999804 
    4  1246     2  1.6058360 -0.0033226  0.9999885  0.0047918 -0.0047918  0.9999885 
    4  1246     3  1.6125382 -0.0010951  0.9999794  0.0064189 -0.0064189  0.9999794 
    4  1246     4  1.6130079 -0.0011556  0.9999877  0.0049547 -0.0049547  0.9999877 
    4  1247     1  1.6011037 -0.0015145  0.9999763  0.0068892 -0.0068892  0.9999763 
    4  1247     2  1.5940460 -0.0036381  0.9999769  0.0067910 -0.0067910  0.9999769 
    4  1247     3  1.6014698 -0.0015676  0.9999852  0.0054406 -0.0054406  0.9999852 
    4  1247     4  1.5944074 -0.0036972  0.9999859  0.0053037 -0.0053037  0.9999859 
    4  1248     1  1.6022426 -0.0015409  0.9999872  0.0050685 -0.0050685  0.9999872 
    4  1248     2  1.6022438 -0.0017346  0.9999790  0.0064819 -0.0064819  0.9999790 
    4  1248     3  1.5954084 -0.0035863  0.9999871  0.0050808 -0.0050808  0.9999871 
    4  1248     4  1.5952315 -0.0038377  0.9999787  0.0065292 -0.0065292  0.9999787 
    4  1249     1  1.6071147 -0.0035555  0.9999822  0.0059635 -0.0059635  0.9999822 
    4  1249     2  1.6064143 -0.0027553  0.9999893  0.0046294 -0.0046294  0.9999893 
    4  1249     3  1.6146414 -0.0011274  0.9999852  0.0054479 -0.0054479  0.9999852 
    4  1249     4  1.6125767 -0.0007938  0.9999910  0.0042427 -0.0042427  0.9999910 
    4  1250     1  1.6028918 -0.0015239  0.9999800  0.0063218 -0.0063218  0.9999800 
    4  1250     2  1.5960200 -0.0035850  0.9999800  0.0063301 -0.0063301  0.9999800 
    4  1250     3  1.6024764 -0.0016838  0.9999878  0.0049385 -0.0049385  0.9999878 
    4  1250     4  1.5958563 -0.0036696  0.9999878  0.0049356 -0.0049356  0.9999878 
    4  1251     1  1.6023523 -0.0015818  0.9999889  0.0047151 -0.0047151  0.9999889 
    4  1251     2  1.6027434 -0.0015770  0.9999819  0.0060141 -0.0060141  0.9999819 
    4  1251     3  1.5962506 -0.0034125  0.9999887  0.0047452 -0.0047452  0.9999887 
    4  1251     4  1.5963296 -0.0034985  0.9999819  0.0060141 -0.0060141  0.9999819 
    4  1252     1  1.6055915 -0.0030049  0.9999894  0.0045999 -0.0045999  0.9999894 
    4  1252     2  1.6108899 -0.0013826  0.9999903  0.0043958 -0.0043958  0.9999903 
    4  1252     3  1.6060307 -0.0031280  0.9999840  0.0056623 -0.0056623  0.9999840 
    4  1252     4  1.6116252 -0.0014405  0.9999846  0.0055544 -0.0055544  0.9999846 
    4  1253     1  1.5853501 -0.0039421  0.9999778  0.0066664 -0.0066664  0.9999778 
    4  1253     2  1.5854189 -0.0040553  0.9999859  0.0053078 -0.0053078  0.9999859 
    4  1253     3  1.5920056 -0.0019401  0.9999772  0.0067573 -0.0067573  0.9999772 
    4  1253     4  1.5919481 -0.0020910  0.9999854  0.0053984 -0.0053984  0.9999854 
    4  1254     1  1.5813773 -0.0023751  0.9999742  0.0071901 -0.0071901  0.9999742 
    4  1254     2  1.5748821 -0.0043366  0.9999751  0.0070516 -0.0070516  0.9999751 
    4  1254     3  1.5814724 -0.0025571  0.9999829  0.0058425 -0.0058425  0.9999829 
    4  1254     4  1.5750063 -0.0045101  0.9999837  0.0057038 -0.0057038  0.9999837 
    4  1255     1  1.5823735 -0.0025355  0.9999844  0.0055771 -0.0055771  0.9999844 
    4  1255     2  1.5822522 -0.0022525  0.9999761  0.0069181 -0.0069181  0.9999761 
    4  1255     3  1.5759747 -0.0044781  0.9999854  0.0053989 -0.0053989  0.9999854 
    4  1255     4  1.5758180 -0.0042105  0.9999774  0.0067185 -0.0067185  0.9999774 
    4  1256     1  1.5862619 -0.0039827  0.9999872  0.0050630 -0.0050630  0.9999872 
    4  1256     2  1.5925477 -0.0020871  0.9999866  0.0051784 -0.0051784  0.9999866 
    4  1256     3  1.5861621 -0.0038198  0.9999798  0.0063568 -0.0063568  0.9999798 
    4  1256     4  1.5925756 -0.0018831  0.9999789  0.0064932 -0.0064932  0.9999789 
    4  1257     1  1.6059358 -0.0029791  0.9999855  0.0053944 -0.0053944  0.9999855 
    4  1257     2  1.6058138 -0.0032442  0.9999907  0.0043230 -0.0043230  0.9999907 
    4  1257     3  1.6112734 -0.0013605  0.9999847  0.0055351 -0.0055351  0.9999847 
    4  1257     4  1.6111817 -0.0016281  0.9999903  0.0044098 -0.0044098  0.9999903 
    4  1258     1  1.6026764 -0.0015883  0.9999826  0.0058918 -0.0058918  0.9999826 
    4  1258     2  1.5968159 -0.0033681  0.9999836  0.0057248 -0.0057248  0.9999836 
    4  1258     3  1.6025607 -0.0018861  0.9999891  0.0046741 -0.0046741  0.9999891 
    4  1258     4  1.5968049 -0.0036252  0.9999896  0.0045513 -0.0045513  0.9999896 
    4  1259     1  1.6033269 -0.0019772  0.9999895  0.0045782 -0.0045782  0.9999895 
    4  1259     2  1.6031859 -0.0015410  0.9999836  0.0057220 -0.0057220  0.9999836 
    4  1259     3  1.5978181 -0.0036819  0.9999906  0.0043335 -0.0043335  0.9999906 
    4  1259     4  1.5976301 -0.0032727  0.9999852  0.0054450 -0.0054450  0.9999852 
    4  1260     1  1.6066949 -0.0033104  0.9999917  0.0040725 -0.0040725  0.9999917 
    4  1260     2  1.6120232 -0.0016665  0.9999908  0.0042962 -0.0042962  0.9999908 
    4  1260     3  1.6065668 -0.0029278  0.9999868  0.0051386 -0.0051386  0.9999868 
    4  1260     4  1.6118826 -0.0012774  0.9999855  0.0053886 -0.0053886  0.9999855 
    4  1261     1  1.5885457 -0.0040803  0.9999895  0.0045821 -0.0045821  0.9999895 
    4  1261     2  1.5942752 -0.0022912  0.9999881  0.0048740 -0.0048740  0.9999881 
    4  1261     3  1.5882296 -0.0036447  0.9999836  0.0057342 -0.0057342  0.9999836 
    4  1261     4  1.5940411 -0.0018167  0.9999816  0.0060598 -0.0060598  0.9999816 
    4  1262     1  1.5870715 -0.0037246  0.9999817  0.0060430 -0.0060430  0.9999817 
    4  1262     2  1.5872417 -0.0040081  0.9999884  0.0048119 -0.0048119  0.9999884 
    4  1262     3  1.5932382 -0.0018375  0.9999804  0.0062689 -0.0062689  0.9999804 
    4  1262     4  1.5932858 -0.0021666  0.9999875  0.0050029 -0.0050029  0.9999875 
    4  1263     1  1.5832081 -0.0021514  0.9999778  0.0066693 -0.0066693  0.9999778 
    4  1263     2  1.5769558 -0.0040897  0.9999797  0.0063745 -0.0063745  0.9999797 
    4  1263     3  1.5834232 -0.0025580  0.9999856  0.0053725 -0.0053725  0.9999856 
    4  1263     4  1.5772500 -0.0044599  0.9999869  0.0051149 -0.0051149  0.9999869 
    4  1264     1  1.5847603 -0.0026661  0.9999865  0.0051999 -0.0051999  0.9999865 
    4  1264     2  1.5843851 -0.0021171  0.9999795  0.0064103 -0.0064103  0.9999795 
    4  1264     3  1.5789570 -0.0045097  0.9999883  0.0048431 -0.0048431  0.9999883 
    4  1264     4  1.5784697 -0.0040144  0.9999819  0.0060126 -0.0060126  0.9999819 
    4  1265     1  1.5896885 -0.0035520  0.9999853  0.0054229 -0.0054229  0.9999853 
    4  1265     2  1.5900630 -0.0041453  0.9999906  0.0043411 -0.0043411  0.9999906 
    4  1265     3  1.5952195 -0.0017499  0.9999830  0.0058318 -0.0058318  0.9999830 
    4  1265     4  1.5955043 -0.0023868  0.9999889  0.0047208 -0.0047208  0.9999889 
    4  1266     1  1.5858930 -0.0020406  0.9999812  0.0061345 -0.0061345  0.9999812 
    4  1266     2  1.5803439 -0.0039096  0.9999841  0.0056435 -0.0056435  0.9999841 
    4  1266     3  1.5863095 -0.0027998  0.9999874  0.0050245 -0.0050245  0.9999874 
    4  1266     4  1.5808824 -0.0046091  0.9999896  0.0045683 -0.0045683  0.9999896 
    4  1267     1  1.5880336 -0.0028263  0.9999883  0.0048344 -0.0048344  0.9999883 
    4  1267     2  1.5875761 -0.0019984  0.9999829  0.0058505 -0.0058505  0.9999829 
    4  1267     3  1.5829618 -0.0045839  0.9999906  0.0043329 -0.0043329  0.9999906 
    4  1267     4  1.5823933 -0.0038071  0.9999858  0.0053238 -0.0053238  0.9999858 
    4  1268     1  1.5917405 -0.0041668  0.9999916  0.0041070 -0.0041070  0.9999916 
    4  1268     2  1.5969187 -0.0024358  0.9999897  0.0045451 -0.0045451  0.9999897 
    4  1268     3  1.5913099 -0.0034745  0.9999869  0.0051249 -0.0051249  0.9999869 
    4  1268     4  1.5965672 -0.0017054  0.9999844  0.0055848 -0.0055848  0.9999844 
    4  1269     1  1.5930262 -0.0033898  0.9999882  0.0048493 -0.0048493  0.9999882 
    4  1269     2  1.5934423 -0.0041659  0.9999925  0.0038783 -0.0038783  0.9999925 
    4  1269     3  1.5980824 -0.0016421  0.9999857  0.0053422 -0.0053422  0.9999857 
    4  1269     4  1.5984233 -0.0024527  0.9999905  0.0043541 -0.0043541  0.9999905 
    4  1270     1  1.5893872 -0.0019418  0.9999844  0.0055777 -0.0055777  0.9999844 
    4  1270     2  1.5844538 -0.0037108  0.9999873  0.0050316 -0.0050316  0.9999873 
    4  1270     3  1.5898144 -0.0028364  0.9999893  0.0046231 -0.0046231  0.9999893 
    4  1270     4  1.5849696 -0.0045668  0.9999916  0.0040938 -0.0040938  0.9999916 
    4  1271     1  1.5915880 -0.0028067  0.9999903  0.0044003 -0.0044003  0.9999903 
    4  1271     2  1.5911716 -0.0018849  0.9999859  0.0053107 -0.0053107  0.9999859 
    4  1271     3  1.5869134 -0.0045089  0.9999925  0.0038607 -0.0038607  0.9999925 
    4  1271     4  1.5864237 -0.0036177  0.9999887  0.0047587 -0.0047587  0.9999887 
    4  1272     1  1.5951451 -0.0041361  0.9999933  0.0036613 -0.0036613  0.9999933 
    4  1272     2  1.5999582 -0.0024438  0.9999914  0.0041583 -0.0041583  0.9999914 
    4  1272     3  1.5947319 -0.0033132  0.9999895  0.0045923 -0.0045923  0.9999895 
    4  1272     4  1.5996086 -0.0015927  0.9999870  0.0051021 -0.0051021  0.9999870 
    4  1273     1  1.5759379 -0.0040496  0.9999866  0.0051857 -0.0051857  0.9999866 
    4  1273     2  1.5765723 -0.0049939  0.9999907  0.0043115 -0.0043115  0.9999907 
    4  1273     3  1.5806812 -0.0022570  0.9999832  0.0057922 -0.0057922  0.9999832 
    4  1273     4  1.5811954 -0.0032497  0.9999880  0.0048996 -0.0048996  0.9999880 
    4  1274     1  1.5720133 -0.0026026  0.9999822  0.0059663 -0.0059663  0.9999822 
    4  1274     2  1.5676518 -0.0043882  0.9999859  0.0053055 -0.0053055  0.9999859 
    4  1274     3  1.5726075 -0.0037028  0.9999866  0.0051842 -0.0051842  0.9999866 
    4  1274     4  1.5683921 -0.0054383  0.9999897  0.0045400 -0.0045400  0.9999897 
    4  1275     1  1.5750243 -0.0035912  0.9999881  0.0048775 -0.0048775  0.9999881 
    4  1275     2  1.5744929 -0.0025437  0.9999840  0.0056595 -0.0056595  0.9999840 
    4  1275     3  1.5708439 -0.0052781  0.9999909  0.0042626 -0.0042626  0.9999909 
    4  1275     4  1.5702260 -0.0042515  0.9999873  0.0050407 -0.0050407  0.9999873 
    4  1276     1  1.5787712 -0.0049005  0.9999918  0.0040594 -0.0040594  0.9999918 
    4  1276     2  1.5832524 -0.0031928  0.9999892  0.0046422 -0.0046422  0.9999892 
    4  1276     3  1.5782082 -0.0039379  0.9999880  0.0049078 -0.0049078  0.9999880 
    4  1276     4  1.5827713 -0.0022008  0.9999849  0.0055004 -0.0055004  0.9999849 
    4  1277     1  1.5964256 -0.0032319  0.9999905  0.0043491 -0.0043491  0.9999905 
    4  1277     2  1.5968270 -0.0040918  0.9999941  0.0034486 -0.0034486  0.9999941 
    4  1277     3  1.6011632 -0.0015314  0.9999881  0.0048713 -0.0048713  0.9999881 
    4  1277     4  1.6015082 -0.0024166  0.9999922  0.0039593 -0.0039593  0.9999922 
    4  1278     1  1.5929319 -0.0018185  0.9999872  0.0050607 -0.0050607  0.9999872 
    4  1278     2  1.5883099 -0.0035257  0.9999898  0.0045064 -0.0045064  0.9999898 
    4  1278     3  1.5933340 -0.0027577  0.9999913  0.0041769 -0.0041769  0.9999913 
    4  1278     4  1.5887641 -0.0044431  0.9999934  0.0036315 -0.0036315  0.9999934 
    4  1279     1  1.5950540 -0.0026988  0.9999922  0.0039616 -0.0039616  0.9999922 
    4  1279     2  1.5946542 -0.0017493  0.9999884  0.0048218 -0.0048218  0.9999884 
    4  1279     3  1.5905795 -0.0043675  0.9999942  0.0034128 -0.0034128  0.9999942 
    4  1279     4  1.5901371 -0.0034377  0.9999909  0.0042641 -0.0042641  0.9999909 
    4  1280     1  1.5984996 -0.0040396  0.9999947  0.0032456 -0.0032456  0.9999947 
    4  1280     2  1.6030673 -0.0023798  0.9999929  0.0037662 -0.0037662  0.9999929 
    4  1280     3  1.5980990 -0.0031586  0.9999915  0.0041180 -0.0041180  0.9999915 
    4  1280     4  1.6027103 -0.0014785  0.9999892  0.0046481 -0.0046481  0.9999892 
    4  1281     1  1.5802963 -0.0038244  0.9999892  0.0046512 -0.0046512  0.9999892 
    4  1281     2  1.5808003 -0.0047962  0.9999927  0.0038121 -0.0038121  0.9999927 
    4  1281     3  1.5847640 -0.0021192  0.9999863  0.0052341 -0.0052341  0.9999863 
    4  1281     4  1.5852097 -0.0031125  0.9999904  0.0043876 -0.0043876  0.9999904 
    4  1282     1  1.5767094 -0.0024559  0.9999855  0.0053864 -0.0053864  0.9999855 
    4  1282     2  1.5724354 -0.0041310  0.9999885  0.0047929 -0.0047929  0.9999885 
    4  1282     3  1.5771967 -0.0034724  0.9999895  0.0045831 -0.0045831  0.9999895 
    4  1282     4  1.5729582 -0.0051428  0.9999920  0.0039885 -0.0039885  0.9999920 
    4  1283     1  1.5791992 -0.0033666  0.9999907  0.0043158 -0.0043158  0.9999907 
    4  1283     2  1.5787333 -0.0023596  0.9999868  0.0051336 -0.0051336  0.9999868 
    4  1283     3  1.5749280 -0.0050305  0.9999930  0.0037314 -0.0037314  0.9999930 
    4  1283     4  1.5744451 -0.0040292  0.9999897  0.0045470 -0.0045470  0.9999897 
    4  1284     1  1.5827220 -0.0047071  0.9999936  0.0035755 -0.0035755  0.9999936 
    4  1284     2  1.5870790 -0.0030367  0.9999914  0.0041486 -0.0041486  0.9999914 
    4  1284     3  1.5822522 -0.0037276  0.9999903  0.0044049 -0.0044049  0.9999903 
    4  1284     4  1.5866433 -0.0020423  0.9999876  0.0049843 -0.0049843  0.9999876 
    4  1285     1  1.5647986 -0.0044379  0.9999878  0.0049373 -0.0049373  0.9999878 
    4  1285     2  1.5653011 -0.0054597  0.9999914  0.0041549 -0.0041549  0.9999914 
    4  1285     3  1.5688912 -0.0028182  0.9999848  0.0055198 -0.0055198  0.9999848 
    4  1285     4  1.5693882 -0.0038235  0.9999887  0.0047492 -0.0047492  0.9999887 
    4  1286     1  1.5613609 -0.0032400  0.9999841  0.0056432 -0.0056432  0.9999841 
    4  1286     2  1.5573327 -0.0047525  0.9999868  0.0051303 -0.0051303  0.9999868 
    4  1286     3  1.5618611 -0.0040962  0.9999882  0.0048496 -0.0048496  0.9999882 
    4  1286     4  1.5577104 -0.0056794  0.9999907  0.0043013 -0.0043013  0.9999907 
    4  1287     1  1.5637382 -0.0039942  0.9999896  0.0045561 -0.0045561  0.9999896 
    4  1287     2  1.5632495 -0.0030941  0.9999853  0.0054208 -0.0054208  0.9999853 
    4  1287     3  1.5593911 -0.0056119  0.9999919  0.0040157 -0.0040157  0.9999919 
    4  1287     4  1.5589783 -0.0046916  0.9999881  0.0048823 -0.0048823  0.9999881 
    4  1288     1  1.5671876 -0.0053399  0.9999925  0.0038782 -0.0038782  0.9999925 
    4  1288     2  1.5714170 -0.0036952  0.9999901  0.0044574 -0.0044574  0.9999901 
    4  1288     3  1.5667221 -0.0043426  0.9999890  0.0046997 -0.0046997  0.9999890 
    4  1288     4  1.5709343 -0.0027057  0.9999861  0.0052763 -0.0052763  0.9999861 
    4  1289     1  1.5842063 -0.0036381  0.9999914  0.0041560 -0.0041560  0.9999914 
    4  1289     2  1.5847080 -0.0046131  0.9999944  0.0033524 -0.0033524  0.9999944 
    4  1289     3  1.5884835 -0.0019730  0.9999888  0.0047375 -0.0047375  0.9999888 
    4  1289     4  1.5889532 -0.0029670  0.9999923  0.0039241 -0.0039241  0.9999923 
    4  1290     1  1.5806618 -0.0022886  0.9999881  0.0048806 -0.0048806  0.9999881 
    4  1290     2  1.5764389 -0.0039496  0.9999908  0.0042913 -0.0042913  0.9999908 
    4  1290     3  1.5811685 -0.0032925  0.9999917  0.0040748 -0.0040748  0.9999917 
    4  1290     4  1.5769512 -0.0049460  0.9999939  0.0034907 -0.0034907  0.9999939 
    4  1291     1  1.5832028 -0.0032367  0.9999926  0.0038469 -0.0038469  0.9999926 
    4  1291     2  1.5826765 -0.0021965  0.9999893  0.0046282 -0.0046282  0.9999893 
    4  1291     3  1.5790813 -0.0048893  0.9999947  0.0032507 -0.0032507  0.9999947 
    4  1291     4  1.5785408 -0.0038662  0.9999919  0.0040216 -0.0040216  0.9999919 
    4  1292     1  1.5867495 -0.0045545  0.9999951  0.0031300 -0.0031300  0.9999951 
    4  1292     2  1.5908800 -0.0029164  0.9999931  0.0037120 -0.0037120  0.9999931 
    4  1292     3  1.5862338 -0.0035537  0.9999924  0.0039029 -0.0039029  0.9999924 
    4  1292     4  1.5903874 -0.0018968  0.9999899  0.0044955 -0.0044955  0.9999899 
    4  1293     1  1.5687006 -0.0042677  0.9999902  0.0044272 -0.0044272  0.9999902 
    4  1293     2  1.5692108 -0.0052863  0.9999935  0.0036180 -0.0036180  0.9999935 
    4  1293     3  1.5728890 -0.0026101  0.9999874  0.0050218 -0.0050218  0.9999874 
    4  1293     4  1.5734050 -0.0036361  0.9999912  0.0042059 -0.0042059  0.9999912 
    4  1294     1  1.5651184 -0.0029624  0.9999867  0.0051597 -0.0051597  0.9999867 
    4  1294     2  1.5608223 -0.0046410  0.9999896  0.0045627 -0.0045627  0.9999896 
    4  1294     3  1.5656518 -0.0039939  0.9999907  0.0043054 -0.0043054  0.9999907 
    4  1294     4  1.5613240 -0.0056678  0.9999931  0.0037174 -0.0037174  0.9999931 
    4  1295     1  1.5677468 -0.0039422  0.9999917  0.0040709 -0.0040709  0.9999917 
    4  1295     2  1.5671703 -0.0028283  0.9999881  0.0048805 -0.0048805  0.9999881 
    4  1295     3  1.5635631 -0.0056382  0.9999941  0.0034473 -0.0034473  0.9999941 
    4  1295     4  1.5629932 -0.0045418  0.9999910  0.0042437 -0.0042437  0.9999910 
    4  1296     1  1.5713899 -0.0052622  0.9999944  0.0033596 -0.0033596  0.9999944 
    4  1296     2  1.5754793 -0.0035964  0.9999921  0.0039718 -0.0039718  0.9999921 
    4  1296     3  1.5708403 -0.0041833  0.9999915  0.0041345 -0.0041345  0.9999915 
    4  1296     4  1.5749348 -0.0024998  0.9999887  0.0047583 -0.0047583  0.9999887 
    4  1297     1  1.5847730 -0.0021358  0.9999905  0.0043559 -0.0043559  0.9999905 
    4  1297     2  1.5808413 -0.0037809  0.9999930  0.0037421 -0.0037421  0.9999930 
    4  1297     3  1.5853834 -0.0031821  0.9999934  0.0036296 -0.0036296  0.9999934 
    4  1297     4  1.5814662 -0.0048074  0.9999954  0.0030274 -0.0030274  0.9999954 
    4  1298     1  1.5877514 -0.0031186  0.9999942  0.0034114 -0.0034114  0.9999942 
    4  1298     2  1.5871272 -0.0020249  0.9999917  0.0040850 -0.0040850  0.9999917 
    4  1298     3  1.5840332 -0.0047302  0.9999961  0.0027981 -0.0027981  0.9999961 
    4  1298     4  1.5833843 -0.0036630  0.9999940  0.0034580 -0.0034580  0.9999940 
    4  1299     1  1.5914123 -0.0043953  0.9999963  0.0027037 -0.0027037  0.9999963 
    4  1299     2  1.5951600 -0.0027989  0.9999945  0.0033023 -0.0033023  0.9999945 
    4  1299     3  1.5907969 -0.0033565  0.9999943  0.0033735 -0.0033735  0.9999943 
    4  1299     4  1.5945596 -0.0017399  0.9999921  0.0039833 -0.0039833  0.9999921 
    4  1300     1  1.5884248 -0.0034589  0.9999934  0.0036383 -0.0036383  0.9999934 
    4  1300     2  1.5890198 -0.0044605  0.9999957  0.0029213 -0.0029213  0.9999957 
    4  1300     3  1.5923682 -0.0018308  0.9999910  0.0042371 -0.0042371  0.9999910 
    4  1300     4  1.5929380 -0.0028566  0.9999939  0.0035068 -0.0035068  0.9999939 
    4  1301     1  1.5732432 -0.0040829  0.9999926  0.0038355 -0.0038355  0.9999926 
    4  1301     2  1.5738830 -0.0051816  0.9999951  0.0031242 -0.0031242  0.9999951 
    4  1301     3  1.5771244 -0.0024109  0.9999900  0.0044739 -0.0044739  0.9999900 
    4  1301     4  1.5777516 -0.0035340  0.9999930  0.0037485 -0.0037485  0.9999930 
    4  1302     1  1.5694213 -0.0027299  0.9999895  0.0045818 -0.0045818  0.9999895 
    4  1302     2  1.5654695 -0.0044389  0.9999923  0.0039248 -0.0039248  0.9999923 
    4  1302     3  1.5700924 -0.0038736  0.9999926  0.0038427 -0.0038427  0.9999926 
    4  1302     4  1.5661412 -0.0055600  0.9999949  0.0031998 -0.0031998  0.9999949 
    4  1303     1  1.5727001 -0.0037985  0.9999935  0.0036138 -0.0036138  0.9999935 
    4  1303     2  1.5719995 -0.0025797  0.9999909  0.0042711 -0.0042711  0.9999909 
    4  1303     3  1.5690308 -0.0054768  0.9999956  0.0029526 -0.0029526  0.9999956 
    4  1303     4  1.5683198 -0.0042945  0.9999936  0.0035912 -0.0035912  0.9999936 
    4  1304     1  1.5765983 -0.0051051  0.9999958  0.0028929 -0.0028929  0.9999958 
    4  1304     2  1.5802473 -0.0034661  0.9999938  0.0035306 -0.0035306  0.9999938 
    4  1304     3  1.5759153 -0.0039666  0.9999937  0.0035407 -0.0035407  0.9999937 
    4  1304     4  1.5795911 -0.0022938  0.9999912  0.0041953 -0.0041953  0.9999912 
    4  1305     1  1.5896642 -0.0019452  0.9999928  0.0037982 -0.0037982  0.9999928 
    4  1305     2  1.5861218 -0.0035252  0.9999949  0.0031878 -0.0031878  0.9999949 
    4  1305     3  1.5903524 -0.0030297  0.9999949  0.0031906 -0.0031906  0.9999949 
    4  1305     4  1.5868483 -0.0046047  0.9999967  0.0025810 -0.0025810  0.9999967 
    4  1306     1  1.5929697 -0.0029365  0.9999958  0.0028910 -0.0028910  0.9999958 
    4  1306     2  1.5923458 -0.0020977  0.9999935  0.0035965 -0.0035965  0.9999935 
    4  1306     3  1.5892956 -0.0044217  0.9999972  0.0023533 -0.0023533  0.9999972 
    4  1306     4  1.5884592 -0.0036234  0.9999953  0.0030603 -0.0030603  0.9999953 
    4  1307     1  1.5966001 -0.0043221  0.9999974  0.0022671 -0.0022671  0.9999974 
    4  1307     2  1.6008938 -0.0025374  0.9999957  0.0029231 -0.0029231  0.9999957 
    4  1307     3  1.5958366 -0.0032231  0.9999953  0.0030665 -0.0030665  0.9999953 
    4  1307     4  1.5998724 -0.0016743  0.9999935  0.0036004 -0.0036004  0.9999935 
    4  1308     1  1.5934078 -0.0031832  0.9999952  0.0030933 -0.0030933  0.9999952 
    4  1308     2  1.5940784 -0.0042623  0.9999969  0.0024946 -0.0024946  0.9999969 
    4  1308     3  1.5968848 -0.0016043  0.9999931  0.0037045 -0.0037045  0.9999931 
    4  1308     4  1.5975691 -0.0026940  0.9999952  0.0030989 -0.0030989  0.9999952 
    4  1309     1  1.5789962 -0.0038601  0.9999948  0.0032266 -0.0032266  0.9999948 
    4  1309     2  1.5797345 -0.0049592  0.9999964  0.0026914 -0.0026914  0.9999964 
    4  1309     3  1.5822546 -0.0022556  0.9999925  0.0038677 -0.0038677  0.9999925 
    4  1309     4  1.5829413 -0.0034182  0.9999945  0.0033039 -0.0033039  0.9999945 
    4  1310     1  1.5748353 -0.0024811  0.9999921  0.0039675 -0.0039675  0.9999921 
    4  1310     2  1.5714761 -0.0041776  0.9999946  0.0032835 -0.0032835  0.9999946 
    4  1310     3  1.5756381 -0.0036992  0.9999942  0.0034087 -0.0034087  0.9999942 
    4  1310     4  1.5722947 -0.0053504  0.9999962  0.0027453 -0.0027453  0.9999962 
    4  1311     1  1.5786976 -0.0035517  0.9999950  0.0031730 -0.0031730  0.9999950 
    4  1311     2  1.5780431 -0.0019595  0.9999940  0.0034715 -0.0034715  0.9999940 
    4  1311     3  1.5762033 -0.0052267  0.9999969  0.0025000 -0.0025000  0.9999969 
    4  1311     4  1.5756698 -0.0038389  0.9999962  0.0027635 -0.0027635  0.9999962 
    4  1312     1  1.5832781 -0.0047836  0.9999967  0.0025626 -0.0025626  0.9999967 
    4  1312     2  1.5856270 -0.0034536  0.9999952  0.0031035 -0.0031035  0.9999952 
    4  1312     3  1.5826420 -0.0036770  0.9999958  0.0028848 -0.0028848  0.9999958 
    4  1312     4  1.5851916 -0.0022058  0.9999939  0.0034812 -0.0034812  0.9999939 
    4  1313     1  1.5976302 -0.0036780  0.9999953  0.0030576 -0.0030576  0.9999953 
    4  1313     2  1.5981664 -0.0038140  0.9999981  0.0019585 -0.0019585  0.9999981 
    4  1313     3  1.6029933 -0.0020303  0.9999946  0.0032785 -0.0032785  0.9999946 
    4  1313     4  1.6026987 -0.0023985  0.9999975  0.0022289 -0.0022289  0.9999975 
    4  1314     1  1.5942554 -0.0022654  0.9999940  0.0034603 -0.0034603  0.9999940 
    4  1314     2  1.5903248 -0.0036236  0.9999953  0.0030772 -0.0030772  0.9999953 
    4  1314     3  1.5947594 -0.0028752  0.9999963  0.0027054 -0.0027054  0.9999963 
    4  1314     4  1.5910074 -0.0042248  0.9999974  0.0022857 -0.0022857  0.9999974 
    4  1315     1  1.5963730 -0.0025986  0.9999973  0.0023273 -0.0023273  0.9999973 
    4  1315     2  1.5958724 -0.0020337  0.9999948  0.0032294 -0.0032294  0.9999948 
    4  1315     3  1.5923913 -0.0039523  0.9999981  0.0019610 -0.0019610  0.9999981 
    4  1315     4  1.5919758 -0.0034353  0.9999962  0.0027711 -0.0027711  0.9999962 
    4  1316     1  1.5992125 -0.0036216  0.9999981  0.0019274 -0.0019274  0.9999981 
    4  1316     2  1.6025629 -0.0025758  0.9999978  0.0021003 -0.0021003  0.9999978 
    4  1316     3  1.5988992 -0.0032441  0.9999964  0.0026934 -0.0026934  0.9999964 
    4  1316     4  1.6027049 -0.0020505  0.9999958  0.0028992 -0.0028992  0.9999958 
    4  1317     1  1.5855021 -0.0042263  0.9999972  0.0023554 -0.0023554  0.9999972 
    4  1317     2  1.5901093 -0.0028510  0.9999971  0.0024202 -0.0024202  0.9999971 
    4  1317     3  1.5863135 -0.0040642  0.9999944  0.0033374 -0.0033374  0.9999944 
    4  1317     4  1.5897730 -0.0030152  0.9999949  0.0031891 -0.0031891  0.9999949 
    4  1318     1  1.5847875 -0.0037378  0.9999960  0.0028380 -0.0028380  0.9999960 
    4  1318     2  1.5858369 -0.0045194  0.9999971  0.0024268 -0.0024268  0.9999971 
    4  1318     3  1.5877583 -0.0024833  0.9999945  0.0033211 -0.0033211  0.9999945 
    4  1318     4  1.5881898 -0.0033692  0.9999958  0.0028836 -0.0028836  0.9999958 
    4  1319     1  1.5827889 -0.0020533  0.9999964  0.0026882 -0.0026882  0.9999964 
    4  1319     2  1.5829092 -0.0037413  0.9999962  0.0027466 -0.0027466  0.9999962 
    4  1319     3  1.5813445 -0.0038653  0.9999948  0.0032376 -0.0032376  0.9999948 
    4  1319     4  1.5817581 -0.0047334  0.9999950  0.0031586 -0.0031586  0.9999950 
    4  1320     1  1.5992532 -0.0034708  0.9999964  0.0026705 -0.0026705  0.9999964 
    4  1320     2  1.5998414 -0.0033526  0.9999981  0.0019320 -0.0019320  0.9999981 
    4  1320     3  1.6027467 -0.0024291  0.9999966  0.0026028 -0.0026028  0.9999966 
    4  1320     4  1.6026313 -0.0025126  0.9999980  0.0019822 -0.0019822  0.9999980 
    4  1321     1  1.5974895 -0.0018233  0.9999968  0.0025195 -0.0025195  0.9999968 
    4  1321     2  1.5964637 -0.0032260  0.9999978  0.0021170 -0.0021170  0.9999978 
    4  1321     3  1.5974818 -0.0032007  0.9999969  0.0024918 -0.0024918  0.9999969 
    4  1321     4  1.5967233 -0.0038993  0.9999976  0.0022005 -0.0022005  0.9999976 
    4  1322     1  1.5989303 -0.0032081  0.9999973  0.0023071 -0.0023071  0.9999973 
    4  1322     2  1.6017138 -0.0021044  0.9999982  0.0019078 -0.0019078  0.9999982 
    4  1322     3  1.5998389 -0.0038341  0.9999963  0.0027181 -0.0027181  0.9999963 
    4  1322     4  1.6020594 -0.0028215  0.9999973  0.0023273 -0.0023273  0.9999973 
    4  1323     1  1.5949604 -0.0028468  0.9999972  0.0023480 -0.0023480  0.9999972 
    4  1323     2  1.5921494 -0.0043399  0.9999957  0.0029469 -0.0029469  0.9999957 
    4  1323     3  1.5942200 -0.0016077  0.9999982  0.0018818 -0.0018818  0.9999982 
    4  1323     4  1.5915896 -0.0032713  0.9999968  0.0025447 -0.0025447  0.9999968 
    4  1324     1  1.5926894 -0.0020571  0.9999987  0.0016185 -0.0016185  0.9999987 
    4  1324     2  1.5932959 -0.0029758  0.9999974  0.0022708 -0.0022708  0.9999974 
    4  1324     3  1.5892516 -0.0035118  0.9999977  0.0021629 -0.0021629  0.9999977 
    4  1324     4  1.5898463 -0.0044007  0.9999961  0.0027944 -0.0027944  0.9999961 
    4  1325     1  1.5956466 -0.0032743  0.9999979  0.0020627 -0.0020627  0.9999979 
    4  1325     2  1.5988664 -0.0018998  0.9999988  0.0015472 -0.0015472  0.9999988 
    4  1325     3  1.5961614 -0.0041134  0.9999965  0.0026484 -0.0026484  0.9999965 
    4  1325     4  1.5993263 -0.0028057  0.9999976  0.0021695 -0.0021695  0.9999976 
    4  1326     1  1.5983859 -0.0040031  0.9999964  0.0026822 -0.0026822  0.9999964 
    4  1326     2  1.5978675 -0.0031033  0.9999973  0.0023249 -0.0023249  0.9999973 
    4  1326     3  1.6006601 -0.0028641  0.9999975  0.0022280 -0.0022280  0.9999975 
    4  1326     4  1.6003289 -0.0018276  0.9999984  0.0018159 -0.0018159  0.9999984 
    4  1327     1  1.5826506 -0.0038084  0.9999974  0.0022763 -0.0022763  0.9999974 
    4  1327     2  1.5861947 -0.0023886  0.9999984  0.0017642 -0.0017642  0.9999984 
    4  1327     3  1.5832267 -0.0046304  0.9999956  0.0029737 -0.0029737  0.9999956 
    4  1327     4  1.5868650 -0.0032020  0.9999969  0.0024701 -0.0024701  0.9999969 
    4  1328     1  1.5854177 -0.0047454  0.9999950  0.0031515 -0.0031515  0.9999950 
    4  1328     2  1.5847749 -0.0035531  0.9999969  0.0024711 -0.0024711  0.9999969 
    4  1328     3  1.5891096 -0.0031666  0.9999967  0.0025525 -0.0025525  0.9999967 
    4  1328     4  1.5883066 -0.0021416  0.9999981  0.0019504 -0.0019504  0.9999981 
    4  1329     1  1.5817769 -0.0032114  0.9999957  0.0029479 -0.0029479  0.9999957 
    4  1329     2  1.5770686 -0.0048436  0.9999942  0.0034201 -0.0034201  0.9999942 
    4  1329     3  1.5809467 -0.0026184  0.9999981  0.0019657 -0.0019657  0.9999981 
    4  1329     4  1.5767356 -0.0041622  0.9999969  0.0024903 -0.0024903  0.9999969 
    4  1330     1  1.5797816 -0.0027744  0.9999982  0.0018789 -0.0018789  0.9999982 
    4  1330     2  1.5804223 -0.0033779  0.9999965  0.0026554 -0.0026554  0.9999965 
    4  1330     3  1.5758701 -0.0041370  0.9999974  0.0022749 -0.0022749  0.9999974 
    4  1330     4  1.5764234 -0.0048139  0.9999952  0.0031035 -0.0031035  0.9999952 
    4  1331     1  1.5789145 -0.0035530  0.9999968  0.0025180 -0.0025180  0.9999968 
    4  1331     2  1.5752735 -0.0049708  0.9999955  0.0030158 -0.0030158  0.9999955 
    4  1331     3  1.5784549 -0.0026572  0.9999984  0.0018007 -0.0018007  0.9999984 
    4  1331     4  1.5747375 -0.0040950  0.9999973  0.0023023 -0.0023023  0.9999973 
    4  1332     1  1.5772174 -0.0027394  0.9999987  0.0016273 -0.0016273  0.9999987 
    4  1332     2  1.5776430 -0.0036349  0.9999972  0.0023637 -0.0023637  0.9999972 
    4  1332     3  1.5734494 -0.0041938  0.9999977  0.0021336 -0.0021336  0.9999977 
    4  1332     4  1.5739293 -0.0050575  0.9999959  0.0028542 -0.0028542  0.9999959 
    4  1333     1  1.5800310 -0.0039010  0.9999981  0.0019631 -0.0019631  0.9999981 
    4  1333     2  1.5838843 -0.0024455  0.9999989  0.0014721 -0.0014721  0.9999989 
    4  1333     3  1.5804453 -0.0047486  0.9999963  0.0027132 -0.0027132  0.9999963 
    4  1333     4  1.5842572 -0.0033199  0.9999975  0.0022369 -0.0022369  0.9999975 
    4  1334     1  1.5816708 -0.0046926  0.9999960  0.0028455 -0.0028455  0.9999960 
    4  1334     2  1.5812071 -0.0038428  0.9999978  0.0021076 -0.0021076  0.9999978 
    4  1334     3  1.5854188 -0.0032595  0.9999972  0.0023551 -0.0023551  0.9999972 
    4  1334     4  1.5849603 -0.0024002  0.9999987  0.0016103 -0.0016103  0.9999987 
    4  1335     1  1.5665847 -0.0045831  0.9999976  0.0022115 -0.0022115  0.9999976 
    4  1335     2  1.5703960 -0.0031243  0.9999985  0.0017053 -0.0017053  0.9999985 
    4  1335     3  1.5671620 -0.0053505  0.9999956  0.0029659 -0.0029659  0.9999956 
    4  1335     4  1.5709692 -0.0039124  0.9999969  0.0024769 -0.0024769  0.9999969 
    4  1336     1  1.5694671 -0.0053030  0.9999951  0.0031274 -0.0031274  0.9999951 
    4  1336     2  1.5688990 -0.0042962  0.9999966  0.0025942 -0.0025942  0.9999966 
    4  1336     3  1.5724362 -0.0040006  0.9999966  0.0026200 -0.0026200  0.9999966 
    4  1336     4  1.5720126 -0.0028953  0.9999979  0.0020439 -0.0020439  0.9999979 
    4  1337     1  1.5657910 -0.0039430  0.9999960  0.0028445 -0.0028445  0.9999960 
    4  1337     2  1.5613423 -0.0056380  0.9999941  0.0034294 -0.0034294  0.9999941 
    4  1337     3  1.5648469 -0.0030745  0.9999981  0.0019581 -0.0019581  0.9999981 
    4  1337     4  1.5609370 -0.0047091  0.9999966  0.0025922 -0.0025922  0.9999966 
    4  1338     1  1.5636427 -0.0034699  0.9999983  0.0018353 -0.0018353  0.9999983 
    4  1338     2  1.5642718 -0.0041167  0.9999966  0.0026206 -0.0026206  0.9999966 
    4  1338     3  1.5596869 -0.0048852  0.9999974  0.0022770 -0.0022770  0.9999974 
    4  1338     4  1.5603067 -0.0055669  0.9999952  0.0030937 -0.0030937  0.9999952 
    4  1339     1  1.5627299 -0.0042788  0.9999970  0.0024687 -0.0024687  0.9999970 
    4  1339     2  1.5590230 -0.0057538  0.9999955  0.0030035 -0.0030035  0.9999955 
    4  1339     3  1.5622220 -0.0033370  0.9999985  0.0017423 -0.0017423  0.9999985 
    4  1339     4  1.5583930 -0.0048474  0.9999974  0.0022860 -0.0022860  0.9999974 
    4  1340     1  1.5607201 -0.0034099  0.9999988  0.0015425 -0.0015425  0.9999988 
    4  1340     2  1.5612444 -0.0043646  0.9999974  0.0022893 -0.0022893  0.9999974 
    4  1340     3  1.5567979 -0.0049665  0.9999978  0.0021064 -0.0021064  0.9999978 
    4  1340     4  1.5574316 -0.0058730  0.9999960  0.0028336 -0.0028336  0.9999960 
    4  1341     1  1.5638034 -0.0046620  0.9999982  0.0018871 -0.0018871  0.9999982 
    4  1341     2  1.5679900 -0.0030983  0.9999991  0.0013630 -0.0013630  0.9999991 
    4  1341     3  1.5643287 -0.0055129  0.9999964  0.0026919 -0.0026919  0.9999964 
    4  1341     4  1.5684052 -0.0039956  0.9999976  0.0021863 -0.0021863  0.9999976 
    4  1342     1  1.5656672 -0.0054205  0.9999960  0.0028331 -0.0028331  0.9999960 
    4  1342     2  1.5651433 -0.0045883  0.9999979  0.0020466 -0.0020466  0.9999979 
    4  1342     3  1.5696120 -0.0039405  0.9999973  0.0023345 -0.0023345  0.9999973 
    4  1342     4  1.5691661 -0.0030762  0.9999988  0.0015354 -0.0015354  0.9999988 
    4  1343     1  1.5765020 -0.0036494  0.9999975  0.0022216 -0.0022216  0.9999975 
    4  1343     2  1.5724917 -0.0051205  0.9999964  0.0026981 -0.0026981  0.9999964 
    4  1343     3  1.5761504 -0.0027924  0.9999990  0.0014081 -0.0014081  0.9999990 
    4  1343     4  1.5720851 -0.0042958  0.9999982  0.0019021 -0.0019021  0.9999982 
    4  1344     1  1.5752565 -0.0028117  0.9999993  0.0012224 -0.0012224  0.9999993 
    4  1344     2  1.5755385 -0.0036643  0.9999978  0.0020851 -0.0020851  0.9999978 
    4  1344     3  1.5709584 -0.0043554  0.9999985  0.0017042 -0.0017042  0.9999985 
    4  1344     4  1.5713366 -0.0051593  0.9999968  0.0025425 -0.0025425  0.9999968 
    4  1345     1  1.5781057 -0.0040419  0.9999988  0.0015607 -0.0015607  0.9999988 
    4  1345     2  1.5823892 -0.0025424  0.9999994  0.0011201 -0.0011201  0.9999994 
    4  1345     3  1.5783448 -0.0048103  0.9999971  0.0024090 -0.0024090  0.9999971 
    4  1345     4  1.5825589 -0.0033526  0.9999980  0.0019939 -0.0019939  0.9999980 
    4  1346     1  1.5792989 -0.0048058  0.9999967  0.0025693 -0.0025693  0.9999967 
    4  1346     2  1.5789912 -0.0039722  0.9999984  0.0017716 -0.0017716  0.9999984 
    4  1346     3  1.5832969 -0.0033602  0.9999978  0.0021145 -0.0021145  0.9999978 
    4  1346     4  1.5830441 -0.0024917  0.9999992  0.0012971 -0.0012971  0.9999992 
    4  1347     1  1.5747538 -0.0036676  0.9999981  0.0019543 -0.0019543  0.9999981 
    4  1347     2  1.5702951 -0.0051929  0.9999972  0.0023772 -0.0023772  0.9999972 
    4  1347     3  1.5745869 -0.0028415  0.9999995  0.0010177 -0.0010177  0.9999995 
    4  1347     4  1.5699830 -0.0044332  0.9999989  0.0014728 -0.0014728  0.9999989 
    4  1348     1  1.5743646 -0.0027411  0.9999997  0.0008333 -0.0008333  0.9999997 
    4  1348     2  1.5742105 -0.0035015  0.9999979  0.0020314 -0.0020314  0.9999979 
    4  1348     3  1.5688253 -0.0045108  0.9999993  0.0011924 -0.0011924  0.9999993 
    4  1348     4  1.5690924 -0.0050526  0.9999975  0.0022233 -0.0022233  0.9999975 
    4  1349     1  1.5775523 -0.0041098  0.9999995  0.0010250 -0.0010250  0.9999995 
    4  1349     2  1.5820470 -0.0027087  0.9999997  0.0007983 -0.0007983  0.9999997 
    4  1349     3  1.5773495 -0.0045593  0.9999981  0.0019477 -0.0019477  0.9999981 
    4  1349     4  1.5818867 -0.0031602  0.9999985  0.0017552 -0.0017552  0.9999985 
    4  1350     1  1.5775560 -0.0048073  0.9999975  0.0022473 -0.0022473  0.9999975 
    4  1350     2  1.5774431 -0.0041045  0.9999991  0.0013372 -0.0013372  0.9999991 
    4  1350     3  1.5820447 -0.0033381  0.9999982  0.0019031 -0.0019031  0.9999982 
    4  1350     4  1.5820220 -0.0025757  0.9999996  0.0009487 -0.0009487  0.9999996 
    4  1351     1  1.5609492 -0.0049817  0.9999989  0.0014508 -0.0014508  0.9999989 
    4  1351     2  1.5659101 -0.0031129  0.9999997  0.0008156 -0.0008156  0.9999997 
    4  1351     3  1.5617151 -0.0059411  0.9999972  0.0023845 -0.0023845  0.9999972 
    4  1351     4  1.5662092 -0.0041409  0.9999985  0.0017212 -0.0017212  0.9999985 
    4  1352     1  1.5629309 -0.0056485  0.9999967  0.0025497 -0.0025497  0.9999967 
    4  1352     2  1.5624033 -0.0047764  0.9999986  0.0016853 -0.0016853  0.9999986 
    4  1352     3  1.5672887 -0.0040562  0.9999979  0.0020344 -0.0020344  0.9999979 
    4  1352     4  1.5669264 -0.0031152  0.9999993  0.0011425 -0.0011425  0.9999993 
    4  1353     1  1.5596946 -0.0043815  0.9999978  0.0020930 -0.0020930  0.9999978 
    4  1353     2  1.5556060 -0.0059802  0.9999965  0.0026638 -0.0026638  0.9999965 
    4  1353     3  1.5591387 -0.0034670  0.9999992  0.0012941 -0.0012941  0.9999992 
    4  1353     4  1.5549280 -0.0051006  0.9999982  0.0018727 -0.0018727  0.9999982 
    4  1354     1  1.5570058 -0.0035068  0.9999994  0.0010868 -0.0010868  0.9999994 
    4  1354     2  1.5576504 -0.0045363  0.9999984  0.0017834 -0.0017834  0.9999984 
    4  1354     3  1.5530798 -0.0051304  0.9999986  0.0016987 -0.0016987  0.9999986 
    4  1354     4  1.5537274 -0.0061706  0.9999971  0.0024016 -0.0024016  0.9999971 
    4  1355     1  1.5899884 -0.0030751  0.9999980  0.0019988 -0.0019988  0.9999980 
    4  1355     2  1.5859839 -0.0045030  0.9999970  0.0024340 -0.0024340  0.9999970 
    4  1355     3  1.5897964 -0.0022316  0.9999993  0.0011825 -0.0011825  0.9999993 
    4  1355     4  1.5857588 -0.0036869  0.9999987  0.0016359 -0.0016359  0.9999987 
    4  1356     1  1.5893033 -0.0022822  0.9999995  0.0010258 -0.0010258  0.9999995 
    4  1356     2  1.5893915 -0.0030784  0.9999982  0.0018851 -0.0018851  0.9999982 
    4  1356     3  1.5851090 -0.0037353  0.9999990  0.0014398 -0.0014398  0.9999990 
    4  1356     4  1.5852379 -0.0045006  0.9999974  0.0022772 -0.0022772  0.9999974 
    4  1357     1  1.5919021 -0.0034417  0.9999991  0.0013304 -0.0013304  0.9999991 
    4  1357     2  1.5959687 -0.0020397  0.9999996  0.0009378 -0.0009378  0.9999996 
    4  1357     3  1.5919683 -0.0041890  0.9999977  0.0021478 -0.0021478  0.9999977 
    4  1357     4  1.5960100 -0.0028095  0.9999984  0.0017728 -0.0017728  0.9999984 
    4  1358     1  1.5925890 -0.0042173  0.9999974  0.0023008 -0.0023008  0.9999974 
    4  1358     2  1.5924233 -0.0034153  0.9999989  0.0015146 -0.0015146  0.9999989 
    4  1358     3  1.5965093 -0.0028280  0.9999982  0.0018846 -0.0018846  0.9999982 
    4  1358     4  1.5963770 -0.0019999  0.9999994  0.0010813 -0.0010813  0.9999994 
    4  1359     1  1.5890133 -0.0030188  0.9999984  0.0017647 -0.0017647  0.9999984 
    4  1359     2  1.5847507 -0.0044121  0.9999978  0.0020861 -0.0020861  0.9999978 
    4  1359     3  1.5890297 -0.0023411  0.9999996  0.0008742 -0.0008742  0.9999996 
    4  1359     4  1.5847526 -0.0037559  0.9999993  0.0012190 -0.0012190  0.9999993 
    4  1360     1  1.5890307 -0.0023835  0.9999997  0.0007366 -0.0007366  0.9999997 
    4  1360     2  1.5888688 -0.0029930  0.9999986  0.0016498 -0.0016498  0.9999986 
    4  1360     3  1.5846896 -0.0037698  0.9999995  0.0010145 -0.0010145  0.9999995 
    4  1360     4  1.5845105 -0.0043716  0.9999982  0.0019074 -0.0019074  0.9999982 
    4  1361     1  1.5915448 -0.0034797  0.9999995  0.0009638 -0.0009638  0.9999995 
    4  1361     2  1.5957124 -0.0021321  0.9999998  0.0006720 -0.0006720  0.9999998 
    4  1361     3  1.5913870 -0.0041115  0.9999983  0.0018175 -0.0018175  0.9999983 
    4  1361     4  1.5955632 -0.0027715  0.9999988  0.0015403 -0.0015403  0.9999988 
    4  1362     1  1.5915604 -0.0041469  0.9999980  0.0019860 -0.0019860  0.9999980 
    4  1362     2  1.5915940 -0.0034641  0.9999993  0.0011459 -0.0011459  0.9999993 
    4  1362     3  1.5956954 -0.0027832  0.9999986  0.0016592 -0.0016592  0.9999986 
    4  1362     4  1.5957370 -0.0020849  0.9999997  0.0008023 -0.0008023  0.9999997 
    4  1363     1  1.6028656 -0.0025817  0.9999984  0.0017826 -0.0017826  0.9999984 
    4  1363     2  1.5990142 -0.0039346  0.9999976  0.0021784 -0.0021784  0.9999976 
    4  1363     3  1.6027701 -0.0017861  0.9999995  0.0009947 -0.0009947  0.9999995 
    4  1363     4  1.5988979 -0.0031584  0.9999990  0.0014043 -0.0014043  0.9999990 
    4  1364     1  1.6024172 -0.0018188  0.9999996  0.0008598 -0.0008598  0.9999996 
    4  1364     2  1.6024326 -0.0025736  0.9999986  0.0016731 -0.0016731  0.9999986 
    4  1364     3  1.5984602 -0.0031787  0.9999992  0.0012357 -0.0012357  0.9999992 
    4  1364     4  1.5984884 -0.0039185  0.9999979  0.0020361 -0.0020361  0.9999979 
    4  1365     1  1.6048282 -0.0029309  0.9999993  0.0011514 -0.0011514  0.9999993 
    4  1365     2  1.6086966 -0.0015988  0.9999997  0.0007825 -0.0007825  0.9999997 
    4  1365     3  1.6048327 -0.0036727  0.9999981  0.0019344 -0.0019344  0.9999981 
    4  1365     4  1.6086902 -0.0023536  0.9999988  0.0015764 -0.0015764  0.9999988 
    4  1366     1  1.6052935 -0.0036857  0.9999979  0.0020684 -0.0020684  0.9999979 
    4  1366     2  1.6052136 -0.0029132  0.9999991  0.0013053 -0.0013053  0.9999991 
    4  1366     3  1.6090729 -0.0023603  0.9999986  0.0016837 -0.0016837  0.9999986 
    4  1366     4  1.6090121 -0.0015727  0.9999996  0.0009103 -0.0009103  0.9999996 
    4  1367     1  1.6021515 -0.0025564  0.9999988  0.0015610 -0.0015610  0.9999988 
    4  1367     2  1.5981515 -0.0038823  0.9999982  0.0018845 -0.0018845  0.9999982 
    4  1367     3  1.6022005 -0.0018609  0.9999997  0.0007339 -0.0007339  0.9999997 
    4  1367     4  1.5981982 -0.0031979  0.9999994  0.0010702 -0.0010702  0.9999994 
    4  1368     1  1.6021404 -0.0019055  0.9999998  0.0006083 -0.0006083  0.9999998 
    4  1368     2  1.6020112 -0.0025523  0.9999990  0.0014454 -0.0014454  0.9999990 
    4  1368     3  1.5981245 -0.0032142  0.9999996  0.0009031 -0.0009031  0.9999996 
    4  1368     4  1.5979823 -0.0038569  0.9999985  0.0017295 -0.0017295  0.9999985 
    4  1369     1  1.6044848 -0.0029726  0.9999996  0.0008441 -0.0008441  0.9999996 
    4  1369     2  1.6084133 -0.0016843  0.9999999  0.0005458 -0.0005458  0.9999999 
    4  1369     3  1.6043610 -0.0036166  0.9999986  0.0016464 -0.0016464  0.9999986 
    4  1369     4  1.6082905 -0.0023356  0.9999991  0.0013582 -0.0013582  0.9999991 
    4  1370     1  1.6045297 -0.0036413  0.9999984  0.0017909 -0.0017909  0.9999984 
    4  1370     2  1.6045821 -0.0029529  0.9999995  0.0009992 -0.0009992  0.9999995 
    4  1370     3  1.6084330 -0.0023401  0.9999989  0.0014674 -0.0014674  0.9999989 
    4  1370     4  1.6084864 -0.0016423  0.9999998  0.0006647 -0.0006647  0.9999998 
    4  1371     1  1.6145571 -0.0021304  0.9999990  0.0013859 -0.0013859  0.9999990 
    4  1371     2  1.6107543 -0.0033955  0.9999986  0.0016968 -0.0016968  0.9999986 
    4  1371     3  1.6146042 -0.0014591  0.9999998  0.0006040 -0.0006040  0.9999998 
    4  1371     4  1.6108015 -0.0027317  0.9999996  0.0009239 -0.0009239  0.9999996 
    4  1372     1  1.6145061 -0.0014983  0.9999999  0.0004913 -0.0004913  0.9999999 
    4  1372     2  1.6144035 -0.0021284  0.9999992  0.0012818 -0.0012818  0.9999992 
    4  1372     3  1.6106943 -0.0027483  0.9999997  0.0007797 -0.0007797  0.9999997 
    4  1372     4  1.6105821 -0.0033753  0.9999988  0.0015625 -0.0015625  0.9999988 
    4  1373     1  1.6167388 -0.0025403  0.9999997  0.0007224 -0.0007224  0.9999997 
    4  1373     2  1.6204839 -0.0013094  0.9999999  0.0004366 -0.0004366  0.9999999 
    4  1373     3  1.6166446 -0.0031549  0.9999989  0.0014861 -0.0014861  0.9999989 
    4  1373     4  1.6203938 -0.0019289  0.9999993  0.0012082 -0.0012082  0.9999993 
    4  1374     1  1.6168225 -0.0031780  0.9999987  0.0016115 -0.0016115  0.9999987 
    4  1374     2  1.6168670 -0.0025224  0.9999996  0.0008561 -0.0008561  0.9999996 
    4  1374     3  1.6205581 -0.0019325  0.9999991  0.0013039 -0.0013039  0.9999991 
    4  1374     4  1.6205992 -0.0012712  0.9999999  0.0005406 -0.0005406  0.9999999 
    4  1375     1  1.6170998 -0.0024975  0.9999995  0.0009852 -0.0009852  0.9999995 
    4  1375     2  1.6208148 -0.0012260  0.9999998  0.0006417 -0.0006417  0.9999998 
    4  1375     3  1.6170952 -0.0032035  0.9999985  0.0017404 -0.0017404  0.9999985 
    4  1375     4  1.6208083 -0.0019396  0.9999990  0.0014047 -0.0014047  0.9999990 
    4  1376     1  1.6174820 -0.0032147  0.9999983  0.0018595 -0.0018595  0.9999983 
    4  1376     2  1.6174308 -0.0024809  0.9999994  0.0011134 -0.0011134  0.9999994 
    4  1376     3  1.6211624 -0.0019376  0.9999989  0.0015012 -0.0015012  0.9999989 
    4  1376     4  1.6211112 -0.0011989  0.9999997  0.0007501 -0.0007501  0.9999997 
    4  1377     1  1.6151689 -0.0021334  0.9999987  0.0015962 -0.0015962  0.9999987 
    4  1377     2  1.6114365 -0.0034260  0.9999981  0.0019583 -0.0019583  0.9999981 
    4  1377     3  1.6151135 -0.0013899  0.9999997  0.0008323 -0.0008323  0.9999997 
    4  1377     4  1.6113738 -0.0026917  0.9999993  0.0012020 -0.0012020  0.9999993 
    4  1378     1  1.6148133 -0.0014211  0.9999997  0.0007140 -0.0007140  0.9999997 
    4  1378     2  1.6148102 -0.0021395  0.9999989  0.0014917 -0.0014917  0.9999989 
    4  1378     3  1.6110339 -0.0027117  0.9999994  0.0010613 -0.0010613  0.9999994 
    4  1378     4  1.6110319 -0.0034233  0.9999983  0.0018319 -0.0018319  0.9999983 
    4  1379     1  1.6267033 -0.0010859  0.9999998  0.0005817 -0.0005817  0.9999998 
    4  1379     2  1.6267247 -0.0017423  0.9999991  0.0013297 -0.0013297  0.9999991 
    4  1379     3  1.6230538 -0.0023199  0.9999996  0.0009012 -0.0009012  0.9999996 
    4  1379     4  1.6230640 -0.0029752  0.9999986  0.0016446 -0.0016446  0.9999986 
    4  1380     1  1.6289183 -0.0021329  0.9999997  0.0008356 -0.0008356  0.9999997 
    4  1380     2  1.6325119 -0.0009119  0.9999999  0.0005155 -0.0005155  0.9999999 
    4  1380     3  1.6289424 -0.0027813  0.9999988  0.0015618 -0.0015618  0.9999988 
    4  1380     4  1.6325403 -0.0015653  0.9999992  0.0012486 -0.0012486  0.9999992 
    4  1381     1  1.6293469 -0.0027955  0.9999986  0.0016673 -0.0016673  0.9999986 
    4  1381     2  1.6292716 -0.0021180  0.9999996  0.0009468 -0.0009468  0.9999996 
    4  1381     3  1.6329309 -0.0015616  0.9999991  0.0013309 -0.0013309  0.9999991 
    4  1381     4  1.6328432 -0.0008832  0.9999998  0.0006060 -0.0006060  0.9999998 
    4  1382     1  1.6270940 -0.0017298  0.9999990  0.0014220 -0.0014220  0.9999990 
    4  1382     2  1.6234492 -0.0029764  0.9999985  0.0017567 -0.0017567  0.9999985 
    4  1382     3  1.6270193 -0.0010509  0.9999998  0.0006808 -0.0006808  0.9999998 
    4  1382     4  1.6233812 -0.0023005  0.9999995  0.0010206 -0.0010206  0.9999995 
    4  1383     1  1.6286439 -0.0027597  0.9999990  0.0014476 -0.0014476  0.9999990 
    4  1383     2  1.6286641 -0.0021566  0.9999997  0.0007235 -0.0007235  0.9999997 
    4  1383     3  1.6322591 -0.0015612  0.9999993  0.0011604 -0.0011604  0.9999993 
    4  1383     4  1.6322740 -0.0009538  0.9999999  0.0004293 -0.0004293  0.9999999 
    4  1384     1  1.6264538 -0.0017383  0.9999992  0.0012342 -0.0012342  0.9999992 
    4  1384     2  1.6227896 -0.0029517  0.9999988  0.0015246 -0.0015246  0.9999988 
    4  1384     3  1.6264783 -0.0011195  0.9999999  0.0004874 -0.0004874  0.9999999 
    4  1384     4  1.6228175 -0.0023375  0.9999997  0.0007846 -0.0007846  0.9999997 
    4  1385     1  1.6263345 -0.0011565  0.9999999  0.0003901 -0.0003901  0.9999999 
    4  1385     2  1.6262718 -0.0017373  0.9999993  0.0011433 -0.0011433  0.9999993 
    4  1385     3  1.6226730 -0.0023539  0.9999998  0.0006606 -0.0006606  0.9999998 
    4  1385     4  1.6225989 -0.0029332  0.9999990  0.0014075 -0.0014075  0.9999990 
    4  1386     1  1.6284981 -0.0021763  0.9999998  0.0006077 -0.0006077  0.9999998 
    4  1386     2  1.6321185 -0.0009914  0.9999999  0.0003399 -0.0003399  0.9999999 
    4  1386     3  1.6284436 -0.0027397  0.9999991  0.0013381 -0.0013381  0.9999991 
    4  1386     4  1.6320666 -0.0015591  0.9999994  0.0010771 -0.0010771  0.9999994 
    4  1387     1  1.6380027 -0.0013844  0.9999994  0.0010986 -0.0010986  0.9999994 
    4  1387     2  1.6344325 -0.0025571  0.9999991  0.0013671 -0.0013671  0.9999991 
    4  1387     3  1.6379983 -0.0008266  0.9999999  0.0003820 -0.0003820  0.9999999 
    4  1387     4  1.6344318 -0.0020030  0.9999998  0.0006567 -0.0006567  0.9999998 
    4  1388     1  1.6378201 -0.0008607  1.0000000  0.0002989 -0.0002989  1.0000000 
    4  1388     2  1.6377935 -0.0013810  0.9999995  0.0010210 -0.0010210  0.9999995 
    4  1388     3  1.6342517 -0.0020192  0.9999998  0.0005489 -0.0005489  0.9999998 
    4  1388     4  1.6342163 -0.0025377  0.9999992  0.0012651 -0.0012651  0.9999992 
    4  1389     1  1.6399403 -0.0018652  0.9999999  0.0005004 -0.0005004  0.9999999 
    4  1389     2  1.6434817 -0.0007162  1.0000000  0.0002541 -0.0002541  1.0000000 
    4  1389     3  1.6399203 -0.0023659  0.9999993  0.0012017 -0.0012017  0.9999993 
    4  1389     4  1.6434619 -0.0012216  0.9999995  0.0009622 -0.0009622  0.9999995 
    4  1390     1  1.6401434 -0.0023865  0.9999992  0.0012972 -0.0012972  0.9999992 
    4  1390     2  1.6401363 -0.0018442  0.9999998  0.0006018 -0.0006018  0.9999998 
    4  1390     3  1.6436734 -0.0012267  0.9999995  0.0010320 -0.0010320  0.9999995 
    4  1390     4  1.6436644 -0.0006792  0.9999999  0.0003294 -0.0003294  0.9999999 
    4  1391     1  1.6493119 -0.0010655  0.9999995  0.0009779 -0.0009779  0.9999995 
    4  1391     2  1.6458039 -0.0022055  0.9999993  0.0012237 -0.0012237  0.9999993 
    4  1391     3  1.6492910 -0.0005687  1.0000000  0.0002886 -0.0002886  1.0000000 
    4  1391     4  1.6457817 -0.0017142  0.9999999  0.0005415 -0.0005415  0.9999999 
    4  1392     1  1.6490989 -0.0006028  1.0000000  0.0002182 -0.0002182  1.0000000 
    4  1392     2  1.6490976 -0.0010598  0.9999996  0.0009129 -0.0009129  0.9999996 
    4  1392     3  1.6455819 -0.0017329  0.9999999  0.0004462 -0.0004462  0.9999999 
    4  1392     4  1.6455764 -0.0021872  0.9999994  0.0011349 -0.0011349  0.9999994 
    4  1393     1  1.6511922 -0.0015974  0.9999999  0.0004018 -0.0004018  0.9999999 
    4  1393     2  1.6546921 -0.0004754  1.0000000  0.0001798 -0.0001798  1.0000000 
    4  1393     3  1.6511955 -0.0020313  0.9999994  0.0010767 -0.0010767  0.9999994 
    4  1393     4  1.6546928 -0.0009145  0.9999996  0.0008617 -0.0008617  0.9999996 
    4  1394     1  1.6514199 -0.0020529  0.9999993  0.0011600 -0.0011600  0.9999993 
    4  1394     2  1.6513970 -0.0015790  0.9999999  0.0004910 -0.0004910  0.9999999 
    4  1394     3  1.6549023 -0.0009239  0.9999996  0.0009206 -0.0009206  0.9999996 
    4  1394     4  1.6548805 -0.0004448  1.0000000  0.0002448 -0.0002448  1.0000000 
    4  1395     1  1.6516813 -0.0015571  0.9999998  0.0005786 -0.0005786  0.9999998 
    4  1395     2  1.6551268 -0.0004145  1.0000000  0.0003082 -0.0003082  1.0000000 
    4  1395     3  1.6517723 -0.0020589  0.9999992  0.0012456 -0.0012456  0.9999992 
    4  1395     4  1.6552115 -0.0009250  0.9999995  0.0009841 -0.0009841  0.9999995 
    4  1396     1  1.6522293 -0.0020782  0.9999991  0.0013253 -0.0013253  0.9999991 
    4  1396     2  1.6520950 -0.0015424  0.9999998  0.0006670 -0.0006670  0.9999998 
    4  1396     3  1.6556340 -0.0009328  0.9999995  0.0010389 -0.0010389  0.9999995 
    4  1396     4  1.6554980 -0.0003922  0.9999999  0.0003744 -0.0003744  0.9999999 
    4  1397     1  1.6500640 -0.0010639  0.9999994  0.0011073 -0.0011073  0.9999994 
    4  1397     2  1.6466065 -0.0022279  0.9999990  0.0014000 -0.0014000  0.9999990 
    4  1397     3  1.6499280 -0.0005077  0.9999999  0.0004269 -0.0004269  0.9999999 
    4  1397     4  1.6464728 -0.0016777  0.9999997  0.0007274 -0.0007274  0.9999997 
    4  1398     1  1.6495439 -0.0005420  0.9999999  0.0003565 -0.0003565  0.9999999 
    4  1398     2  1.6496359 -0.0010663  0.9999995  0.0010465 -0.0010465  0.9999995 
    4  1398     3  1.6460666 -0.0016963  0.9999998  0.0006318 -0.0006318  0.9999998 
    4  1398     4  1.6461526 -0.0022170  0.9999991  0.0013151 -0.0013151  0.9999991 
    4  1399     1  1.6606981 -0.0003317  1.0000000  0.0002712 -0.0002712  1.0000000 
    4  1399     2  1.6608025 -0.0007716  0.9999996  0.0009343 -0.0009343  0.9999996 
    4  1399     3  1.6572436 -0.0014562  0.9999999  0.0005144 -0.0005144  0.9999999 
    4  1399     4  1.6573435 -0.0018936  0.9999993  0.0011720 -0.0011720  0.9999993 
    4  1400     1  1.6628143 -0.0013266  0.9999999  0.0004664 -0.0004664  0.9999999 
    4  1400     2  1.6662410 -0.0002108  1.0000000  0.0002254 -0.0002254  1.0000000 
    4  1400     3  1.6629160 -0.0017572  0.9999994  0.0011113 -0.0011113  0.9999994 
    4  1400     4  1.6663394 -0.0006467  0.9999996  0.0008767 -0.0008767  0.9999996 
    4  1401     1  1.6633345 -0.0017637  0.9999993  0.0011810 -0.0011810  0.9999993 
    4  1401     2  1.6631980 -0.0013077  0.9999999  0.0005434 -0.0005434  0.9999999 
    4  1401     3  1.6667275 -0.0006470  0.9999996  0.0009271 -0.0009271  0.9999996 
    4  1401     4  1.6665922 -0.0001863  1.0000000  0.0002839 -0.0002839  1.0000000 
    4  1402     1  1.6612048 -0.0007698  0.9999995  0.0009898 -0.0009898  0.9999995 
    4  1402     2  1.6577881 -0.0018955  0.9999992  0.0012477 -0.0012477  0.9999992 
    4  1402     3  1.6610624 -0.0002985  0.9999999  0.0003340 -0.0003340  0.9999999 
    4  1402     4  1.6576384 -0.0014324  0.9999998  0.0006000 -0.0006000  0.9999998 
    4  1403     1  1.6625763 -0.0017550  0.9999995  0.0010377 -0.0010377  0.9999995 
    4  1403     2  1.6625430 -0.0013416  0.9999999  0.0003915 -0.0003915  0.9999999 
    4  1403     3  1.6660388 -0.0006466  0.9999997  0.0008219 -0.0008219  0.9999997 
    4  1403     4  1.6660089 -0.0002280  1.0000000  0.0001692 -0.0001692  1.0000000 
    4  1404     1  1.6604896 -0.0007747  0.9999996  0.0008739 -0.0008739  0.9999996 
    4  1404     2  1.6570063 -0.0018916  0.9999994  0.0010943 -0.0010943  0.9999994 
    4  1404     3  1.6604562 -0.0003456  1.0000000  0.0002099 -0.0002099  1.0000000 
    4  1404     4  1.6569724 -0.0014663  0.9999999  0.0004360 -0.0004360  0.9999999 
    4  1405     1  1.6602662 -0.0003734  1.0000000  0.0001487 -0.0001487  1.0000000 
    4  1405     2  1.6602800 -0.0007678  0.9999997  0.0008178 -0.0008178  0.9999997 
    4  1405     3  1.6567729 -0.0014829  0.9999999  0.0003532 -0.0003532  0.9999999 
    4  1405     4  1.6567848 -0.0018745  0.9999995  0.0010165 -0.0010165  0.9999995 
    4  1406     1  1.6623445 -0.0013615  1.0000000  0.0003132 -0.0003132  1.0000000 
    4  1406     2  1.6658275 -0.0002576  1.0000000  0.0001138 -0.0001138  1.0000000 
    4  1406     3  1.6623608 -0.0017371  0.9999995  0.0009643 -0.0009643  0.9999995 
    4  1406     4  1.6658408 -0.0006377  0.9999997  0.0007712 -0.0007712  0.9999997 
    4  1407     1  1.6716080 -0.0005125  0.9999997  0.0007778 -0.0007778  0.9999997 
    4  1407     2  1.6681273 -0.0016166  0.9999995  0.0009777 -0.0009777  0.9999995 
    4  1407     3  1.6715677 -0.0001375  1.0000000  0.0001358 -0.0001358  1.0000000 
    4  1407     4  1.6680876 -0.0012443  0.9999999  0.0003406 -0.0003406  0.9999999 
    4  1408     1  1.6713863 -0.0001619  1.0000000  0.0000844 -0.0000844  1.0000000 
    4  1408     2  1.6714095 -0.0005054  0.9999997  0.0007303 -0.0007303  0.9999997 
    4  1408     3  1.6678981 -0.0012594  1.0000000  0.0002696 -0.0002696  1.0000000 
    4  1408     4  1.6679200 -0.0016003  0.9999996  0.0009100 -0.0009100  0.9999996 
    4  1409     1  1.6734585 -0.0011521  1.0000000  0.0002331 -0.0002331  1.0000000 
    4  1409     2  1.6769393 -0.0000580  1.0000000  0.0000509 -0.0000509  1.0000000 
    4  1409     3  1.6734829 -0.0014829  0.9999996  0.0008626 -0.0008626  0.9999996 
    4  1409     4  1.6769624 -0.0003920  0.9999998  0.0006858 -0.0006858  0.9999998 
    4  1410     1  1.6736861 -0.0014977  0.9999996  0.0009258 -0.0009258  0.9999996 
    4  1410     2  1.6736465 -0.0011338  1.0000000  0.0002997 -0.0002997  1.0000000 
    4  1410     3  1.6771510 -0.0003995  0.9999997  0.0007289 -0.0007289  0.9999997 
    4  1410     4  1.6771146 -0.0000313  1.0000000  0.0000970 -0.0000970  1.0000000 
    4  1411     1  1.6825003  0.0000288  1.0000000  0.0000223 -0.0000223  1.0000000 
    4  1411     2  1.6825324 -0.0002755  0.9999998  0.0006469 -0.0006469  0.9999998 
    4  1411     3  1.6790071 -0.0010631  1.0000000  0.0001931 -0.0001931  1.0000000 
    4  1411     4  1.6790375 -0.0013656  0.9999997  0.0008131 -0.0008131  0.9999997 
    4  1412     1  1.6845721 -0.0009702  1.0000000  0.0001591 -0.0001591  1.0000000 
    4  1412     2  1.6880649  0.0001206  1.0000000 -9.19e-006  9.19e-006  1.0000000 
    4  1412     3  1.6846048 -0.0012632  0.9999997  0.0007691 -0.0007691  0.9999997 
    4  1412     4  1.6880943 -0.0001759  0.9999998  0.0006059 -0.0006059  0.9999998 
    4  1413     1  1.6848022 -0.0012769  0.9999997  0.0008228 -0.0008228  0.9999997 
    4  1413     2  1.6847557 -0.0009521  1.0000000  0.0002155 -0.0002155  1.0000000 
    4  1413     3  1.6882749 -0.0001843  0.9999998  0.0006405 -0.0006405  0.9999998 
    4  1413     4  1.6882333  0.0001450  1.0000000  0.0000276 -0.0000276  1.0000000 
    4  1414     1  1.6827261 -0.0002813  0.9999998  0.0006868 -0.0006868  0.9999998 
    4  1414     2  1.6792351 -0.0013796  0.9999996  0.0008705 -0.0008705  0.9999996 
    4  1414     3  1.6826778  0.0000488  1.0000000  0.0000650 -0.0000650  1.0000000 
    4  1414     4  1.6791896 -0.0010509  1.0000000  0.0002527 -0.0002527  1.0000000 
    4  1415     1  1.6738996 -0.0011222  0.9999999  0.0003618 -0.0003618  0.9999999 
    4  1415     2  1.6773333 -0.0000188  1.0000000  0.0001428 -0.0001428  1.0000000 
    4  1415     3  1.6740079 -0.0014961  0.9999995  0.0009877 -0.0009877  0.9999995 
    4  1415     4  1.6774385 -0.0003972  0.9999997  0.0007744 -0.0007744  0.9999997 
    4  1416     1  1.6744023 -0.0015017  0.9999995  0.0010469 -0.0010469  0.9999995 
    4  1416     2  1.6742610 -0.0011053  0.9999999  0.0004254 -0.0004254  0.9999999 
    4  1416     3  1.6778096 -0.0003970  0.9999997  0.0008157 -0.0008157  0.9999997 
    4  1416     4  1.6776691  3.21e-006  1.0000000  0.0001890 -0.0001890  1.0000000 
    4  1417     1  1.6722856 -0.0005038  0.9999996  0.0008755 -0.0008755  0.9999996 
    4  1417     2  1.6688564 -0.0016157  0.9999994  0.0011089 -0.0011089  0.9999994 
    4  1417     3  1.6721404 -0.0000979  1.0000000  0.0002390 -0.0002390  1.0000000 
    4  1417     4  1.6687095 -0.0012139  0.9999999  0.0004779 -0.0004779  0.9999999 
    4  1418     1  1.6717940 -0.0001236  1.0000000  0.0001872 -0.0001872  1.0000000 
    4  1418     2  1.6719056 -0.0005055  0.9999997  0.0008293 -0.0008293  0.9999997 
    4  1418     3  1.6683415 -0.0012327  0.9999999  0.0004078 -0.0004078  0.9999999 
    4  1418     4  1.6684515 -0.0016118  0.9999995  0.0010445 -0.0010445  0.9999995 
    4  1419     1  1.6828959  0.0000589  1.0000000  0.0001072 -0.0001072  1.0000000 
    4  1419     2  1.6830116 -0.0002732  0.9999997  0.0007299 -0.0007299  0.9999997 
    4  1419     3  1.6794296 -0.0010428  1.0000000  0.0003089 -0.0003089  1.0000000 
    4  1419     4  1.6795441 -0.0013723  0.9999996  0.0009266 -0.0009266  0.9999996 
    4  1420     1  1.6849985 -0.0009453  1.0000000  0.0002675 -0.0002675  1.0000000 
    4  1420     2  1.6884417  0.0001506  1.0000000  0.0000654 -0.0000654  1.0000000 
    4  1420     3  1.6851099 -0.0012751  0.9999996  0.0008750 -0.0008750  0.9999996 
    4  1420     4  1.6885517 -0.0001826  0.9999998  0.0006778 -0.0006778  0.9999998 
    4  1421     1  1.6854942 -0.0012779  0.9999996  0.0009253 -0.0009253  0.9999996 
    4  1421     2  1.6853464 -0.0009268  0.9999999  0.0003226 -0.0003226  0.9999999 
    4  1421     3  1.6889064 -0.0001828  0.9999997  0.0007112 -0.0007112  0.9999997 
    4  1421     4  1.6887617  0.0001728  1.0000000  0.0001028 -0.0001028  1.0000000 
    4  1422     1  1.6833821 -0.0002730  0.9999997  0.0007679 -0.0007679  0.9999997 
    4  1422     2  1.6799336 -0.0013771  0.9999995  0.0009811 -0.0009811  0.9999995 
    4  1422     3  1.6832273  0.0000756  1.0000000  0.0001496 -0.0001496  1.0000000 
    4  1422     4  1.6797816 -0.0010304  0.9999999  0.0003671 -0.0003671  0.9999999 
    4  1423     1  1.6747257 -0.0010962  0.9999999  0.0004820 -0.0004820  0.9999999 
    4  1423     2  1.6780837  7.19e-006  1.0000000  0.0002340 -0.0002340  1.0000000 
    4  1423     3  1.6749753 -0.0014792  0.9999994  0.0011004 -0.0011004  0.9999994 
    4  1423     4  1.6783300 -0.0003807  0.9999996  0.0008581 -0.0008581  0.9999996 
    4  1424     1  1.6756440 -0.0014796  0.9999993  0.0011507 -0.0011507  0.9999993 
    4  1424     2  1.6753527 -0.0010838  0.9999999  0.0005381 -0.0005381  0.9999999 
    4  1424     3  1.6789720 -0.0003764  0.9999996  0.0008934 -0.0008934  0.9999996 
    4  1424     4  1.6786805  0.0000225  1.0000000  0.0002764 -0.0002764  1.0000000 
    4  1425     1  1.6734541 -0.0004747  0.9999995  0.0009632 -0.0009632  0.9999995 
    4  1425     2  1.6701063 -0.0015870  0.9999992  0.0012259 -0.0012259  0.9999992 
    4  1425     3  1.6731580 -0.0000621  0.9999999  0.0003364 -0.0003364  0.9999999 
    4  1425     4  1.6698099 -0.0011794  0.9999998  0.0006056 -0.0006056  0.9999998 
    4  1426     1  1.6725603 -0.0000866  1.0000000  0.0002907 -0.0002907  1.0000000 
    4  1426     2  1.6728158 -0.0004842  0.9999996  0.0009235 -0.0009235  0.9999996 
    4  1426     3  1.6691856 -0.0011970  0.9999999  0.0005425 -0.0005425  0.9999999 
    4  1426     4  1.6694421 -0.0015902  0.9999993  0.0011696 -0.0011696  0.9999993 
    4  1427     1  1.6836404  0.0000753  1.0000000  0.0001931 -0.0001931  1.0000000 
    4  1427     2  1.6838976 -0.0002564  0.9999997  0.0008089 -0.0008089  0.9999997 
    4  1427     3  1.6802401 -0.0010249  0.9999999  0.0004207 -0.0004207  0.9999999 
    4  1427     4  1.6804951 -0.0013542  0.9999995  0.0010317 -0.0010317  0.9999995 
    4  1428     1  1.6858010 -0.0009214  0.9999999  0.0003738 -0.0003738  0.9999999 
    4  1428     2  1.6891583  0.0001693  1.0000000  0.0001438 -0.0001438  1.0000000 
    4  1428     3  1.6860486 -0.0012589  0.9999995  0.0009732 -0.0009732  0.9999995 
    4  1428     4  1.6894081 -0.0001707  0.9999997  0.0007480 -0.0007480  0.9999997 
    4  1429     1  1.6867059 -0.0012512  0.9999995  0.0010215 -0.0010215  0.9999995 
    4  1429     2  1.6864124 -0.0008917  0.9999999  0.0004292 -0.0004292  0.9999999 
    4  1429     3  1.6900244 -0.0001619  0.9999997  0.0007800 -0.0007800  0.9999997 
    4  1429     4  1.6897257  0.0001990  1.0000000  0.0001837 -0.0001837  1.0000000 
    4  1430     1  1.6845320 -0.0002536  0.9999996  0.0008465 -0.0008465  0.9999996 
    4  1430     2  1.6811682 -0.0013504  0.9999994  0.0010827 -0.0010827  0.9999994 
    4  1430     3  1.6842265  0.0000862  1.0000000  0.0002393 -0.0002393  1.0000000 
    4  1430     4  1.6808667 -0.0010115  0.9999999  0.0004786 -0.0004786  0.9999999 
    4  1431     1  1.6761743 -0.0010916  0.9999998  0.0006155 -0.0006155  0.9999998 
    4  1431     2  1.6793460 -0.0000183  0.9999999  0.0003422 -0.0003422  0.9999999 
    4  1431     3  1.6766162 -0.0014271  0.9999993  0.0011973 -0.0011973  0.9999993 
    4  1431     4  1.6797539 -0.0003767  0.9999996  0.0009418 -0.0009418  0.9999996 
    4  1432     1  1.6780633 -0.0013819  0.9999993  0.0012219 -0.0012219  0.9999993 
    4  1432     2  1.6775655 -0.0009791  0.9999997  0.0007727 -0.0007727  0.9999997 
    4  1432     3  1.6805546 -0.0004870  0.9999995  0.0009597 -0.0009597  0.9999995 
    4  1432     4  1.6802658 -2.16e-006  0.9999999  0.0004824 -0.0004824  0.9999999 
    4  1433     1  1.6753740 -0.0003865  0.9999995  0.0009924 -0.0009924  0.9999995 
    4  1433     2  1.6723222 -0.0015314  0.9999991  0.0013550 -0.0013550  0.9999991 
    4  1433     3  1.6746724  0.0001732  0.9999999  0.0004035 -0.0004035  0.9999999 
    4  1433     4  1.6718124 -0.0010289  0.9999996  0.0008492 -0.0008492  0.9999996 
    4  1434     1  1.6738635 -0.0000753  0.9999999  0.0003623 -0.0003623  0.9999999 
    4  1434     2  1.6743457 -0.0004454  0.9999995  0.0009899 -0.0009899  0.9999995 
    4  1434     3  1.6705579 -0.0011922  0.9999998  0.0006450 -0.0006450  0.9999998 
    4  1434     4  1.6710150 -0.0015640  0.9999992  0.0012660 -0.0012660  0.9999992 
    4  1435     1  1.6849460  0.0001283  1.0000000  0.0002938 -0.0002938  1.0000000 
    4  1435     2  1.6853329 -0.0002167  0.9999996  0.0008897 -0.0008897  0.9999996 
    4  1435     3  1.6816226 -0.0009576  0.9999999  0.0005296 -0.0005296  0.9999999 
    4  1435     4  1.6820199 -0.0013058  0.9999994  0.0011334 -0.0011334  0.9999994 
    4  1436     1  1.6871177 -0.0008952  0.9999999  0.0004643 -0.0004643  0.9999999 
    4  1436     2  1.6903878  0.0001839  1.0000000  0.0002178 -0.0002178  1.0000000 
    4  1436     3  1.6875254 -0.0012143  0.9999994  0.0010617 -0.0010617  0.9999994 
    4  1436     4  1.6908352 -0.0001244  0.9999997  0.0008156 -0.0008156  0.9999997 
    4  1437     1  1.6882394 -0.0013153  0.9999994  0.0010906 -0.0010906  0.9999994 
    4  1437     2  1.6879031 -0.0009427  0.9999999  0.0003599 -0.0003599  0.9999999 
    4  1437     3  1.6921897 -0.0000439  0.9999996  0.0008373 -0.0008373  0.9999996 
    4  1437     4  1.6915436  0.0001839  1.0000000  0.0001972 -0.0001972  1.0000000 
    4  1438     1  1.6859163 -0.0002101  0.9999995  0.0009986 -0.0009986  0.9999995 
    4  1438     2  1.6826278 -0.0012372  0.9999993  0.0011632 -0.0011632  0.9999993 
    4  1438     3  1.6856818 -0.0000430  0.9999999  0.0003918 -0.0003918  0.9999999 
    4  1438     4  1.6822542 -0.0011001  0.9999999  0.0005291 -0.0005291  0.9999999 
    4  1439     1  1.6766196  0.0000666  0.9999996  0.0008742 -0.0008742  0.9999996 
    4  1439     2  1.6763831 -0.0009121  0.9999997  0.0007397 -0.0007397  0.9999997 
    4  1439     3  1.6762537 -0.0009568  0.9999994  0.0010493 -0.0010493  0.9999994 
    4  1439     4  1.6761698 -0.0014304  0.9999996  0.0009028 -0.0009028  0.9999996 
    4  1440     1  1.6780672 -0.0011472  0.9999998  0.0007027 -0.0007027  0.9999998 
    4  1440     2  1.6810067 -0.0002396  0.9999998  0.0005663 -0.0005663  0.9999998 
    4  1440     3  1.6788303 -0.0013054  0.9999993  0.0012084 -0.0012084  0.9999993 
    4  1440     4  1.6811735 -0.0005245  0.9999995  0.0010206 -0.0010206  0.9999995 
    4  1441     1  1.6780261 -0.0011019  0.9999995  0.0009827 -0.0009827  0.9999995 
    4  1441     2  1.6787931 -0.0012659  0.9999999  0.0005197 -0.0005197  0.9999999 
    4  1441     3  1.6807474 -0.0002458  0.9999994  0.0011352 -0.0011352  0.9999994 
    4  1441     4  1.6809922 -0.0005155  0.9999997  0.0007160 -0.0007160  0.9999997 
    4  1442     1  1.6860294 -0.0001698  0.9999999  0.0004439 -0.0004439  0.9999999 
    4  1442     2  1.6860448 -0.0002364  0.9999995  0.0010354 -0.0010354  0.9999995 
    4  1442     3  1.6827176 -0.0011618  0.9999999  0.0004499 -0.0004499  0.9999999 
    4  1442     4  1.6828415 -0.0012022  0.9999994  0.0010939 -0.0010939  0.9999994 
    4  1443     1  1.6882479 -0.0012399  0.9999999  0.0003456 -0.0003456  0.9999999 
    4  1443     2  1.6922275 -0.0000218  0.9999999  0.0004810 -0.0004810  0.9999999 
    4  1443     3  1.6881220 -0.0010301  0.9999994  0.0010992 -0.0010992  0.9999994 
    4  1443     4  1.6916612  0.0000287  0.9999993  0.0011442 -0.0011442  0.9999993 
    4  1444     1  1.6874173 -0.0009534  0.9999995  0.0010138 -0.0010138  0.9999995 
    4  1444     2  1.6877380 -0.0011298  0.9999999  0.0004089 -0.0004089  0.9999999 
    4  1444     3  1.6905022  0.0000116  0.9999993  0.0011673 -0.0011673  0.9999993 
    4  1444     4  1.6908888 -0.0001393  0.9999998  0.0005765 -0.0005765  0.9999998 
    4  1445     1  1.6855173 -0.0001149  0.9999993  0.0012008 -0.0012008  0.9999993 
    4  1445     2  1.6824275 -0.0010573  0.9999994  0.0011053 -0.0011053  0.9999994 
    4  1445     3  1.6858002 -0.0002182  0.9999998  0.0006401 -0.0006401  0.9999998 
    4  1445     4  1.6827101 -0.0011764  0.9999999  0.0004977 -0.0004977  0.9999999 
    4  1446     1  1.6751544 -0.0004060  0.9999996  0.0008582 -0.0008582  0.9999996 
    4  1446     2  1.6744949  0.0001159  0.9999990  0.0014380 -0.0014380  0.9999990 
    4  1446     3  1.6722207 -0.0014871  0.9999999  0.0005251 -0.0005251  0.9999999 
    4  1446     4  1.6717861 -0.0009986  0.9999995  0.0010306 -0.0010306  0.9999995 
    4  1447     1  1.6778037 -0.0013604  0.9999999  0.0005394 -0.0005394  0.9999999 
    4  1447     2  1.6800644 -0.0005180  0.9999997  0.0008027 -0.0008027  0.9999997 
    4  1447     3  1.6773628 -0.0008990  0.9999995  0.0009519 -0.0009519  0.9999995 
    4  1447     4  1.6797870  0.0000175  0.9999992  0.0012441 -0.0012441  0.9999992 
    4  1448     1  1.6757890 -0.0010633  0.9999993  0.0011527 -0.0011527  0.9999993 
    4  1448     2  1.6761762 -0.0014250  0.9999998  0.0006003 -0.0006003  0.9999998 
    4  1448     3  1.6786970 -0.0000645  0.9999990  0.0014187 -0.0014187  0.9999990 
    4  1448     4  1.6790656 -0.0004446  0.9999996  0.0008502 -0.0008502  0.9999996 
    4  1449     1  1.6735722 -0.0001598  0.9999989  0.0015141 -0.0015141  0.9999989 
    4  1449     2  1.6704977 -0.0011854  0.9999992  0.0012663 -0.0012663  0.9999992 
    4  1449     3  1.6740011 -0.0004919  0.9999996  0.0009117 -0.0009117  0.9999996 
    4  1449     4  1.6708750 -0.0015330  0.9999998  0.0006621 -0.0006621  0.9999998 
    4  1450     1  1.6849656 -0.0002961  0.9999998  0.0007069 -0.0007069  0.9999998 
    4  1450     2  1.6846988  0.0000513  0.9999992  0.0012612 -0.0012612  0.9999992 
    4  1450     3  1.6820461 -0.0012649  0.9999999  0.0004801 -0.0004801  0.9999999 
    4  1450     4  1.6817040 -0.0009312  0.9999995  0.0010434 -0.0010434  0.9999995 
    4  1451     1  1.6869523 -0.0011770  0.9999999  0.0004429 -0.0004429  0.9999999 
    4  1451     2  1.6900113 -0.0001889  0.9999998  0.0006454 -0.0006454  0.9999998 
    4  1451     3  1.6866683 -0.0008874  0.9999995  0.0010376 -0.0010376  0.9999995 
    4  1451     4  1.6897391  0.0000988  0.9999992  0.0012318 -0.0012318  0.9999992 
    4  1452     1  1.6859050 -0.0008734  0.9999994  0.0010686 -0.0010686  0.9999994 
    4  1452     2  1.6861795 -0.0012204  0.9999999  0.0004752 -0.0004752  0.9999999 
    4  1452     3  1.6889979  0.0001382  0.9999992  0.0012894 -0.0012894  0.9999992 
    4  1452     4  1.6892389 -0.0002174  0.9999998  0.0006970 -0.0006970  0.9999998 
    4  1453     1  1.6838662  0.0000725  0.9999991  0.0013320 -0.0013320  0.9999991 
    4  1453     2  1.6808832 -0.0009331  0.9999994  0.0010826 -0.0010826  0.9999994 
    4  1453     3  1.6841327 -0.0003386  0.9999997  0.0007708 -0.0007708  0.9999997 
    4  1453     4  1.6812091 -0.0013245  0.9999999  0.0005261 -0.0005261  0.9999999 
    4  1454     1  1.6729762 -0.0005387  0.9999995  0.0009683 -0.0009683  0.9999995 
    4  1454     2  1.6727144 -0.0001238  0.9999988  0.0015728 -0.0015728  0.9999988 
    4  1454     3  1.6699019 -0.0015711  0.9999997  0.0007137 -0.0007137  0.9999997 
    4  1454     4  1.6696326 -0.0011566  0.9999991  0.0013199 -0.0013199  0.9999991 
    4  1455     1  1.6750547 -0.0014857  0.9999998  0.0006517 -0.0006517  0.9999998 
    4  1455     2  1.6781330 -0.0004536  0.9999996  0.0009042 -0.0009042  0.9999996 
    4  1455     3  1.6747997 -0.0010688  0.9999992  0.0012581 -0.0012581  0.9999992 
    4  1455     4  1.6778976 -0.0000291  0.9999989  0.0015136 -0.0015136  0.9999989 
    4  1456     1  1.6739825 -0.0010673  0.9999991  0.0013204 -0.0013204  0.9999991 
    4  1456     2  1.6742213 -0.0015054  0.9999997  0.0007092 -0.0007092  0.9999997 
    4  1456     3  1.6771137 -0.0000160  0.9999988  0.0015789 -0.0015789  0.9999988 
    4  1456     4  1.6773293 -0.0004609  0.9999995  0.0009667 -0.0009667  0.9999995 
    4  1457     1  1.6718931 -0.0001133  0.9999987  0.0016368 -0.0016368  0.9999987 
    4  1457     2  1.6688079 -0.0011566  0.9999991  0.0013733 -0.0013733  0.9999991 
    4  1457     3  1.6721347 -0.0005617  0.9999995  0.0010363 -0.0010363  0.9999995 
    4  1457     4  1.6690681 -0.0016019  0.9999997  0.0007708 -0.0007708  0.9999997 
    4  1458     1  1.6833239 -0.0003543  0.9999997  0.0008279 -0.0008279  0.9999997 
    4  1458     2  1.6831234  0.0000766  0.9999990  0.0014340 -0.0014340  0.9999990 
    4  1458     3  1.6802086 -0.0013943  0.9999998  0.0005788 -0.0005788  0.9999998 
    4  1458     4  1.6799889 -0.0009712  0.9999993  0.0011814 -0.0011814  0.9999993 
    4  1459     1  1.6853888 -0.0012873  0.9999999  0.0005144 -0.0005144  0.9999999 
    4  1459     2  1.6885191 -0.0002542  0.9999997  0.0007494 -0.0007494  0.9999997 
    4  1459     3  1.6851971 -0.0008725  0.9999994  0.0011258 -0.0011258  0.9999994 
    4  1459     4  1.6883592  0.0001704  0.9999991  0.0013626 -0.0013626  0.9999991 
    4  1460     1  1.6845070 -0.0008941  0.9999993  0.0011951 -0.0011951  0.9999993 
    4  1460     2  1.6846746 -0.0013145  0.9999998  0.0005669 -0.0005669  0.9999998 
    4  1460     3  1.6877406  0.0001696  0.9999990  0.0014339 -0.0014339  0.9999990 
    4  1460     4  1.6878808 -0.0002595  0.9999997  0.0008039 -0.0008039  0.9999997 
    4  1461     1  1.6824234  0.0000846  0.9999989  0.0015098 -0.0015098  0.9999989 
    4  1461     2  1.6792128 -0.0009835  0.9999992  0.0012572 -0.0012572  0.9999992 
    4  1461     3  1.6826002 -0.0003548  0.9999996  0.0008887 -0.0008887  0.9999996 
    4  1461     4  1.6794198 -0.0014131  0.9999998  0.0006383 -0.0006383  0.9999998 
    4  1462     1  1.6713312 -0.0005912  0.9999994  0.0011047 -0.0011047  0.9999994 
    4  1462     2  1.6711577 -0.0000780  0.9999985  0.0017188 -0.0017188  0.9999985 
    4  1462     3  1.6682190 -0.0016572  0.9999997  0.0008245 -0.0008245  0.9999997 
    4  1462     4  1.6680147 -0.0011524  0.9999990  0.0014380 -0.0014380  0.9999990 
    4  1463     1  1.6734089 -0.0015546  0.9999997  0.0007580 -0.0007580  0.9999997 
    4  1463     2  1.6765868 -0.0004811  0.9999995  0.0010272 -0.0010272  0.9999995 
    4  1463     3  1.6732405 -0.0010633  0.9999990  0.0013864 -0.0013864  0.9999990 
    4  1463     4  1.6764478  0.0000186  0.9999986  0.0016565 -0.0016565  0.9999986 
    4  1464     1  1.6725166 -0.0010723  0.9999989  0.0014511 -0.0014511  0.9999989 
    4  1464     2  1.6726894 -0.0015763  0.9999997  0.0008190 -0.0008190  0.9999997 
    4  1464     3  1.6757592  0.0000250  0.9999985  0.0017281 -0.0017281  0.9999985 
    4  1464     4  1.6759019 -0.0004878  0.9999994  0.0010948 -0.0010948  0.9999994 
    4  1465     1  1.6703984 -0.0000808  0.9999984  0.0017973 -0.0017973  0.9999984 
    4  1465     2  1.6672213 -0.0011712  0.9999989  0.0015088 -0.0015088  0.9999989 
    4  1465     3  1.6705765 -0.0006053  0.9999993  0.0011793 -0.0011793  0.9999993 
    4  1465     4  1.6674292 -0.0016876  0.9999996  0.0008914 -0.0008914  0.9999996 
    4  1466     1  1.6819212 -0.0003672  0.9999996  0.0009444 -0.0009444  0.9999996 
    4  1466     2  1.6818026  0.0001127  0.9999987  0.0015831 -0.0015831  0.9999987 
    4  1466     3  1.6786616 -0.0014533  0.9999998  0.0006862 -0.0006862  0.9999998 
    4  1466     4  1.6785258 -0.0009788  0.9999991  0.0013237 -0.0013237  0.9999991 
    4  1467     1  1.6840005 -0.0013527  0.9999998  0.0006129 -0.0006129  0.9999998 
    4  1467     2  1.6872795 -0.0002721  0.9999996  0.0008573 -0.0008573  0.9999996 
    4  1467     3  1.6838870 -0.0008942  0.9999992  0.0012575 -0.0012575  0.9999992 
    4  1467     4  1.6871936  0.0001950  0.9999989  0.0015035 -0.0015035  0.9999989 
    4  1468     1  1.6832943 -0.0009039  0.9999991  0.0013192 -0.0013192  0.9999991 
    4  1468     2  1.6833962 -0.0013697  0.9999998  0.0006642 -0.0006642  0.9999998 
    4  1468     3  1.6866536  0.0002014  0.9999988  0.0015677 -0.0015677  0.9999988 
    4  1468     4  1.6867292 -0.0002725  0.9999996  0.0009112 -0.0009112  0.9999996 
    4  1469     1  1.6811919  0.0001182  0.9999986  0.0016507 -0.0016507  0.9999986 
    4  1469     2  1.6778697 -0.0009876  0.9999990  0.0013887 -0.0013887  0.9999990 
    4  1469     3  1.6813016 -0.0003697  0.9999995  0.0010037 -0.0010037  0.9999995 
    4  1469     4  1.6780090 -0.0014661  0.9999997  0.0007436 -0.0007436  0.9999997 
    4  1470     1  1.6698083 -0.0006155  0.9999992  0.0012560 -0.0012560  0.9999992 
    4  1470     2  1.6696496 -0.0000692  0.9999982  0.0018811 -0.0018811  0.9999982 
    4  1470     3  1.6666095 -0.0017190  0.9999995  0.0009597 -0.0009597  0.9999995 
    4  1470     4  1.6664191 -0.0011823  0.9999987  0.0015832 -0.0015832  0.9999987 
    4  1471     1  1.6719457 -0.0016088  0.9999996  0.0008801 -0.0008801  0.9999996 
    4  1471     2  1.6752168 -0.0004979  0.9999993  0.0011639 -0.0011639  0.9999993 
    4  1471     3  1.6717943 -0.0010853  0.9999988  0.0015196 -0.0015196  0.9999988 
    4  1471     4  1.6751004  0.0000361  0.9999984  0.0018050 -0.0018050  0.9999984 
    4  1472     1  1.6710468 -0.0011044  0.9999987  0.0015898 -0.0015898  0.9999987 
    4  1472     2  1.6712139 -0.0016315  0.9999996  0.0009447 -0.0009447  0.9999996 
    4  1472     3  1.6744061  0.0000366  0.9999982  0.0018815 -0.0018815  0.9999982 
    4  1472     4  1.6745338 -0.0005029  0.9999992  0.0012340 -0.0012340  0.9999992 
    4  1473     1  1.6688565 -0.0000769  0.9999981  0.0019641 -0.0019641  0.9999981 
    4  1473     2  1.6655873 -0.0012059  0.9999986  0.0016597 -0.0016597  0.9999986 
    4  1473     3  1.6690326 -0.0006244  0.9999991  0.0013379 -0.0013379  0.9999991 
    4  1473     4  1.6658021 -0.0017431  0.9999995  0.0010341 -0.0010341  0.9999995 
    4  1474     1  1.6806891 -0.0003762  0.9999994  0.0010639 -0.0010639  0.9999994 
    4  1474     2  1.6805981  0.0001244  0.9999985  0.0017187 -0.0017187  0.9999985 
    4  1474     3  1.6773402 -0.0014909  0.9999997  0.0007999 -0.0007999  0.9999997 
    4  1474     4  1.6772251 -0.0009980  0.9999989  0.0014530 -0.0014530  0.9999989 
    4  1475     1  1.6828060 -0.0013902  0.9999997  0.0007156 -0.0007156  0.9999997 
    4  1475     2  1.6861915 -0.0002763  0.9999995  0.0009659 -0.0009659  0.9999995 
    4  1475     3  1.6827216 -0.0009126  0.9999991  0.0013777 -0.0013777  0.9999991 
    4  1475     4  1.6861353  0.0002104  0.9999987  0.0016298 -0.0016298  0.9999987 
    4  1476     1  1.6821486 -0.0009264  0.9999990  0.0014401 -0.0014401  0.9999990 
    4  1476     2  1.6822300 -0.0014022  0.9999997  0.0007707 -0.0007707  0.9999997 
    4  1476     3  1.6856111  0.0002100  0.9999986  0.0016926 -0.0016926  0.9999986 
    4  1476     4  1.6856652 -0.0002753  0.9999995  0.0010205 -0.0010205  0.9999995 
    4  1477     1  1.6799975  0.0001223  0.9999984  0.0017875 -0.0017875  0.9999984 
    4  1477     2  1.6765723 -0.0010149  0.9999988  0.0015206 -0.0015206  0.9999988 
    4  1477     3  1.6800886 -0.0003784  0.9999994  0.0011237 -0.0011237  0.9999994 
    4  1477     4  1.6766971 -0.0015039  0.9999996  0.0008603 -0.0008603  0.9999996 
    4  1478     1  1.6681983 -0.0006320  0.9999990  0.0014222 -0.0014222  0.9999990 
    4  1478     2  1.6680005 -0.0000779  0.9999979  0.0020461 -0.0020461  0.9999979 
    4  1478     3  1.6649252 -0.0017724  0.9999994  0.0011074 -0.0011074  0.9999994 
    4  1478     4  1.6646759 -0.0012334  0.9999985  0.0017291 -0.0017291  0.9999985 
    4  1479     1  1.6704398 -0.0016616  0.9999995  0.0010127 -0.0010127  0.9999995 
    4  1479     2  1.6738248 -0.0005118  0.9999991  0.0013068 -0.0013068  0.9999991 
    4  1479     3  1.6702546 -0.0011374  0.9999986  0.0016586 -0.0016586  0.9999986 
    4  1479     4  1.6736909  0.0000299  0.9999981  0.0019573 -0.0019573  0.9999981 
    4  1480     1  1.6694227 -0.0011797  0.9999985  0.0017410 -0.0017410  0.9999985 
    4  1480     2  1.6696209 -0.0017050  0.9999994  0.0010770 -0.0010770  0.9999994 
    4  1480     3  1.6729856  0.0000259  0.9999979  0.0020458 -0.0020458  0.9999979 
    4  1480     4  1.6731098 -0.0005257  0.9999991  0.0013739 -0.0013739  0.9999991 
    4  1481     1  1.6670818 -0.0000805  0.9999977  0.0021398 -0.0021398  0.9999977 
    4  1481     2  1.6636413 -0.0012864  0.9999984  0.0018019 -0.0018019  0.9999984 
    4  1481     3  1.6673008 -0.0006638  0.9999989  0.0015065 -0.0015065  0.9999989 
    4  1481     4  1.6639512 -0.0018412  0.9999993  0.0011743 -0.0011743  0.9999993 
    4  1482     1  1.6794816 -0.0003825  0.9999993  0.0011885 -0.0011885  0.9999993 
    4  1482     2  1.6793907  0.0001083  0.9999983  0.0018556 -0.0018556  0.9999983 
    4  1482     3  1.6760325 -0.0015218  0.9999996  0.0009270 -0.0009270  0.9999996 
    4  1482     4  1.6759034 -0.0010445  0.9999987  0.0015899 -0.0015899  0.9999987 
    4  1483     1  1.6816535 -0.0014029  0.9999997  0.0008319 -0.0008319  0.9999997 
    4  1483     2  1.6851382 -0.0002668  0.9999994  0.0010760 -0.0010760  0.9999994 
    4  1483     3  1.6815718 -0.0009454  0.9999989  0.0015030 -0.0015030  0.9999989 
    4  1483     4  1.6850834  0.0002009  0.9999985  0.0017512 -0.0017512  0.9999985 
    4  1484     1  1.6810165 -0.0009586  0.9999988  0.0015751 -0.0015751  0.9999988 
    4  1484     2  1.6810751 -0.0013986  0.9999996  0.0008958 -0.0008958  0.9999996 
    4  1484     3  1.6845801  0.0001944  0.9999984  0.0018132 -0.0018132  0.9999984 
    4  1484     4  1.6846168 -0.0002563  0.9999994  0.0011267 -0.0011267  0.9999994 
    4  1485     1  1.6788136  0.0001062  0.9999981  0.0019306 -0.0019306  0.9999981 
    4  1485     2  1.6752367 -0.0010654  0.9999986  0.0016716 -0.0016716  0.9999986 
    4  1485     3  1.6788841 -0.0003735  0.9999992  0.0012425 -0.0012425  0.9999992 
    4  1485     4  1.6753513 -0.0015259  0.9999995  0.0009935 -0.0009935  0.9999995 
    4  1486     1  1.6663440 -0.0006558  0.9999987  0.0015837 -0.0015837  0.9999987 
    4  1486     2  1.6661011 -0.0000735  0.9999975  0.0022430 -0.0022430  0.9999975 
    4  1486     3  1.6628216 -0.0018863  0.9999992  0.0012414 -0.0012414  0.9999992 
    4  1486     4  1.6624525 -0.0013496  0.9999982  0.0018867 -0.0018867  0.9999982 
    4  1487     1  1.6687707 -0.0017142  0.9999993  0.0011461 -0.0011461  0.9999993 
    4  1487     2  1.6724203 -0.0005006  0.9999990  0.0014337 -0.0014337  0.9999990 
    4  1487     3  1.6685649 -0.0012233  0.9999983  0.0018291 -0.0018291  0.9999983 
    4  1487     4  1.6723127  0.0000285  0.9999977  0.0021315 -0.0021315  0.9999977 
    4  1488     1  1.6677292 -0.0012569  0.9999981  0.0019324 -0.0019324  0.9999981 
    4  1488     2  1.6679060 -0.0017033  0.9999993  0.0011962 -0.0011962  0.9999993 
    4  1488     3  1.6717840  0.0000645  0.9999975  0.0022192 -0.0022192  0.9999975 
    4  1488     4  1.6718213 -0.0004353  0.9999989  0.0014610 -0.0014610  0.9999989 
    4  1489     1  1.6651449 -0.0000259  0.9999972  0.0023584 -0.0023584  0.9999972 
    4  1489     2  1.6612303 -0.0013702  0.9999980  0.0019998 -0.0019998  0.9999980 
    4  1489     3  1.6653734 -0.0005947  0.9999986  0.0016453 -0.0016453  0.9999986 
    4  1489     4  1.6616073 -0.0018810  0.9999991  0.0013085 -0.0013085  0.9999991 
    4  1490     1  1.6571097 -0.0020962  0.9999991  0.0013758 -0.0013758  0.9999991 
    4  1490     2  1.6602142 -0.0008781  0.9999984  0.0017865 -0.0017865  0.9999984 
    4  1490     3  1.6565613 -0.0014584  0.9999982  0.0019078 -0.0019078  0.9999982 
    4  1490     4  1.6598596 -0.0001748  0.9999973  0.0023369 -0.0023369  0.9999973 
    4  1491     1  1.6545267 -0.0015272  0.9999979  0.0020269 -0.0020269  0.9999979 
    4  1491     2  1.6551454 -0.0021163  0.9999990  0.0013946 -0.0013946  0.9999990 
    4  1491     3  1.6583564 -0.0000860  0.9999969  0.0024920 -0.0024920  0.9999969 
    4  1491     4  1.6587918 -0.0007563  0.9999983  0.0018266 -0.0018266  0.9999983 
    4  1492     1  1.6514198 -0.0001824  0.9999968  0.0025355 -0.0025355  0.9999968 
    4  1492     2  1.6485571 -0.0017292  0.9999981  0.0019339 -0.0019339  0.9999981 
    4  1492     3  1.6518926 -0.0011825  0.9999976  0.0021936 -0.0021936  0.9999976 
    4  1492     4  1.6495634 -0.0024036  0.9999985  0.0017177 -0.0017177  0.9999985 
    4  1493     1  1.6542712 -0.0011042  0.9999979  0.0020361 -0.0020361  0.9999979 
    4  1493     2  1.6539093 -0.0004115  0.9999972  0.0023631 -0.0023631  0.9999972 
    4  1493     3  1.6521139 -0.0021657  0.9999987  0.0016304 -0.0016304  0.9999987 
    4  1493     4  1.6516037 -0.0014677  0.9999981  0.0019647 -0.0019647  0.9999981 
    4  1494     1  1.6500226 -0.0008173  0.9999980  0.0020091 -0.0020091  0.9999980 
    4  1494     2  1.6494746  0.0000153  0.9999959  0.0028486 -0.0028486  0.9999959 
    4  1494     3  1.6455128 -0.0024664  0.9999989  0.0015002 -0.0015002  0.9999989 
    4  1494     4  1.6452160 -0.0016525  0.9999974  0.0022710 -0.0022710  0.9999974 
    4  1495     1  1.6536122 -0.0022185  0.9999989  0.0014594 -0.0014594  0.9999989 
    4  1495     2  1.6574381 -0.0008119  0.9999982  0.0018954 -0.0018954  0.9999982 
    4  1495     3  1.6531725 -0.0014818  0.9999977  0.0021213 -0.0021213  0.9999977 
    4  1495     4  1.6571354  1.72e-006  0.9999966  0.0025944 -0.0025944  0.9999966 
    4  1496     1  1.6515192 -0.0016312  0.9999972  0.0023853 -0.0023853  0.9999972 
    4  1496     2  1.6518297 -0.0022399  0.9999988  0.0015752 -0.0015752  0.9999988 
    4  1496     3  1.6559866 -0.0000991  0.9999961  0.0027957 -0.0027957  0.9999961 
    4  1496     4  1.6562574 -0.0007404  0.9999981  0.0019593 -0.0019593  0.9999981 
    4  1497     1  1.6484253 -0.0002178  0.9999956  0.0029725 -0.0029725  0.9999956 
    4  1497     2  1.6438602 -0.0017824  0.9999967  0.0025541 -0.0025541  0.9999967 
    4  1497     3  1.6487524 -0.0008948  0.9999978  0.0021172 -0.0021172  0.9999978 
    4  1497     4  1.6441746 -0.0024575  0.9999985  0.0017051 -0.0017051  0.9999985 
    4  1498     1  1.6363274 -0.0019754  0.9999964  0.0026764 -0.0026764  0.9999964 
    4  1498     2  1.6366280 -0.0026609  0.9999983  0.0018309 -0.0018309  0.9999983 
    4  1498     3  1.6407875 -0.0004467  0.9999952  0.0030866 -0.0030866  0.9999952 
    4  1498     4  1.6410886 -0.0011299  0.9999975  0.0022431 -0.0022431  0.9999975 
    4  1499     1  1.6332950 -0.0006741  0.9999948  0.0032365 -0.0032365  0.9999948 
    4  1499     2  1.6288542 -0.0021915  0.9999960  0.0028317 -0.0028317  0.9999960 
    4  1499     3  1.6335999 -0.0013607  0.9999971  0.0024057 -0.0024057  0.9999971 
    4  1499     4  1.6292178 -0.0028750  0.9999980  0.0019881 -0.0019881  0.9999980 
    4  1500     1  1.6344717 -0.0013852  0.9999976  0.0021951 -0.0021951  0.9999976 
    4  1500     2  1.6343774 -0.0008669  0.9999954  0.0030254 -0.0030254  0.9999954 
    4  1500     3  1.6302909 -0.0027583  0.9999982  0.0018766 -0.0018766  0.9999982 
    4  1500     4  1.6300086 -0.0022896  0.9999963  0.0027109 -0.0027109  0.9999963 
    4  1501     1  1.6375549 -0.0027684  0.9999985  0.0017104 -0.0017104  0.9999985 
    4  1501     2  1.6426553 -0.0010952  0.9999978  0.0020912 -0.0020912  0.9999978 
    4  1501     3  1.6374302 -0.0020664  0.9999962  0.0027468 -0.0027468  0.9999962 
    4  1501     4  1.6423275 -0.0005372  0.9999955  0.0030035 -0.0030035  0.9999955 
    4  1502     1  1.6353864 -0.0027016  0.9999981  0.0019701 -0.0019701  0.9999981 
    4  1502     2  1.6398865 -0.0011569  0.9999972  0.0023864 -0.0023864  0.9999972 
    4  1502     3  1.6350832 -0.0020118  0.9999960  0.0028150 -0.0028150  0.9999960 
    4  1502     4  1.6396095 -0.0004588  0.9999948  0.0032333 -0.0032333  0.9999948 
    4  1503     1  1.6338272 -0.0020573  0.9999956  0.0029643 -0.0029643  0.9999956 
    4  1503     2  1.6341405 -0.0027329  0.9999978  0.0021067 -0.0021067  0.9999978 
    4  1503     3  1.6384254 -0.0004875  0.9999943  0.0033813 -0.0033813  0.9999943 
    4  1503     4  1.6386973 -0.0011788  0.9999968  0.0025178 -0.0025178  0.9999968 
    4  1504     1  1.6306665 -0.0006926  0.9999937  0.0035431 -0.0035431  0.9999937 
    4  1504     2  1.6261522 -0.0022657  0.9999952  0.0030988 -0.0030988  0.9999952 
    4  1504     3  1.6309836 -0.0014253  0.9999964  0.0026974 -0.0026974  0.9999964 
    4  1504     4  1.6265158 -0.0029812  0.9999974  0.0022591 -0.0022591  0.9999974 
    4  1505     1  1.6322865 -0.0013974  0.9999967  0.0025520 -0.0025520  0.9999967 
    4  1505     2  1.6319798 -0.0006673  0.9999943  0.0033815 -0.0033815  0.9999943 
    4  1505     3  1.6278976 -0.0029317  0.9999978  0.0021159 -0.0021159  0.9999978 
    4  1505     4  1.6275361 -0.0022185  0.9999957  0.0029419 -0.0029419  0.9999957 
    4  1506     1  1.6462370 -0.0003128  0.9999948  0.0032111 -0.0032111  0.9999948 
    4  1506     2  1.6415422 -0.0018783  0.9999960  0.0028295 -0.0028295  0.9999960 
    4  1506     3  1.6464749 -0.0009375  0.9999973  0.0023320 -0.0023320  0.9999973 
    4  1506     4  1.6418181 -0.0024879  0.9999981  0.0019567 -0.0019567  0.9999981 
    4  1507     1  1.6475610 -0.0009245  0.9999975  0.0022195 -0.0022195  0.9999975 
    4  1507     2  1.6473017 -0.0002824  0.9999953  0.0030803 -0.0030803  0.9999953 
    4  1507     3  1.6429753 -0.0024665  0.9999983  0.0018322 -0.0018322  0.9999983 
    4  1507     4  1.6426898 -0.0018371  0.9999964  0.0026857 -0.0026857  0.9999964 
    4  1508     1  1.6506216 -0.0022524  0.9999986  0.0016900 -0.0016900  0.9999986 
    4  1508     2  1.6552286 -0.0007276  0.9999979  0.0020484 -0.0020484  0.9999979 
    4  1508     3  1.6503708 -0.0016684  0.9999968  0.0025447 -0.0025447  0.9999968 
    4  1508     4  1.6550225 -0.0001225  0.9999958  0.0029150 -0.0029150  0.9999958 
    4  1509     1  1.6493276 -0.0017103  0.9999964  0.0026834 -0.0026834  0.9999964 
    4  1509     2  1.6495597 -0.0022726  0.9999984  0.0017999 -0.0017999  0.9999984 
    4  1509     3  1.6540829 -0.0001517  0.9999954  0.0030346 -0.0030346  0.9999954 
    4  1509     4  1.6542692 -0.0007310  0.9999977  0.0021447 -0.0021447  0.9999977 
    4  1510     1  1.6454208 -0.0009545  0.9999970  0.0024512 -0.0024512  0.9999970 
    4  1510     2  1.6452098 -0.0003348  0.9999944  0.0033481 -0.0033481  0.9999944 
    4  1510     3  1.6406767 -0.0025236  0.9999978  0.0020814 -0.0020814  0.9999978 
    4  1510     4  1.6404310 -0.0019165  0.9999956  0.0029738 -0.0029738  0.9999956 
    4  1511     1  1.6485303 -0.0022923  0.9999982  0.0019128 -0.0019128  0.9999982 
    4  1511     2  1.6533290 -0.0007313  0.9999975  0.0022510 -0.0022510  0.9999975 
    4  1511     3  1.6483198 -0.0017366  0.9999960  0.0028148 -0.0028148  0.9999960 
    4  1511     4  1.6531556 -0.0001622  0.9999950  0.0031578 -0.0031578  0.9999950 
    4  1512     1  1.6473257 -0.0017632  0.9999956  0.0029528 -0.0029528  0.9999956 
    4  1512     2  1.6475275 -0.0023121  0.9999979  0.0020306 -0.0020306  0.9999979 
    4  1512     3  1.6522242 -0.0001770  0.9999946  0.0032884 -0.0032884  0.9999946 
    4  1512     4  1.6523941 -0.0007367  0.9999972  0.0023630 -0.0023630  0.9999972 
    4  1513     1  1.6441880 -0.0003523  0.9999939  0.0034911 -0.0034911  0.9999939 
    4  1513     2  1.6393376 -0.0019474  0.9999951  0.0031239 -0.0031239  0.9999951 
    4  1513     3  1.6443890 -0.0009629  0.9999967  0.0025732 -0.0025732  0.9999967 
    4  1513     4  1.6395722 -0.0025456  0.9999976  0.0022108 -0.0022108  0.9999976 
    4  1514     1  1.6433691 -0.0009735  0.9999964  0.0026995 -0.0026995  0.9999964 
    4  1514     2  1.6431848 -0.0003706  0.9999934  0.0036364 -0.0036364  0.9999934 
    4  1514     3  1.6384787 -0.0025705  0.9999973  0.0023444 -0.0023444  0.9999973 
    4  1514     4  1.6382680 -0.0019774  0.9999946  0.0032774 -0.0032774  0.9999946 
    4  1515     1  1.6465274 -0.0023279  0.9999977  0.0021535 -0.0021535  0.9999977 
    4  1515     2  1.6514561 -0.0007399  0.9999969  0.0024795 -0.0024795  0.9999969 
    4  1515     3  1.6463399 -0.0017849  0.9999952  0.0030919 -0.0030919  0.9999952 
    4  1515     4  1.6512960 -0.0001872  0.9999941  0.0034213 -0.0034213  0.9999941 
    4  1516     1  1.6453611 -0.0018109  0.9999948  0.0032369 -0.0032369  0.9999948 
    4  1516     2  1.6455403 -0.0023408  0.9999974  0.0022806 -0.0022806  0.9999974 
    4  1516     3  1.6503653 -0.0002063  0.9999937  0.0035569 -0.0035569  0.9999937 
    4  1516     4  1.6505216 -0.0007443  0.9999966  0.0025975 -0.0025975  0.9999966 
    4  1517     1  1.6421900 -0.0003902  0.9999928  0.0037842 -0.0037842  0.9999928 
    4  1517     2  1.6372168 -0.0020050  0.9999941  0.0034352 -0.0034352  0.9999941 
    4  1517     3  1.6423648 -0.0009792  0.9999960  0.0028271 -0.0028271  0.9999960 
    4  1517     4  1.6374157 -0.0025848  0.9999969  0.0024822 -0.0024822  0.9999969 
    4  1518     1  1.6290729 -0.0022141  0.9999934  0.0036276 -0.0036276  0.9999934 
    4  1518     2  1.6292950 -0.0028522  0.9999964  0.0026794 -0.0026794  0.9999964 
    4  1518     3  1.6340173 -0.0005828  0.9999920  0.0040108 -0.0040108  0.9999920 
    4  1518     4  1.6342106 -0.0012329  0.9999953  0.0030567 -0.0030567  0.9999953 
    4  1519     1  1.6258312 -0.0007975  0.9999910  0.0042336 -0.0042336  0.9999910 
    4  1519     2  1.6209172 -0.0024445  0.9999927  0.0038193 -0.0038193  0.9999927 
    4  1519     3  1.6260530 -0.0014995  0.9999946  0.0032836 -0.0032836  0.9999946 
    4  1519     4  1.6211715 -0.0031324  0.9999959  0.0028764 -0.0028764  0.9999959 
    4  1520     1  1.6272306 -0.0014893  0.9999951  0.0031349 -0.0031349  0.9999951 
    4  1520     2  1.6269928 -0.0007676  0.9999918  0.0040585 -0.0040585  0.9999918 
    4  1520     3  1.6224387 -0.0031103  0.9999963  0.0027144 -0.0027144  0.9999963 
    4  1520     4  1.6221661 -0.0024034  0.9999934  0.0036311 -0.0036311  0.9999934 
    4  1521     1  1.6304540 -0.0028347  0.9999968  0.0025296 -0.0025296  0.9999968 
    4  1521     2  1.6352913 -0.0012263  0.9999957  0.0029194 -0.0029194  0.9999957 
    4  1521     3  1.6302164 -0.0021786  0.9999940  0.0034546 -0.0034546  0.9999940 
    4  1521     4  1.6350869 -0.0005568  0.9999926  0.0038504 -0.0038504  0.9999926 
    4  1522     1  1.6248946 -0.0015016  0.9999941  0.0034346 -0.0034346  0.9999941 
    4  1522     2  1.6246760 -0.0008332  0.9999903  0.0044077 -0.0044077  0.9999903 
    4  1522     3  1.6199350 -0.0031406  0.9999954  0.0030452 -0.0030452  0.9999954 
    4  1522     4  1.6196907 -0.0024844  0.9999920  0.0040110 -0.0040110  0.9999920 
    4  1523     1  1.6281602 -0.0028565  0.9999960  0.0028356 -0.0028356  0.9999960 
    4  1523     2  1.6331416 -0.0012318  0.9999949  0.0031966 -0.0031966  0.9999949 
    4  1523     3  1.6279401 -0.0022504  0.9999928  0.0038032 -0.0038032  0.9999928 
    4  1523     4  1.6329480 -0.0006145  0.9999913  0.0041702 -0.0041702  0.9999913 
    4  1524     1  1.6268276 -0.0022822  0.9999921  0.0039824 -0.0039824  0.9999921 
    4  1524     2  1.6270305 -0.0028581  0.9999955  0.0029929 -0.0029929  0.9999955 
    4  1524     3  1.6318948 -0.0006432  0.9999906  0.0043312 -0.0043312  0.9999906 
    4  1524     4  1.6320804 -0.0012272  0.9999944  0.0033364 -0.0033364  0.9999944 
    4  1525     1  1.6235554 -0.0008648  0.9999895  0.0045837 -0.0045837  0.9999895 
    4  1525     2  1.6184914 -0.0025202  0.9999911  0.0042087 -0.0042087  0.9999911 
    4  1525     3  1.6237574 -0.0014939  0.9999936  0.0035846 -0.0035846  0.9999936 
    4  1525     4  1.6187187 -0.0031369  0.9999948  0.0032179 -0.0032179  0.9999948 
    4  1526     1  1.6413635 -0.0009799  0.9999956  0.0029581 -0.0029581  0.9999956 
    4  1526     2  1.6411850 -0.0004176  0.9999923  0.0039315 -0.0039315  0.9999923 
    4  1526     3  1.6363661 -0.0025897  0.9999966  0.0026261 -0.0026261  0.9999966 
    4  1526     4  1.6361679 -0.0020351  0.9999935  0.0035958 -0.0035958  0.9999935 
    4  1527     1  1.6445593 -0.0023422  0.9999971  0.0024131 -0.0024131  0.9999971 
    4  1527     2  1.6495825 -0.0007416  0.9999963  0.0027183 -0.0027183  0.9999963 
    4  1527     3  1.6443758 -0.0018372  0.9999943  0.0033838 -0.0033838  0.9999943 
    4  1527     4  1.6494218 -0.0002284  0.9999932  0.0036923 -0.0036923  0.9999932 
    4  1528     1  1.6433832 -0.0018620  0.9999938  0.0035342 -0.0035342  0.9999938 
    4  1528     2  1.6435680 -0.0023450  0.9999968  0.0025483 -0.0025483  0.9999968 
    4  1528     3  1.6484634 -0.0002510  0.9999927  0.0038308 -0.0038308  0.9999927 
    4  1528     4  1.6486297 -0.0007404  0.9999960  0.0028424 -0.0028424  0.9999960 
    4  1529     1  1.6401797 -0.0004421  0.9999917  0.0040804 -0.0040804  0.9999917 
    4  1529     2  1.6351255 -0.0020605  0.9999929  0.0037586 -0.0037586  0.9999929 
    4  1529     3  1.6403576 -0.0009788  0.9999952  0.0030899 -0.0030899  0.9999952 
    4  1529     4  1.6353170 -0.0025916  0.9999962  0.0027714 -0.0027714  0.9999962 
    4  1530     1  1.6226336 -0.0014711  0.9999930  0.0037354 -0.0037354  0.9999930 
    4  1530     2  1.6224051 -0.0009154  0.9999887  0.0047522 -0.0047522  0.9999887 
    4  1530     3  1.6175381 -0.0031080  0.9999942  0.0034000 -0.0034000  0.9999942 
    4  1530     4  1.6173041 -0.0025588  0.9999903  0.0044084 -0.0044084  0.9999903 
    4  1531     1  1.6259349 -0.0028347  0.9999950  0.0031593 -0.0031593  0.9999950 
    4  1531     2  1.6310161 -0.0012101  0.9999939  0.0034803 -0.0034803  0.9999939 
    4  1531     3  1.6257035 -0.0023166  0.9999913  0.0041601 -0.0041601  0.9999913 
    4  1531     4  1.6307942 -0.0006868  0.9999899  0.0044860 -0.0044860  0.9999899 
    4  1532     1  1.6245890 -0.0023429  0.9999906  0.0043375 -0.0043375  0.9999906 
    4  1532     2  1.6248082 -0.0028226  0.9999945  0.0033251 -0.0033251  0.9999945 
    4  1532     3  1.6296812 -0.0007263  0.9999892  0.0046414 -0.0046414  0.9999892 
    4  1532     4  1.6299187 -0.0012015  0.9999934  0.0036274 -0.0036274  0.9999934 
    4  1533     1  1.6213092 -0.0009581  0.9999879  0.0049193 -0.0049193  0.9999879 
    4  1533     2  1.6161824 -0.0025858  0.9999894  0.0046114 -0.0046114  0.9999894 
    4  1533     3  1.6215159 -0.0014510  0.9999925  0.0038823 -0.0038823  0.9999925 
    4  1533     4  1.6163663 -0.0030808  0.9999936  0.0035830 -0.0035830  0.9999936 
    4  1534     1  1.6393302 -0.0009689  0.9999948  0.0032294 -0.0032294  0.9999948 
    4  1534     2  1.6391114 -0.0004816  0.9999911  0.0042273 -0.0042273  0.9999911 
    4  1534     3  1.6342784 -0.0025750  0.9999957  0.0029262 -0.0029262  0.9999957 
    4  1534     4  1.6340512 -0.0020908  0.9999923  0.0039225 -0.0039225  0.9999923 
    4  1535     1  1.6425699 -0.0023290  0.9999964  0.0026910 -0.0026910  0.9999964 
    4  1535     2  1.6476484 -0.0007274  0.9999956  0.0029723 -0.0029723  0.9999956 
    4  1535     3  1.6423445 -0.0018909  0.9999932  0.0036862 -0.0036862  0.9999932 
    4  1535     4  1.6474453 -0.0002823  0.9999921  0.0039690 -0.0039690  0.9999921 
    4  1536     1  1.6412416 -0.0019109  0.9999926  0.0038397 -0.0038397  0.9999926 
    4  1536     2  1.6415055 -0.0023210  0.9999960  0.0028362 -0.0028362  0.9999960 
    4  1536     3  1.6463538 -0.0003034  0.9999915  0.0041151 -0.0041151  0.9999915 
    4  1536     4  1.6465929 -0.0007197  0.9999952  0.0031133 -0.0031133  0.9999952 
    4  1537     1  1.6379865 -0.0005131  0.9999904  0.0043790 -0.0043790  0.9999904 
    4  1537     2  1.6329446 -0.0021103  0.9999917  0.0040853 -0.0040853  0.9999917 
    4  1537     3  1.6382392 -0.0009674  0.9999943  0.0033791 -0.0033791  0.9999943 
    4  1537     4  1.6331943 -0.0025670  0.9999952  0.0030830 -0.0030830  0.9999952 
    4  1538     1  1.6204422 -0.0014101  0.9999919  0.0040239 -0.0040239  0.9999919 
    4  1538     2  1.6202110 -0.0010321  0.9999872  0.0050672 -0.0050672  0.9999872 
    4  1538     3  1.6152997 -0.0030091  0.9999929  0.0037800 -0.0037800  0.9999929 
    4  1538     4  1.6151446 -0.0026135  0.9999884  0.0048120 -0.0048120  0.9999884 
    4  1539     1  1.6237223 -0.0027864  0.9999939  0.0035008 -0.0035008  0.9999939 
    4  1539     2  1.6287753 -0.0011913  0.9999928  0.0037874 -0.0037874  0.9999928 
    4  1539     3  1.6234621 -0.0023657  0.9999899  0.0045055 -0.0045055  0.9999899 
    4  1539     4  1.6284392 -0.0007957  0.9999885  0.0047858 -0.0047858  0.9999885 
    4  1540     1  1.6223514 -0.0023574  0.9999892  0.0046485 -0.0046485  0.9999892 
    4  1540     2  1.6226158 -0.0027911  0.9999932  0.0036749 -0.0036749  0.9999932 
    4  1540     3  1.6270450 -0.0008703  0.9999879  0.0049242 -0.0049242  0.9999879 
    4  1540     4  1.6274970 -0.0012366  0.9999921  0.0039765 -0.0039765  0.9999921 
    4  1541     1  1.6192161 -0.0011264  0.9999865  0.0051886 -0.0051886  0.9999865 
    4  1541     2  1.6143612 -0.0026140  0.9999875  0.0050091 -0.0050091  0.9999875 
    4  1541     3  1.6194108 -0.0013718  0.9999914  0.0041530 -0.0041530  0.9999914 
    4  1541     4  1.6143411 -0.0029174  0.9999920  0.0039924 -0.0039924  0.9999920 
    4  1542     1  1.6075950 -0.0028765  0.9999880  0.0048946 -0.0048946  0.9999880 
    4  1542     2  1.6077825 -0.0033890  0.9999926  0.0038467 -0.0038467  0.9999926 
    4  1542     3  1.6128659 -0.0012000  0.9999864  0.0052179 -0.0052179  0.9999864 
    4  1542     4  1.6130455 -0.0017238  0.9999914  0.0041528 -0.0041528  0.9999914 
    4  1543     1  1.6041823 -0.0014686  0.9999847  0.0055251 -0.0055251  0.9999847 
    4  1543     2  1.5987947 -0.0031968  0.9999866  0.0051692 -0.0051692  0.9999866 
    4  1543     3  1.6043830 -0.0020440  0.9999902  0.0044326 -0.0044326  0.9999902 
    4  1543     4  1.5990424 -0.0037455  0.9999916  0.0041002 -0.0041002  0.9999916 
    4  1544     1  1.6056116 -0.0020852  0.9999909  0.0042697 -0.0042697  0.9999909 
    4  1544     2  1.6053402 -0.0014233  0.9999859  0.0053097 -0.0053097  0.9999859 
    4  1544     3  1.6004601 -0.0037728  0.9999925  0.0038801 -0.0038801  0.9999925 
    4  1544     4  1.6001349 -0.0031384  0.9999880  0.0049017 -0.0049017  0.9999880 
    4  1545     1  1.6090334 -0.0034224  0.9999934  0.0036429 -0.0036429  0.9999934 
    4  1545     2  1.6141891 -0.0017558  0.9999920  0.0039994 -0.0039994  0.9999920 
    4  1545     3  1.6087732 -0.0028403  0.9999891  0.0046603 -0.0046603  0.9999891 
    4  1545     4  1.6139528 -0.0011586  0.9999873  0.0050303 -0.0050303  0.9999873 
    4  1546     1  1.6100664 -0.0027905  0.9999902  0.0044327 -0.0044327  0.9999902 
    4  1546     2  1.6103382 -0.0034496  0.9999941  0.0034431 -0.0034431  0.9999941 
    4  1546     3  1.6151565 -0.0011049  0.9999883  0.0048399 -0.0048399  0.9999883 
    4  1546     4  1.6153891 -0.0017830  0.9999926  0.0038385 -0.0038385  0.9999926 
    4  1547     1  1.6066533 -0.0013681  0.9999870  0.0050940 -0.0050940  0.9999870 
    4  1547     2  1.6015907 -0.0030759  0.9999892  0.0046491 -0.0046491  0.9999892 
    4  1547     3  1.6069325 -0.0021096  0.9999916  0.0040948 -0.0040948  0.9999916 
    4  1547     4  1.6019166 -0.0037943  0.9999933  0.0036635 -0.0036635  0.9999933 
    4  1548     1  1.6083013 -0.0021056  0.9999923  0.0039159 -0.0039159  0.9999923 
    4  1548     2  1.6080068 -0.0013212  0.9999881  0.0048775 -0.0048775  0.9999881 
    4  1548     3  1.6034178 -0.0037782  0.9999940  0.0034597 -0.0034597  0.9999940 
    4  1548     4  1.6030750 -0.0030160  0.9999903  0.0044100 -0.0044100  0.9999903 
    4  1549     1  1.6116823 -0.0034483  0.9999947  0.0032534 -0.0032534  0.9999947 
    4  1549     2  1.6166225 -0.0017901  0.9999932  0.0036746 -0.0036746  0.9999932 
    4  1549     3  1.6113935 -0.0027431  0.9999911  0.0042140 -0.0042140  0.9999911 
    4  1549     4  1.6163757 -0.0010655  0.9999892  0.0046456 -0.0046456  0.9999892 
    4  1550     1  1.6127528 -0.0026907  0.9999920  0.0040036 -0.0040036  0.9999920 
    4  1550     2  1.6130506 -0.0034353  0.9999953  0.0030707 -0.0030707  0.9999953 
    4  1550     3  1.6176268 -0.0010241  0.9999901  0.0044538 -0.0044538  0.9999901 
    4  1550     4  1.6178815 -0.0017878  0.9999938  0.0035116 -0.0035116  0.9999938 
    4  1551     1  1.6093963 -0.0012739  0.9999891  0.0046667 -0.0046667  0.9999891 
    4  1551     2  1.6045787 -0.0029559  0.9999913  0.0041832 -0.0041832  0.9999913 
    4  1551     3  1.6096983 -0.0020907  0.9999930  0.0037362 -0.0037362  0.9999930 
    4  1551     4  1.6049230 -0.0037534  0.9999947  0.0032620 -0.0032620  0.9999947 
    4  1552     1  1.6111175 -0.0020642  0.9999937  0.0035596 -0.0035596  0.9999937 
    4  1552     2  1.6108021 -0.0012266  0.9999901  0.0044600 -0.0044600  0.9999901 
    4  1552     3  1.6064565 -0.0037113  0.9999953  0.0030734 -0.0030734  0.9999953 
    4  1552     4  1.6060973 -0.0028939  0.9999921  0.0039642 -0.0039642  0.9999921 
    4  1553     1  1.6144424 -0.0034058  0.9999958  0.0028952 -0.0028952  0.9999958 
    4  1553     2  1.6191682 -0.0017720  0.9999944  0.0033499 -0.0033499  0.9999944 
    4  1553     3  1.6141302 -0.0026393  0.9999928  0.0038002 -0.0038002  0.9999928 
    4  1553     4  1.6188969 -0.0009873  0.9999909  0.0042635 -0.0042635  0.9999909 
    4  1554     1  1.6313905 -0.0021417  0.9999946  0.0032866 -0.0032866  0.9999946 
    4  1554     2  1.6316571 -0.0028060  0.9999972  0.0023848 -0.0023848  0.9999972 
    4  1554     3  1.6361722 -0.0005356  0.9999932  0.0036913 -0.0036913  0.9999932 
    4  1554     4  1.6364018 -0.0012144  0.9999961  0.0027835 -0.0027835  0.9999961 
    4  1555     1  1.6281799 -0.0007427  0.9999925  0.0038845 -0.0038845  0.9999925 
    4  1555     2  1.6234536 -0.0023607  0.9999941  0.0034486 -0.0034486  0.9999941 
    4  1555     3  1.6284488 -0.0014703  0.9999955  0.0029872 -0.0029872  0.9999955 
    4  1555     4  1.6237611 -0.0030721  0.9999967  0.0025583 -0.0025583  0.9999967 
    4  1556     1  1.6296943 -0.0014523  0.9999960  0.0028420 -0.0028420  0.9999960 
    4  1556     2  1.6294164 -0.0007113  0.9999931  0.0037137 -0.0037137  0.9999931 
    4  1556     3  1.6251062 -0.0030369  0.9999971  0.0024050 -0.0024050  0.9999971 
    4  1556     4  1.6247857 -0.0023131  0.9999947  0.0032695 -0.0032695  0.9999947 
    4  1557     1  1.6328709 -0.0027766  0.9999975  0.0022428 -0.0022428  0.9999975 
    4  1557     2  1.6375322 -0.0011994  0.9999965  0.0026498 -0.0026498  0.9999965 
    4  1557     3  1.6325947 -0.0021005  0.9999951  0.0031216 -0.0031216  0.9999951 
    4  1557     4  1.6372930 -0.0005087  0.9999938  0.0035346 -0.0035346  0.9999938 
    4  1558     1  1.6155537 -0.0025873  0.9999935  0.0036027 -0.0036027  0.9999935 
    4  1558     2  1.6159063 -0.0033586  0.9999963  0.0027282 -0.0027282  0.9999963 
    4  1558     3  1.6201972 -0.0009570  0.9999917  0.0040746 -0.0040746  0.9999917 
    4  1558     4  1.6205041 -0.0017484  0.9999949  0.0031910 -0.0031910  0.9999949 
    4  1559     1  1.6122321 -0.0011900  0.9999909  0.0042555 -0.0042555  0.9999909 
    4  1559     2  1.6076603 -0.0028337  0.9999930  0.0037524 -0.0037524  0.9999930 
    4  1559     3  1.6125888 -0.0020303  0.9999943  0.0033876 -0.0033876  0.9999943 
    4  1559     4  1.6080593 -0.0036539  0.9999958  0.0028941 -0.0028941  0.9999958 
    4  1560     1  1.6141105 -0.0019991  0.9999948  0.0032201 -0.0032201  0.9999948 
    4  1560     2  1.6137378 -0.0011468  0.9999918  0.0040577 -0.0040577  0.9999918 
    4  1560     3  1.6097044 -0.0036029  0.9999963  0.0027187 -0.0027187  0.9999963 
    4  1560     4  1.6092860 -0.0027730  0.9999937  0.0035456 -0.0035456  0.9999937 
    4  1561     1  1.6173995 -0.0033169  0.9999967  0.0025635 -0.0025635  0.9999967 
    4  1561     2  1.6218782 -0.0017265  0.9999954  0.0030350 -0.0030350  0.9999954 
    4  1561     3  1.6170332 -0.0025309  0.9999942  0.0034087 -0.0034087  0.9999942 
    4  1561     4  1.6215591 -0.0009195  0.9999924  0.0038896 -0.0038896  0.9999924 
    4  1562     1  1.5998105 -0.0030859  0.9999924  0.0038921 -0.0038921  0.9999924 
    4  1562     2  1.6002541 -0.0039644  0.9999953  0.0030539 -0.0030539  0.9999953 
    4  1562     3  1.6042804 -0.0014313  0.9999902  0.0044276 -0.0044276  0.9999902 
    4  1562     4  1.6046788 -0.0023327  0.9999936  0.0035783 -0.0035783  0.9999936 
    4  1563     1  1.5963598 -0.0016976  0.9999895  0.0045873 -0.0045873  0.9999895 
    4  1563     2  1.5919719 -0.0033606  0.9999919  0.0040278 -0.0040278  0.9999919 
    4  1563     3  1.5968044 -0.0026395  0.9999929  0.0037568 -0.0037568  0.9999929 
    4  1563     4  1.5924473 -0.0042856  0.9999949  0.0032059 -0.0032059  0.9999949 
    4  1564     1  1.5986193 -0.0025854  0.9999937  0.0035597 -0.0035597  0.9999937 
    4  1564     2  1.5981504 -0.0016286  0.9999905  0.0043591 -0.0043591  0.9999905 
    4  1564     3  1.5943837 -0.0042161  0.9999955  0.0030013 -0.0030013  0.9999955 
    4  1564     4  1.5938834 -0.0032799  0.9999928  0.0037896 -0.0037896  0.9999928 
    4  1565     1  1.6020569 -0.0039064  0.9999959  0.0028650 -0.0028650  0.9999959 
    4  1565     2  1.6063428 -0.0022937  0.9999942  0.0033987 -0.0033987  0.9999942 
    4  1565     3  1.6015944 -0.0030092  0.9999933  0.0036690 -0.0036690  0.9999933 
    4  1565     4  1.6059265 -0.0013706  0.9999911  0.0042157 -0.0042157  0.9999911 
    4  1566     1  1.6152765 -0.0011265  0.9999926  0.0038538 -0.0038538  0.9999926 
    4  1566     2  1.6110068 -0.0027146  0.9999944  0.0033394 -0.0033394  0.9999944 
    4  1566     3  1.6157087 -0.0019668  0.9999953  0.0030578 -0.0030578  0.9999953 
    4  1566     4  1.6114947 -0.0035271  0.9999967  0.0025565 -0.0025565  0.9999967 
    4  1567     1  1.6173695 -0.0019542  0.9999958  0.0028953 -0.0028953  0.9999958 
    4  1567     2  1.6169316 -0.0011032  0.9999934  0.0036449 -0.0036449  0.9999934 
    4  1567     3  1.6133819 -0.0034651  0.9999971  0.0023939 -0.0023939  0.9999971 
    4  1567     4  1.6128691 -0.0026524  0.9999951  0.0031257 -0.0031257  0.9999951 
    4  1568     1  1.6205980 -0.0031933  0.9999975  0.0022531 -0.0022531  0.9999975 
    4  1568     2  1.6247572 -0.0016765  0.9999963  0.0027258 -0.0027258  0.9999963 
    4  1568     3  1.6201712 -0.0024046  0.9999954  0.0030331 -0.0030331  0.9999954 
    4  1568     4  1.6244069 -0.0008592  0.9999938  0.0035155 -0.0035155  0.9999938 
    4  1569     1  1.6185734 -0.0024762  0.9999948  0.0032194 -0.0032194  0.9999948 
    4  1569     2  1.6189953 -0.0032511  0.9999971  0.0024089 -0.0024089  0.9999971 
    4  1569     3  1.6229463 -0.0008996  0.9999931  0.0037015 -0.0037015  0.9999931 
    4  1569     4  1.6233080 -0.0016998  0.9999959  0.0028807 -0.0028807  0.9999959 
    4  1570     1  1.6061343 -0.0037649  0.9999968  0.0025281 -0.0025281  0.9999968 
    4  1570     2  1.6100009 -0.0022239  0.9999953  0.0030719 -0.0030719  0.9999953 
    4  1570     3  1.6055540 -0.0028728  0.9999948  0.0032292 -0.0032292  0.9999948 
    4  1570     4  1.6094769 -0.0012904  0.9999928  0.0037946 -0.0037946  0.9999928 
    4  1571     1  1.6034867 -0.0029407  0.9999941  0.0034487 -0.0034487  0.9999941 
    4  1571     2  1.6040210 -0.0038272  0.9999964  0.0026923 -0.0026923  0.9999964 
    4  1571     3  1.6076205 -0.0013366  0.9999920  0.0040007 -0.0040007  0.9999920 
    4  1571     4  1.6081080 -0.0022525  0.9999948  0.0032291 -0.0032291  0.9999948 
    4  1572     1  1.6000009 -0.0015718  0.9999915  0.0041267 -0.0041267  0.9999915 
    4  1572     2  1.5959234 -0.0031964  0.9999937  0.0035495 -0.0035495  0.9999937 
    4  1572     3  1.6005449 -0.0025277  0.9999943  0.0033736 -0.0033736  0.9999943 
    4  1572     4  1.5965024 -0.0041255  0.9999960  0.0028111 -0.0028111  0.9999960 
    4  1573     1  1.6026156 -0.0024698  0.9999949  0.0032020 -0.0032020  0.9999949 
    4  1573     2  1.6020262 -0.0014697  0.9999924  0.0039047 -0.0039047  0.9999924 
    4  1573     3  1.5987529 -0.0040621  0.9999966  0.0026209 -0.0026209  0.9999966 
    4  1573     4  1.5981417 -0.0030906  0.9999945  0.0033073 -0.0033073  0.9999945 
    4  1574     1  1.6042142 -0.0014169  0.9999931  0.0037134 -0.0037134  0.9999931 
    4  1574     2  1.6005367 -0.0030305  0.9999952  0.0031008 -0.0031008  0.9999952 
    4  1574     3  1.6049719 -0.0023823  0.9999953  0.0030647 -0.0030647  0.9999953 
    4  1574     4  1.6012886 -0.0039664  0.9999969  0.0024710 -0.0024710  0.9999969 
    4  1575     1  1.6074431 -0.0023309  0.9999958  0.0028948 -0.0028948  0.9999958 
    4  1575     2  1.6067576 -0.0009296  0.9999946  0.0032713 -0.0032713  0.9999946 
    4  1575     3  1.6047238 -0.0039314  0.9999975  0.0022539 -0.0022539  0.9999975 
    4  1575     4  1.6042253 -0.0027112  0.9999967  0.0025869 -0.0025869  0.9999967 
    4  1576     1  1.6117927 -0.0035531  0.9999974  0.0022977 -0.0022977  0.9999974 
    4  1576     2  1.6141276 -0.0023029  0.9999961  0.0027980 -0.0027980  0.9999961 
    4  1576     3  1.6112465 -0.0025661  0.9999966  0.0026153 -0.0026153  0.9999966 
    4  1576     4  1.6137728 -0.0011604  0.9999950  0.0031751 -0.0031751  0.9999950 
    4  1577     1  1.6080288 -0.0027739  0.9999956  0.0029621 -0.0029621  0.9999956 
    4  1577     2  1.6086617 -0.0036727  0.9999972  0.0023861 -0.0023861  0.9999972 
    4  1577     3  1.6114540 -0.0012559  0.9999937  0.0035385 -0.0035385  0.9999937 
    4  1577     4  1.6120288 -0.0022261  0.9999957  0.0029257 -0.0029257  0.9999957 
    4  1578     1  1.6186177 -0.0010597  0.9999942  0.0034114 -0.0034114  0.9999942 
    4  1578     2  1.6148894 -0.0025423  0.9999958  0.0028917 -0.0028917  0.9999958 
    4  1578     3  1.6190561 -0.0019439  0.9999962  0.0027387 -0.0027387  0.9999962 
    4  1578     4  1.6154568 -0.0033644  0.9999975  0.0022449 -0.0022449  0.9999975 
    4  1579     1  1.6206968 -0.0018917  0.9999966  0.0025952 -0.0025952  0.9999966 
    4  1579     2  1.6202944 -0.0010412  0.9999948  0.0032349 -0.0032349  0.9999948 
    4  1579     3  1.6172806 -0.0032557  0.9999978  0.0021162 -0.0021162  0.9999978 
    4  1579     4  1.6166944 -0.0024697  0.9999963  0.0027357 -0.0027357  0.9999963 
    4  1580     1  1.6235974 -0.0030150  0.9999980  0.0020201 -0.0020201  0.9999980 
    4  1580     2  1.6274532 -0.0016388  0.9999970  0.0024317 -0.0024317  0.9999970 
    4  1580     3  1.6231660 -0.0023624  0.9999962  0.0027661 -0.0027661  0.9999962 
    4  1580     4  1.6271690 -0.0009416  0.9999949  0.0031860 -0.0031860  0.9999949 
    4  1581     1  1.6217105 -0.0023813  0.9999959  0.0028747 -0.0028747  0.9999959 
    4  1581     2  1.6221782 -0.0030955  0.9999978  0.0021186 -0.0021186  0.9999978 
    4  1581     3  1.6258090 -0.0008999  0.9999945  0.0033290 -0.0033290  0.9999945 
    4  1581     4  1.6261573 -0.0016525  0.9999967  0.0025637 -0.0025637  0.9999967 
    4  1582     1  1.6245947 -0.0023353  0.9999966  0.0026266 -0.0026266  0.9999966 
    4  1582     2  1.6250040 -0.0029158  0.9999981  0.0019321 -0.0019321  0.9999981 
    4  1582     3  1.6283058 -0.0010154  0.9999954  0.0030191 -0.0030191  0.9999954 
    4  1582     4  1.6285641 -0.0016566  0.9999974  0.0023012 -0.0023012  0.9999974 
    4  1583     1  1.6218334 -0.0012138  0.9999951  0.0031391 -0.0031391  0.9999951 
    4  1583     2  1.6182579 -0.0025130  0.9999963  0.0027350 -0.0027350  0.9999963 
    4  1583     3  1.6222938 -0.0018069  0.9999969  0.0024782 -0.0024782  0.9999969 
    4  1583     4  1.6188259 -0.0030905  0.9999979  0.0020647 -0.0020647  0.9999979 
    4  1584     1  1.6237115 -0.0017618  0.9999974  0.0022993 -0.0022993  0.9999974 
    4  1584     2  1.6231586 -0.0009451  0.9999956  0.0029671 -0.0029671  0.9999956 
    4  1584     3  1.6202645 -0.0031182  0.9999983  0.0018305 -0.0018305  0.9999983 
    4  1584     4  1.6199474 -0.0023319  0.9999970  0.0024414 -0.0024414  0.9999970 
    4  1585     1  1.6268018 -0.0028314  0.9999984  0.0018048 -0.0018048  0.9999984 
    4  1585     2  1.6295742 -0.0017626  0.9999977  0.0021659 -0.0021659  0.9999977 
    4  1585     3  1.6264088 -0.0021350  0.9999973  0.0023225 -0.0023225  0.9999973 
    4  1585     4  1.6294309 -0.0009530  0.9999963  0.0027278 -0.0027278  0.9999963 
    4  1586     1  1.6135415 -0.0032525  0.9999978  0.0021146 -0.0021146  0.9999978 
    4  1586     2  1.6180862 -0.0018591  0.9999973  0.0023033 -0.0023033  0.9999973 
    4  1586     3  1.6144029 -0.0027924  0.9999953  0.0030587 -0.0030587  0.9999953 
    4  1586     4  1.6177845 -0.0017932  0.9999954  0.0030244 -0.0030244  0.9999954 
    4  1587     1  1.6130586 -0.0026354  0.9999967  0.0025495 -0.0025495  0.9999967 
    4  1587     2  1.6139747 -0.0033743  0.9999976  0.0021932 -0.0021932  0.9999976 
    4  1587     3  1.6158671 -0.0013957  0.9999954  0.0030268 -0.0030268  0.9999954 
    4  1587     4  1.6162403 -0.0022459  0.9999965  0.0026354 -0.0026354  0.9999965 
    4  1588     1  1.6110848 -0.0010759  0.9999969  0.0024842 -0.0024842  0.9999969 
    4  1588     2  1.6112739 -0.0026533  0.9999967  0.0025606 -0.0025606  0.9999967 
    4  1588     3  1.6096570 -0.0027517  0.9999955  0.0030024 -0.0030024  0.9999955 
    4  1588     4  1.6101408 -0.0035385  0.9999957  0.0029357 -0.0029357  0.9999957 
    4  1589     1  1.6272253 -0.0022481  0.9999973  0.0023225 -0.0023225  0.9999973 
    4  1589     2  1.6278756 -0.0026494  0.9999985  0.0017536 -0.0017536  0.9999985 
    4  1589     3  1.6303706 -0.0012231  0.9999967  0.0025600 -0.0025600  0.9999967 
    4  1589     4  1.6304667 -0.0017279  0.9999979  0.0020269 -0.0020269  0.9999979 
    4  1590     1  1.6251867 -0.0008944  0.9999973  0.0023389 -0.0023389  0.9999973 
    4  1590     2  1.6244710 -0.0022351  0.9999980  0.0020230 -0.0020230  0.9999980 
    4  1590     3  1.6250517 -0.0021476  0.9999971  0.0024229 -0.0024229  0.9999971 
    4  1590     4  1.6245358 -0.0028749  0.9999977  0.0021611 -0.0021611  0.9999977 
    4  1591     1  1.6269040 -0.0025934  0.9999981  0.0019536 -0.0019536  0.9999981 
    4  1591     2  1.6305164 -0.0014700  0.9999984  0.0017741 -0.0017741  0.9999984 
    4  1591     3  1.6281852 -0.0026772  0.9999966  0.0026254 -0.0026254  0.9999966 
    4  1591     4  1.6307463 -0.0017814  0.9999972  0.0023468 -0.0023468  0.9999972 
    4  1592     1  1.6263632 -0.0029277  0.9999970  0.0024587 -0.0024587  0.9999970 
    4  1592     2  1.6257437 -0.0020110  0.9999976  0.0022044 -0.0022044  0.9999976 
    4  1592     3  1.6284201 -0.0017553  0.9999980  0.0019944 -0.0019944  0.9999980 
    4  1592     4  1.6276337 -0.0009727  0.9999984  0.0017896 -0.0017896  0.9999984 
    4  1593     1  1.6230960 -0.0017113  0.9999974  0.0022963 -0.0022963  0.9999974 
    4  1593     2  1.6201567 -0.0030255  0.9999961  0.0027934 -0.0027934  0.9999961 
    4  1593     3  1.6220586 -0.0009157  0.9999984  0.0017664 -0.0017664  0.9999984 
    4  1593     4  1.6193969 -0.0022834  0.9999973  0.0023165 -0.0023165  0.9999973 
    4  1594     1  1.6202799 -0.0012666  0.9999986  0.0016452 -0.0016452  0.9999986 
    4  1594     2  1.6210825 -0.0018842  0.9999975  0.0022400 -0.0022400  0.9999975 
    4  1594     3  1.6172462 -0.0024506  0.9999979  0.0020523 -0.0020523  0.9999979 
    4  1594     4  1.6179198 -0.0030904  0.9999965  0.0026428 -0.0026428  0.9999965 
    4  1595     1  1.6230167 -0.0021905  0.9999979  0.0020715 -0.0020715  0.9999979 
    4  1595     2  1.6253345 -0.0011420  0.9999986  0.0016719 -0.0016719  0.9999986 
    4  1595     3  1.6235799 -0.0027984  0.9999969  0.0024828 -0.0024828  0.9999969 
    4  1595     4  1.6259747 -0.0018129  0.9999977  0.0021279 -0.0021279  0.9999977 
    4  1596     1  1.6111188 -0.0027580  0.9999978  0.0020862 -0.0020862  0.9999978 
    4  1596     2  1.6145038 -0.0015701  0.9999985  0.0017391 -0.0017391  0.9999985 
    4  1596     3  1.6116803 -0.0032590  0.9999961  0.0028091 -0.0028091  0.9999961 
    4  1596     4  1.6152732 -0.0020183  0.9999970  0.0024636 -0.0024636  0.9999970 
    4  1597     1  1.6137028 -0.0033027  0.9999957  0.0029446 -0.0029446  0.9999957 
    4  1597     2  1.6129489 -0.0025768  0.9999975  0.0022206 -0.0022206  0.9999975 
    4  1597     3  1.6173870 -0.0019589  0.9999968  0.0025232 -0.0025232  0.9999968 
    4  1597     4  1.6164448 -0.0013660  0.9999982  0.0018726 -0.0018726  0.9999982 
    4  1598     1  1.6102564 -0.0017866  0.9999958  0.0028846 -0.0028846  0.9999958 
    4  1598     2  1.6054444 -0.0032911  0.9999951  0.0031378 -0.0031378  0.9999951 
    4  1598     3  1.6093047 -0.0016513  0.9999983  0.0018207 -0.0018207  0.9999983 
    4  1598     4  1.6050304 -0.0030461  0.9999976  0.0021973 -0.0021973  0.9999976 
    4  1599     1  1.6086495 -0.0019261  0.9999983  0.0018498 -0.0018498  0.9999983 
    4  1599     2  1.6092194 -0.0020554  0.9999964  0.0026914 -0.0026914  0.9999964 
    4  1599     3  1.6048258 -0.0030990  0.9999980  0.0019928 -0.0019928  0.9999980 
    4  1599     4  1.6050336 -0.0033470  0.9999959  0.0028698 -0.0028698  0.9999959 
    4  1600     1  1.6082174 -0.0023699  0.9999969  0.0024915 -0.0024915  0.9999969 
    4  1600     2  1.6047007 -0.0035245  0.9999962  0.0027607 -0.0027607  0.9999962 
    4  1600     3  1.6078477 -0.0019841  0.9999984  0.0017957 -0.0017957  0.9999984 
    4  1600     4  1.6044709 -0.0030668  0.9999980  0.0020171 -0.0020171  0.9999980 
    4  1601     1  1.6068735 -0.0019526  0.9999986  0.0016732 -0.0016732  0.9999986 
    4  1601     2  1.6072957 -0.0024140  0.9999974  0.0023001 -0.0023001  0.9999974 
    4  1601     3  1.6036469 -0.0030616  0.9999980  0.0019789 -0.0019789  0.9999980 
    4  1601     4  1.6041315 -0.0035345  0.9999965  0.0026360 -0.0026360  0.9999965 
    4  1602     1  1.6091188 -0.0028434  0.9999982  0.0018722 -0.0018722  0.9999982 
    4  1602     2  1.6124117 -0.0016900  0.9999988  0.0015390 -0.0015390  0.9999988 
    4  1602     3  1.6095469 -0.0034008  0.9999967  0.0025515 -0.0025515  0.9999967 
    4  1602     4  1.6128266 -0.0022407  0.9999976  0.0022082 -0.0022082  0.9999976 
    4  1603     1  1.6104829 -0.0033565  0.9999964  0.0026648 -0.0026648  0.9999964 
    4  1603     2  1.6100677 -0.0028075  0.9999981  0.0019590 -0.0019590  0.9999981 
    4  1603     3  1.6138998 -0.0021728  0.9999973  0.0023325 -0.0023325  0.9999973 
    4  1603     4  1.6134046 -0.0016570  0.9999987  0.0016403 -0.0016403  0.9999987 
    4  1604     1  1.6195250 -0.0019866  0.9999976  0.0022034 -0.0022034  0.9999976 
    4  1604     2  1.6162615 -0.0031384  0.9999968  0.0025406 -0.0025406  0.9999968 
    4  1604     3  1.6190138 -0.0014392  0.9999988  0.0015370 -0.0015370  0.9999988 
    4  1604     4  1.6157741 -0.0025997  0.9999982  0.0018889 -0.0018889  0.9999982 
    4  1605     1  1.6181021 -0.0015042  0.9999990  0.0014265 -0.0014265  0.9999990 
    4  1605     2  1.6184966 -0.0020363  0.9999978  0.0021189 -0.0021189  0.9999978 
    4  1605     3  1.6147222 -0.0026731  0.9999985  0.0017526 -0.0017526  0.9999985 
    4  1605     4  1.6151495 -0.0031938  0.9999970  0.0024416 -0.0024416  0.9999970 
    4  1606     1  1.6204198 -0.0024965  0.9999987  0.0016178 -0.0016178  0.9999987 
    4  1606     2  1.6238741 -0.0013367  0.9999991  0.0013240 -0.0013240  0.9999991 
    4  1606     3  1.6207983 -0.0029752  0.9999973  0.0023300 -0.0023300  0.9999973 
    4  1606     4  1.6241528 -0.0018496  0.9999979  0.0020459 -0.0020459  0.9999979 
    4  1607     1  1.6218178 -0.0028752  0.9999971  0.0024119 -0.0024119  0.9999971 
    4  1607     2  1.6213550 -0.0024298  0.9999984  0.0017880 -0.0017880  0.9999984 
    4  1607     3  1.6248529 -0.0018343  0.9999977  0.0021298 -0.0021298  0.9999977 
    4  1607     4  1.6244881 -0.0013307  0.9999989  0.0014694 -0.0014694  0.9999989 
    4  1608     1  1.6176587 -0.0020624  0.9999980  0.0020222 -0.0020222  0.9999980 
    4  1608     2  1.6142020 -0.0032685  0.9999972  0.0023663 -0.0023663  0.9999972 
    4  1608     3  1.6173804 -0.0014517  0.9999991  0.0013115 -0.0013115  0.9999991 
    4  1608     4  1.6138772 -0.0026702  0.9999986  0.0016564 -0.0016564  0.9999986 
    4  1609     1  1.6166727 -0.0014142  0.9999993  0.0012007 -0.0012007  0.9999993 
    4  1609     2  1.6169294 -0.0020846  0.9999982  0.0019204 -0.0019204  0.9999982 
    4  1609     3  1.6131165 -0.0026668  0.9999988  0.0015663 -0.0015663  0.9999988 
    4  1609     4  1.6134121 -0.0033278  0.9999974  0.0022861 -0.0022861  0.9999974 
    4  1610     1  1.6190346 -0.0024841  0.9999990  0.0014335 -0.0014335  0.9999990 
    4  1610     2  1.6226312 -0.0012447  0.9999994  0.0010924 -0.0010924  0.9999994 
    4  1610     3  1.6192977 -0.0031159  0.9999976  0.0021773 -0.0021773  0.9999976 
    4  1610     4  1.6228694 -0.0018781  0.9999983  0.0018314 -0.0018314  0.9999983 
    4  1611     1  1.6199902 -0.0030752  0.9999974  0.0022595 -0.0022595  0.9999974 
    4  1611     2  1.6197086 -0.0025187  0.9999989  0.0015163 -0.0015163  0.9999989 
    4  1611     3  1.6235213 -0.0018764  0.9999981  0.0019441 -0.0019441  0.9999981 
    4  1611     4  1.6232932 -0.0013097  0.9999993  0.0012053 -0.0012053  0.9999993 
    4  1612     1  1.6073023 -0.0028294  0.9999985  0.0017304 -0.0017304  0.9999985 
    4  1612     2  1.6107482 -0.0015540  0.9999991  0.0013196 -0.0013196  0.9999991 
    4  1612     3  1.6076422 -0.0035724  0.9999971  0.0024119 -0.0024119  0.9999971 
    4  1612     4  1.6110268 -0.0023186  0.9999980  0.0020079 -0.0020079  0.9999980 
    4  1613     1  1.6085714 -0.0034834  0.9999969  0.0024839 -0.0024839  0.9999969 
    4  1613     2  1.6081939 -0.0028198  0.9999984  0.0018107 -0.0018107  0.9999984 
    4  1613     3  1.6118738 -0.0022777  0.9999978  0.0021045 -0.0021045  0.9999978 
    4  1613     4  1.6115611 -0.0015985  0.9999990  0.0014308 -0.0014308  0.9999990 
    4  1614     1  1.6062329 -0.0025011  0.9999976  0.0021967 -0.0021967  0.9999976 
    4  1614     2  1.6031358 -0.0037152  0.9999966  0.0026189 -0.0026189  0.9999966 
    4  1614     3  1.6058749 -0.0017299  0.9999987  0.0015888 -0.0015888  0.9999987 
    4  1614     4  1.6026495 -0.0029789  0.9999980  0.0020177 -0.0020177  0.9999980 
    4  1615     1  1.6048738 -0.0017184  0.9999989  0.0014594 -0.0014594  0.9999989 
    4  1615     2  1.6052065 -0.0025634  0.9999978  0.0020988 -0.0020988  0.9999978 
    4  1615     3  1.6015585 -0.0030252  0.9999982  0.0019171 -0.0019171  0.9999982 
    4  1615     4  1.6019792 -0.0038261  0.9999968  0.0025374 -0.0025374  0.9999968 
    4  1616     1  1.6042658 -0.0025830  0.9999980  0.0019961 -0.0019961  0.9999980 
    4  1616     2  1.6007327 -0.0039078  0.9999970  0.0024328 -0.0024328  0.9999970 
    4  1616     3  1.6040062 -0.0017466  0.9999992  0.0012867 -0.0012867  0.9999992 
    4  1616     4  1.6004310 -0.0031002  0.9999985  0.0017392 -0.0017392  0.9999985 
    4  1617     1  1.6032911 -0.0017699  0.9999994  0.0011359 -0.0011359  0.9999994 
    4  1617     2  1.6034861 -0.0025860  0.9999982  0.0018899 -0.0018899  0.9999982 
    4  1617     3  1.5995506 -0.0031373  0.9999988  0.0015693 -0.0015693  0.9999988 
    4  1617     4  1.5997794 -0.0039297  0.9999973  0.0023093 -0.0023093  0.9999973 
    4  1618     1  1.6057651 -0.0028939  0.9999989  0.0014545 -0.0014545  0.9999989 
    4  1618     2  1.6094602 -0.0015621  0.9999995  0.0010446 -0.0010446  0.9999995 
    4  1618     3  1.6059423 -0.0036719  0.9999976  0.0021948 -0.0021948  0.9999976 
    4  1618     4  1.6096083 -0.0023576  0.9999984  0.0017948 -0.0017948  0.9999984 
    4  1619     1  1.6067260 -0.0036420  0.9999973  0.0023144 -0.0023144  0.9999973 
    4  1619     2  1.6064869 -0.0028540  0.9999987  0.0016077 -0.0016077  0.9999987 
    4  1619     3  1.6102537 -0.0023481  0.9999982  0.0019038 -0.0019038  0.9999982 
    4  1619     4  1.6100634 -0.0015356  0.9999993  0.0011857 -0.0011857  0.9999993 
    4  1620     1  1.5931812 -0.0033867  0.9999986  0.0016849 -0.0016849  0.9999986 
    4  1620     2  1.5969767 -0.0019789  0.9999992  0.0012260 -0.0012260  0.9999992 
    4  1620     3  1.5934659 -0.0042010  0.9999970  0.0024316 -0.0024316  0.9999970 
    4  1620     4  1.5972297 -0.0028197  0.9999980  0.0019894 -0.0019894  0.9999980 
    4  1621     1  1.5945886 -0.0041832  0.9999967  0.0025526 -0.0025526  0.9999967 
    4  1621     2  1.5942152 -0.0033415  0.9999983  0.0018589 -0.0018589  0.9999983 
    4  1621     3  1.5981562 -0.0028147  0.9999978  0.0020860 -0.0020860  0.9999978 
    4  1621     4  1.5978246 -0.0019359  0.9999991  0.0013706 -0.0013706  0.9999991 
    4  1622     1  1.5918781 -0.0030228  0.9999976  0.0022029 -0.0022029  0.9999976 
    4  1622     2  1.5881807 -0.0044464  0.9999964  0.0026924 -0.0026924  0.9999964 
    4  1622     3  1.5914610 -0.0021410  0.9999989  0.0014713 -0.0014713  0.9999989 
    4  1622     4  1.5877560 -0.0035895  0.9999980  0.0019787 -0.0019787  0.9999980 
    4  1623     1  1.5905061 -0.0021984  0.9999991  0.0013333 -0.0013333  0.9999991 
    4  1623     2  1.5908220 -0.0030506  0.9999978  0.0021048 -0.0021048  0.9999978 
    4  1623     3  1.5866338 -0.0036443  0.9999984  0.0018113 -0.0018113  0.9999984 
    4  1623     4  1.5869843 -0.0044692  0.9999967  0.0025661 -0.0025661  0.9999967 
    4  1624     1  1.6162371 -0.0021096  0.9999984  0.0018103 -0.0018103  0.9999984 
    4  1624     2  1.6126378 -0.0033900  0.9999976  0.0021923 -0.0021923  0.9999976 
    4  1624     3  1.6160655 -0.0013686  0.9999994  0.0010791 -0.0010791  0.9999994 
    4  1624     4  1.6124430 -0.0026575  0.9999989  0.0014640 -0.0014640  0.9999989 
    4  1625     1  1.6155266 -0.0013702  0.9999995  0.0009531 -0.0009531  0.9999995 
    4  1625     2  1.6156576 -0.0021252  0.9999986  0.0017026 -0.0017026  0.9999986 
    4  1625     3  1.6118517 -0.0026700  0.9999991  0.0013364 -0.0013364  0.9999991 
    4  1625     4  1.6119972 -0.0034156  0.9999978  0.0020801 -0.0020801  0.9999978 
    4  1626     1  1.6178743 -0.0024667  0.9999992  0.0012300 -0.0012300  0.9999992 
    4  1626     2  1.6215196 -0.0011856  0.9999996  0.0008590 -0.0008590  0.9999996 
    4  1626     3  1.6180043 -0.0032004  0.9999981  0.0019738 -0.0019738  0.9999981 
    4  1626     4  1.6216460 -0.0019225  0.9999987  0.0016052 -0.0016052  0.9999987 
    4  1627     1  1.6185963 -0.0031760  0.9999978  0.0020796 -0.0020796  0.9999978 
    4  1627     2  1.6184228 -0.0024514  0.9999991  0.0013397 -0.0013397  0.9999991 
    4  1627     3  1.6222213 -0.0018989  0.9999985  0.0017079 -0.0017079  0.9999985 
    4  1627     4  1.6220522 -0.0011753  0.9999995  0.0009699 -0.0009699  0.9999995 
    4  1628     1  1.6287229 -0.0010298  0.9999995  0.0009688 -0.0009688  0.9999995 
    4  1628     2  1.6290342 -0.0016406  0.9999985  0.0017235 -0.0017235  0.9999985 
    4  1628     3  1.6250187 -0.0022846  0.9999992  0.0012955 -0.0012955  0.9999992 
    4  1628     4  1.6252871 -0.0029259  0.9999979  0.0020710 -0.0020710  0.9999979 
    4  1629     1  1.6311370 -0.0020751  0.9999992  0.0012477 -0.0012477  0.9999992 
    4  1629     2  1.6346732 -0.0008201  0.9999996  0.0008787 -0.0008787  0.9999996 
    4  1629     3  1.6314579 -0.0027547  0.9999980  0.0019812 -0.0019812  0.9999980 
    4  1629     4  1.6350621 -0.0014774  0.9999987  0.0016071 -0.0016071  0.9999987 
    4  1630     1  1.6322482 -0.0028605  0.9999978  0.0020775 -0.0020775  0.9999978 
    4  1630     2  1.6319608 -0.0021326  0.9999993  0.0011753 -0.0011753  0.9999993 
    4  1630     3  1.6365333 -0.0014030  0.9999986  0.0016951 -0.0016951  0.9999986 
    4  1630     4  1.6359265 -0.0008602  0.9999996  0.0009071 -0.0009071  0.9999996 
    4  1631     1  1.6296244 -0.0016308  0.9999982  0.0019107 -0.0019107  0.9999982 
    4  1631     2  1.6259028 -0.0028334  0.9999977  0.0021674 -0.0021674  0.9999977 
    4  1631     3  1.6294214 -0.0012320  0.9999994  0.0011326 -0.0011326  0.9999994 
    4  1631     4  1.6256319 -0.0024420  0.9999991  0.0013695 -0.0013695  0.9999991 
    4  1632     1  1.6305930 -0.0027871  0.9999982  0.0018736 -0.0018736  0.9999982 
    4  1632     2  1.6303741 -0.0020810  0.9999993  0.0011515 -0.0011515  0.9999993 
    4  1632     3  1.6341773 -0.0015186  0.9999989  0.0015033 -0.0015033  0.9999989 
    4  1632     4  1.6339196 -0.0008246  0.9999997  0.0007834 -0.0007834  0.9999997 
    4  1633     1  1.6282331 -0.0016898  0.9999987  0.0016144 -0.0016144  0.9999987 
    4  1633     2  1.6245828 -0.0029590  0.9999981  0.0019708 -0.0019708  0.9999981 
    4  1633     3  1.6280182 -0.0010229  0.9999996  0.0008776 -0.0008776  0.9999996 
    4  1633     4  1.6243901 -0.0022824  0.9999992  0.0012300 -0.0012300  0.9999992 
    4  1634     1  1.6274435 -0.0010319  0.9999997  0.0007778 -0.0007778  0.9999997 
    4  1634     2  1.6276037 -0.0017160  0.9999988  0.0015171 -0.0015171  0.9999988 
    4  1634     3  1.6238301 -0.0022863  0.9999994  0.0011290 -0.0011290  0.9999994 
    4  1634     4  1.6239736 -0.0029739  0.9999983  0.0018673 -0.0018673  0.9999983 
    4  1635     1  1.6297488 -0.0021005  0.9999994  0.0010510 -0.0010510  0.9999994 
    4  1635     2  1.6332948 -0.0008569  0.9999998  0.0006951 -0.0006951  0.9999998 
    4  1635     3  1.6299125 -0.0027887  0.9999984  0.0017722 -0.0017722  0.9999984 
    4  1635     4  1.6334768 -0.0015436  0.9999990  0.0014196 -0.0014196  0.9999990 
    4  1636     1  1.6400795 -0.0013366  0.9999990  0.0014006 -0.0014006  0.9999990 
    4  1636     2  1.6365518 -0.0025855  0.9999984  0.0017641 -0.0017641  0.9999984 
    4  1636     3  1.6397596 -0.0006816  0.9999998  0.0007004 -0.0007004  0.9999998 
    4  1636     4  1.6362722 -0.0019258  0.9999994  0.0010692 -0.0010692  0.9999994 
    4  1637     1  1.6390827 -0.0007321  0.9999998  0.0006256 -0.0006256  0.9999998 
    4  1637     2  1.6393102 -0.0013582  0.9999991  0.0013347 -0.0013347  0.9999991 
    4  1637     3  1.6355777 -0.0019507  0.9999995  0.0009659 -0.0009659  0.9999995 
    4  1637     4  1.6357811 -0.0025779  0.9999986  0.0016695 -0.0016695  0.9999986 
    4  1638     1  1.6413678 -0.0017881  0.9999996  0.0008993 -0.0008993  0.9999996 
    4  1638     2  1.6447788 -0.0005862  0.9999998  0.0005537 -0.0005537  0.9999998 
    4  1638     3  1.6415903 -0.0024186  0.9999988  0.0015782 -0.0015782  0.9999988 
    4  1638     4  1.6450152 -0.0012204  0.9999992  0.0012400 -0.0012400  0.9999992 
    4  1639     1  1.6424404 -0.0024222  0.9999986  0.0016620 -0.0016620  0.9999986 
    4  1639     2  1.6421331 -0.0017641  0.9999995  0.0010061 -0.0010061  0.9999995 
    4  1639     3  1.6458085 -0.0012074  0.9999992  0.0012957 -0.0012957  0.9999992 
    4  1639     4  1.6454807 -0.0005417  0.9999998  0.0006284 -0.0006284  0.9999998 
    4  1640     1  1.6387256 -0.0013736  0.9999992  0.0012578 -0.0012578  0.9999992 
    4  1640     2  1.6351743 -0.0025782  0.9999988  0.0015706 -0.0015706  0.9999988 
    4  1640     3  1.6386039 -0.0007613  0.9999999  0.0005454 -0.0005454  0.9999999 
    4  1640     4  1.6350646 -0.0019681  0.9999996  0.0008643 -0.0008643  0.9999996 
    4  1641     1  1.6382456 -0.0007973  0.9999999  0.0004626 -0.0004626  0.9999999 
    4  1641     2  1.6383087 -0.0013839  0.9999993  0.0011810 -0.0011810  0.9999993 
    4  1641     3  1.6346943 -0.0019868  0.9999997  0.0007585 -0.0007585  0.9999997 
    4  1641     4  1.6347440 -0.0025730  0.9999989  0.0014719 -0.0014719  0.9999989 
    4  1642     1  1.6404182 -0.0018266  0.9999998  0.0006988 -0.0006988  0.9999998 
    4  1642     2  1.6439200 -0.0006494  0.9999999  0.0004031 -0.0004031  0.9999999 
    4  1642     3  1.6404844 -0.0024031  0.9999990  0.0013956 -0.0013956  0.9999990 
    4  1642     4  1.6439908 -0.0012302  0.9999994  0.0011065 -0.0011065  0.9999994 
    4  1643     1  1.6409341 -0.0024129  0.9999989  0.0014879 -0.0014879  0.9999989 
    4  1643     2  1.6408173 -0.0018007  0.9999997  0.0008018 -0.0008018  0.9999997 
    4  1643     3  1.6444110 -0.0012250  0.9999993  0.0011734 -0.0011734  0.9999993 
    4  1643     4  1.6442905 -0.0006056  0.9999999  0.0004785 -0.0004785  0.9999999 
    4  1644     1  1.6514376 -0.0010513  0.9999993  0.0012207 -0.0012207  0.9999993 
    4  1644     2  1.6481418 -0.0022215  0.9999988  0.0015613 -0.0015613  0.9999988 
    4  1644     3  1.6511172 -0.0004456  0.9999998  0.0005738 -0.0005738  0.9999998 
    4  1644     4  1.6478169 -0.0016320  0.9999996  0.0009290 -0.0009290  0.9999996 
    4  1645     1  1.6504141 -0.0004885  0.9999999  0.0004979 -0.0004979  0.9999999 
    4  1645     2  1.6506711 -0.0010553  0.9999993  0.0011694 -0.0011694  0.9999993 
    4  1645     3  1.6470296 -0.0016610  0.9999997  0.0008202 -0.0008202  0.9999997 
    4  1645     4  1.6472796 -0.0022217  0.9999989  0.0014832 -0.0014832  0.9999989 
    4  1646     1  1.6526493 -0.0015239  0.9999997  0.0007545 -0.0007545  0.9999997 
    4  1646     2  1.6559820 -0.0003757  0.9999999  0.0004446 -0.0004446  0.9999999 
    4  1646     3  1.6529011 -0.0020571  0.9999990  0.0014018 -0.0014018  0.9999990 
    4  1646     4  1.6562295 -0.0009178  0.9999994  0.0011005 -0.0011005  0.9999994 
    4  1647     1  1.6537123 -0.0020550  0.9999989  0.0014734 -0.0014734  0.9999989 
    4  1647     2  1.6534078 -0.0014902  0.9999996  0.0008504 -0.0008504  0.9999996 
    4  1647     3  1.6569550 -0.0009149  0.9999993  0.0011499 -0.0011499  0.9999993 
    4  1647     4  1.6566677 -0.0003359  0.9999999  0.0005170 -0.0005170  0.9999999 
    4  1648     1  1.6615203 -0.0002918  0.9999999  0.0004005 -0.0004005  0.9999999 
    4  1648     2  1.6617770 -0.0007619  0.9999995  0.0010464 -0.0010464  0.9999995 
    4  1648     3  1.6581768 -0.0014167  0.9999998  0.0006812 -0.0006812  0.9999998 
    4  1648     4  1.6584343 -0.0018816  0.9999991  0.0013210 -0.0013210  0.9999991 
    4  1649     1  1.6636998 -0.0012914  0.9999998  0.0006177 -0.0006177  0.9999998 
    4  1649     2  1.6670249 -0.0001783  0.9999999  0.0003458 -0.0003458  0.9999999 
    4  1649     3  1.6639521 -0.0017376  0.9999992  0.0012484 -0.0012484  0.9999992 
    4  1649     4  1.6672725 -0.0006308  0.9999995  0.0009828 -0.0009828  0.9999995 
    4  1650     1  1.6646622 -0.0017285  0.9999991  0.0013143 -0.0013143  0.9999991 
    4  1650     2  1.6643756 -0.0012513  0.9999998  0.0006959 -0.0006959  0.9999998 
    4  1650     3  1.6679249 -0.0006211  0.9999995  0.0010309 -0.0010309  0.9999995 
    4  1650     4  1.6676447 -0.0001375  0.9999999  0.0004071 -0.0004071  0.9999999 
    4  1651     1  1.6624756 -0.0007526  0.9999994  0.0011000 -0.0011000  0.9999994 
    4  1651     2  1.6591879 -0.0018710  0.9999990  0.0013893 -0.0013893  0.9999990 
    4  1651     3  1.6621798 -0.0002695  0.9999999  0.0004714 -0.0004714  0.9999999 
    4  1651     4  1.6588866 -0.0013926  0.9999997  0.0007644 -0.0007644  0.9999997 
    4  1652     1  1.6543858 -0.0014748  0.9999995  0.0009605 -0.0009605  0.9999995 
    4  1652     2  1.6574332 -0.0003584  0.9999998  0.0006152 -0.0006152  0.9999998 
    4  1652     3  1.6548356 -0.0019943  0.9999988  0.0015344 -0.0015344  0.9999988 
    4  1652     4  1.6578229 -0.0009163  0.9999993  0.0012111 -0.0012111  0.9999993 
    4  1653     1  1.6563463 -0.0019272  0.9999988  0.0015517 -0.0015517  0.9999988 
    4  1653     2  1.6558529 -0.0013859  0.9999994  0.0011153 -0.0011153  0.9999994 
    4  1653     3  1.6587123 -0.0010026  0.9999992  0.0012410 -0.0012410  0.9999992 
    4  1653     4  1.6584417 -0.0003687  0.9999997  0.0007714 -0.0007714  0.9999997 
    4  1654     1  1.6536589 -0.0009723  0.9999992  0.0012653 -0.0012653  0.9999992 
    4  1654     2  1.6510080 -0.0021530  0.9999986  0.0017029 -0.0017029  0.9999986 
    4  1654     3  1.6530408 -0.0001253  0.9999997  0.0007679 -0.0007679  0.9999997 
    4  1654     4  1.6504897 -0.0014307  0.9999992  0.0012798 -0.0012798  0.9999992 
    4  1655     1  1.6519956 -0.0003948  0.9999998  0.0006535 -0.0006535  0.9999998 
    4  1655     2  1.6524767 -0.0010410  0.9999992  0.0012551 -0.0012551  0.9999992 
    4  1655     3  1.6488873 -0.0015822  0.9999995  0.0010446 -0.0010446  0.9999995 
    4  1655     4  1.6493820 -0.0022010  0.9999987  0.0016264 -0.0016264  0.9999987 
    4  1656     1  1.6629586 -0.0002311  0.9999999  0.0005476 -0.0005476  0.9999999 
    4  1656     2  1.6633314 -0.0007075  0.9999993  0.0011610 -0.0011610  0.9999993 
    4  1656     3  1.6597097 -0.0013346  0.9999997  0.0008315 -0.0008315  0.9999997 
    4  1656     4  1.6601096 -0.0018112  0.9999989  0.0014524 -0.0014524  0.9999989 
    4  1657     1  1.6651348 -0.0012407  0.9999997  0.0007498 -0.0007498  0.9999997 
    4  1657     2  1.6683376 -0.0001462  0.9999999  0.0004631 -0.0004631  0.9999999 
    4  1657     3  1.6655257 -0.0016863  0.9999991  0.0013701 -0.0013701  0.9999991 
    4  1657     4  1.6687576 -0.0005832  0.9999994  0.0010824 -0.0010824  0.9999994 
    4  1658     1  1.6662612 -0.0017688  0.9999990  0.0014090 -0.0014090  0.9999990 
    4  1658     2  1.6659341 -0.0012986  0.9999998  0.0006436 -0.0006436  0.9999998 
    4  1658     3  1.6701259 -0.0004994  0.9999994  0.0011232 -0.0011232  0.9999994 
    4  1658     4  1.6695117 -0.0001806  0.9999999  0.0004571 -0.0004571  0.9999999 
    4  1659     1  1.6639661 -0.0006947  0.9999992  0.0012890 -0.0012890  0.9999992 
    4  1659     2  1.6607891 -0.0017118  0.9999989  0.0014917 -0.0014917  0.9999989 
    4  1659     3  1.6637383 -0.0004338  0.9999998  0.0006663 -0.0006663  0.9999998 
    4  1659     4  1.6604059 -0.0014806  0.9999996  0.0008409 -0.0008409  0.9999996 
    4  1660     1  1.6551177 -0.0003353  0.9999993  0.0012015 -0.0012015  0.9999993 
    4  1660     2  1.6547577 -0.0013493  0.9999995  0.0010279 -0.0010279  0.9999995 
    4  1660     3  1.6548559 -0.0013933  0.9999991  0.0013377 -0.0013377  0.9999991 
    4  1660     4  1.6546482 -0.0018938  0.9999993  0.0011686 -0.0011686  0.9999993 
    4  1661     1  1.6564662 -0.0015343  0.9999995  0.0010418 -0.0010418  0.9999995 
    4  1661     2  1.6592478 -0.0006515  0.9999996  0.0008656 -0.0008656  0.9999996 
    4  1661     3  1.6572073 -0.0017971  0.9999988  0.0015342 -0.0015342  0.9999988 
    4  1661     4  1.6594017 -0.0010260  0.9999991  0.0013144 -0.0013144  0.9999991 
    4  1662     1  1.6564954 -0.0015012  0.9999991  0.0013210 -0.0013210  0.9999991 
    4  1662     2  1.6571968 -0.0016950  0.9999996  0.0008527 -0.0008527  0.9999996 
    4  1662     3  1.6590551 -0.0007025  0.9999989  0.0014598 -0.0014598  0.9999989 
    4  1662     4  1.6592720 -0.0009845  0.9999995  0.0010425 -0.0010425  0.9999995 
    4  1663     1  1.6641164 -0.0005872  0.9999997  0.0007423 -0.0007423  0.9999997 
    4  1663     2  1.6641329 -0.0006944  0.9999991  0.0013513 -0.0013513  0.9999991 
    4  1663     3  1.6608997 -0.0015510  0.9999997  0.0007646 -0.0007646  0.9999997 
    4  1663     4  1.6610384 -0.0016322  0.9999990  0.0014305 -0.0014305  0.9999990 
    4  1664     1  1.6662767 -0.0016507  0.9999998  0.0006442 -0.0006442  0.9999998 
    4  1664     2  1.6701718 -0.0004547  0.9999997  0.0007884 -0.0007884  0.9999997 
    4  1664     3  1.6661709 -0.0014061  0.9999990  0.0014325 -0.0014325  0.9999990 
    4  1664     4  1.6696209 -0.0003753  0.9999989  0.0014784 -0.0014784  0.9999989 
    4  1665     1  1.6654681 -0.0013082  0.9999991  0.0013429 -0.0013429  0.9999991 
    4  1665     2  1.6657710 -0.0015566  0.9999997  0.0007241 -0.0007241  0.9999997 
    4  1665     3  1.6684406 -0.0003652  0.9999989  0.0015150 -0.0015150  0.9999989 
    4  1665     4  1.6688069 -0.0005855  0.9999996  0.0009147 -0.0009147  0.9999996 
    4  1666     1  1.6636196 -0.0005432  0.9999988  0.0015395 -0.0015395  0.9999988 
    4  1666     2  1.6606573 -0.0014487  0.9999990  0.0014406 -0.0014406  0.9999990 
    4  1666     3  1.6638903 -0.0006785  0.9999995  0.0009719 -0.0009719  0.9999995 
    4  1666     4  1.6609204 -0.0016063  0.9999997  0.0008199 -0.0008199  0.9999997 
    4  1667     1  1.6537537 -0.0009473  0.9999993  0.0012102 -0.0012102  0.9999993 
    4  1667     2  1.6531536 -0.0004307  0.9999984  0.0017714 -0.0017714  0.9999984 
    4  1667     3  1.6509847 -0.0019760  0.9999996  0.0008850 -0.0008850  0.9999996 
    4  1667     4  1.6506324 -0.0014597  0.9999990  0.0013960 -0.0013960  0.9999990 
    4  1668     1  1.6562291 -0.0018407  0.9999996  0.0008924 -0.0008924  0.9999996 
    4  1668     2  1.6583383 -0.0010245  0.9999993  0.0011642 -0.0011642  0.9999993 
    4  1668     3  1.6558178 -0.0013195  0.9999992  0.0012955 -0.0012955  0.9999992 
    4  1668     4  1.6580777 -0.0004391  0.9999987  0.0015908 -0.0015908  0.9999987 
    4  1669     1  1.6541731 -0.0014814  0.9999989  0.0014999 -0.0014999  0.9999989 
    4  1669     2  1.6546064 -0.0018814  0.9999995  0.0009771 -0.0009771  0.9999995 
    4  1669     3  1.6568437 -0.0005285  0.9999984  0.0017815 -0.0017815  0.9999984 
    4  1669     4  1.6572437 -0.0009456  0.9999992  0.0012495 -0.0012495  0.9999992 
    4  1670     1  1.6520485 -0.0006812  0.9999983  0.0018550 -0.0018550  0.9999983 
    4  1670     2  1.6493199 -0.0016168  0.9999987  0.0016035 -0.0016035  0.9999987 
    4  1670     3  1.6525261 -0.0009985  0.9999991  0.0013198 -0.0013198  0.9999991 
    4  1670     4  1.6498105 -0.0019450  0.9999994  0.0010513 -0.0010513  0.9999994 
    4  1671     1  1.6630156 -0.0007829  0.9999994  0.0010715 -0.0010715  0.9999994 
    4  1671     2  1.6627503 -0.0003706  0.9999987  0.0016167 -0.0016167  0.9999987 
    4  1671     3  1.6602630 -0.0017252  0.9999997  0.0008227 -0.0008227  0.9999997 
    4  1671     4  1.6599241 -0.0013210  0.9999990  0.0013805 -0.0013805  0.9999990 
    4  1672     1  1.6649621 -0.0016259  0.9999997  0.0007774 -0.0007774  0.9999997 
    4  1672     2  1.6678874 -0.0006507  0.9999995  0.0010124 -0.0010124  0.9999995 
    4  1672     3  1.6646755 -0.0012491  0.9999991  0.0013745 -0.0013745  0.9999991 
    4  1672     4  1.6676156 -0.0002788  0.9999987  0.0015979 -0.0015979  0.9999987 
    4  1673     1  1.6638160 -0.0012407  0.9999990  0.0014144 -0.0014144  0.9999990 
    4  1673     2  1.6641171 -0.0016829  0.9999997  0.0008314 -0.0008314  0.9999997 
    4  1673     3  1.6667575 -0.0002385  0.9999986  0.0016743 -0.0016743  0.9999986 
    4  1673     4  1.6670189 -0.0006883  0.9999994  0.0010942 -0.0010942  0.9999994 
    4  1674     1  1.6617905 -0.0003489  0.9999985  0.0017071 -0.0017071  0.9999985 
    4  1674     2  1.6589956 -0.0013312  0.9999990  0.0014292 -0.0014292  0.9999990 
    4  1674     3  1.6620827 -0.0008287  0.9999993  0.0011676 -0.0011676  0.9999993 
    4  1674     4  1.6593536 -0.0017926  0.9999996  0.0008919 -0.0008919  0.9999996 
    4  1675     1  1.6512491 -0.0010813  0.9999990  0.0013810 -0.0013810  0.9999990 
    4  1675     2  1.6508966 -0.0005057  0.9999982  0.0018936 -0.0018936  0.9999982 
    4  1675     3  1.6486627 -0.0020596  0.9999994  0.0010635 -0.0010635  0.9999994 
    4  1675     4  1.6482179 -0.0015135  0.9999988  0.0015689 -0.0015689  0.9999988 
    4  1676     1  1.6533351 -0.0019558  0.9999995  0.0010229 -0.0010229  0.9999995 
    4  1676     2  1.6561275 -0.0009548  0.9999991  0.0013200 -0.0013200  0.9999991 
    4  1676     3  1.6529670 -0.0014642  0.9999987  0.0015825 -0.0015825  0.9999987 
    4  1676     4  1.6558107 -0.0004475  0.9999982  0.0018826 -0.0018826  0.9999982 
    4  1677     1  1.6518738 -0.0014803  0.9999987  0.0016415 -0.0016415  0.9999987 
    4  1677     2  1.6522348 -0.0020200  0.9999994  0.0010868 -0.0010868  0.9999994 
    4  1677     3  1.6547483 -0.0004368  0.9999981  0.0019585 -0.0019585  0.9999981 
    4  1677     4  1.6550618 -0.0009937  0.9999990  0.0013983 -0.0013983  0.9999990 
    4  1678     1  1.6497021 -0.0005536  0.9999980  0.0019918 -0.0019918  0.9999980 
    4  1678     2  1.6469836 -0.0015825  0.9999986  0.0016573 -0.0016573  0.9999986 
    4  1678     3  1.6500549 -0.0011510  0.9999989  0.0014687 -0.0014687  0.9999989 
    4  1678     4  1.6473881 -0.0021543  0.9999993  0.0011455 -0.0011455  0.9999993 
    4  1679     1  1.6611128 -0.0008438  0.9999992  0.0012489 -0.0012489  0.9999992 
    4  1679     2  1.6608485 -0.0003300  0.9999983  0.0018247 -0.0018247  0.9999983 
    4  1679     3  1.6582124 -0.0018682  0.9999995  0.0009556 -0.0009556  0.9999995 
    4  1679     4  1.6579140 -0.0013650  0.9999988  0.0015290 -0.0015290  0.9999988 
    4  1680     1  1.6631941 -0.0017584  0.9999996  0.0008902 -0.0008902  0.9999996 
    4  1680     2  1.6661551 -0.0007272  0.9999993  0.0011747 -0.0011747  0.9999993 
    4  1680     3  1.6629425 -0.0012463  0.9999989  0.0014822 -0.0014822  0.9999989 
    4  1680     4  1.6659452 -0.0002040  0.9999984  0.0017675 -0.0017675  0.9999984 
    4  1681     1  1.6620377 -0.0012734  0.9999988  0.0015614 -0.0015614  0.9999988 
    4  1681     2  1.6622902 -0.0017977  0.9999995  0.0009618 -0.0009618  0.9999995 
    4  1681     3  1.6651036 -0.0002037  0.9999983  0.0018582 -0.0018582  0.9999983 
    4  1681     4  1.6653180 -0.0007390  0.9999992  0.0012571 -0.0012571  0.9999992 
    4  1682     1  1.6599031 -0.0003210  0.9999982  0.0019150 -0.0019150  0.9999982 
    4  1682     2  1.6569011 -0.0013846  0.9999987  0.0016081 -0.0016081  0.9999987 
    4  1682     3  1.6601678 -0.0008570  0.9999991  0.0013318 -0.0013318  0.9999991 
    4  1682     4  1.6572092 -0.0019067  0.9999995  0.0010280 -0.0010280  0.9999995 
    4  1683     1  1.6488917 -0.0011591  0.9999988  0.0015582 -0.0015582  0.9999988 
    4  1683     2  1.6485674 -0.0006021  0.9999977  0.0021345 -0.0021345  0.9999977 
    4  1683     3  1.6459867 -0.0022094  0.9999992  0.0012404 -0.0012404  0.9999992 
    4  1683     4  1.6456310 -0.0016703  0.9999984  0.0018072 -0.0018072  0.9999984 
    4  1684     1  1.6510893 -0.0020849  0.9999993  0.0011647 -0.0011647  0.9999993 
    4  1684     2  1.6540293 -0.0010248  0.9999989  0.0014827 -0.0014827  0.9999989 
    4  1684     3  1.6507889 -0.0015222  0.9999985  0.0017414 -0.0017414  0.9999985 
    4  1684     4  1.6537618 -0.0004490  0.9999979  0.0020643 -0.0020643  0.9999979 
    4  1685     1  1.6497258 -0.0015602  0.9999983  0.0018409 -0.0018409  0.9999983 
    4  1685     2  1.6500193 -0.0021072  0.9999992  0.0012553 -0.0012553  0.9999992 
    4  1685     3  1.6527453 -0.0004804  0.9999977  0.0021601 -0.0021601  0.9999977 
    4  1685     4  1.6530305 -0.0010309  0.9999988  0.0015729 -0.0015729  0.9999988 
    4  1686     1  1.6474940 -0.0006263  0.9999975  0.0022366 -0.0022366  0.9999975 
    4  1686     2  1.6444645 -0.0016996  0.9999981  0.0019241 -0.0019241  0.9999981 
    4  1686     3  1.6478081 -0.0011416  0.9999987  0.0016412 -0.0016412  0.9999987 
    4  1686     4  1.6447859 -0.0022071  0.9999991  0.0013349 -0.0013349  0.9999991 
    4  1687     1  1.6592259 -0.0008827  0.9999990  0.0014145 -0.0014145  0.9999990 
    4  1687     2  1.6589886 -0.0003148  0.9999980  0.0020079 -0.0020079  0.9999980 
    4  1687     3  1.6561885 -0.0019646  0.9999994  0.0010987 -0.0010987  0.9999994 
    4  1687     4  1.6559277 -0.0014040  0.9999986  0.0016905 -0.0016905  0.9999986 
    4  1688     1  1.6613819 -0.0018459  0.9999995  0.0010328 -0.0010328  0.9999995 
    4  1688     2  1.6644700 -0.0007577  0.9999991  0.0013421 -0.0013421  0.9999991 
    4  1688     3  1.6611527 -0.0012874  0.9999987  0.0016385 -0.0016385  0.9999987 
    4  1688     4  1.6642770 -0.0001891  0.9999981  0.0019489 -0.0019489  0.9999981 
    4  1689     1  1.6602429 -0.0013092  0.9999985  0.0017188 -0.0017188  0.9999985 
    4  1689     2  1.6604908 -0.0018718  0.9999994  0.0011160 -0.0011160  0.9999994 
    4  1689     3  1.6633913 -0.0001957  0.9999979  0.0020382 -0.0020382  0.9999979 
    4  1689     4  1.6636052 -0.0007662  0.9999990  0.0014357 -0.0014357  0.9999990 
    4  1690     1  1.6580344 -0.0003369  0.9999978  0.0020983 -0.0020983  0.9999978 
    4  1690     2  1.6549597 -0.0014322  0.9999984  0.0017782 -0.0017782  0.9999984 
    4  1690     3  1.6582906 -0.0008960  0.9999989  0.0015091 -0.0015091  0.9999989 
    4  1690     4  1.6552373 -0.0019865  0.9999993  0.0011887 -0.0011887  0.9999993 
    4  1691     1  1.6468101 -0.0011563  0.9999985  0.0017114 -0.0017114  0.9999985 
    4  1691     2  1.6465599 -0.0006369  0.9999973  0.0023226 -0.0023226  0.9999973 
    4  1691     3  1.6436910 -0.0022352  0.9999990  0.0014158 -0.0014158  0.9999990 
    4  1691     4  1.6434810 -0.0017096  0.9999980  0.0020225 -0.0020225  0.9999980 
    4  1692     1  1.6489981 -0.0021330  0.9999991  0.0013428 -0.0013428  0.9999991 
    4  1692     2  1.6520395 -0.0010446  0.9999986  0.0016651 -0.0016651  0.9999986 
    4  1692     3  1.6487488 -0.0015774  0.9999981  0.0019281 -0.0019281  0.9999981 
    4  1692     4  1.6517608 -0.0005021  0.9999975  0.0022451 -0.0022451  0.9999975 
    4  1693     1  1.6478316 -0.0015828  0.9999980  0.0020006 -0.0020006  0.9999980 
    4  1693     2  1.6480781 -0.0021423  0.9999990  0.0014408 -0.0014408  0.9999990 
    4  1693     3  1.6506653 -0.0005575  0.9999973  0.0023109 -0.0023109  0.9999973 
    4  1693     4  1.6510181 -0.0010664  0.9999984  0.0017735 -0.0017735  0.9999984 
    4  1694     1  1.6457224 -0.0007189  0.9999971  0.0023905 -0.0023905  0.9999971 
    4  1694     2  1.6427664 -0.0017174  0.9999977  0.0021353 -0.0021353  0.9999977 
    4  1694     3  1.6459409 -0.0011621  0.9999984  0.0017873 -0.0017873  0.9999984 
    4  1694     4  1.6428571 -0.0021930  0.9999988  0.0015341 -0.0015341  0.9999988 
    4  1695     1  1.6572900 -0.0009149  0.9999987  0.0016210 -0.0016210  0.9999987 
    4  1695     2  1.6570086 -0.0003586  0.9999976  0.0021878 -0.0021878  0.9999976 
    4  1695     3  1.6542621 -0.0020152  0.9999992  0.0012864 -0.0012864  0.9999992 
    4  1695     4  1.6539796 -0.0014504  0.9999983  0.0018610 -0.0018610  0.9999983 
    4  1696     1  1.6595550 -0.0018928  0.9999993  0.0012059 -0.0012059  0.9999993 
    4  1696     2  1.6626601 -0.0007722  0.9999988  0.0015413 -0.0015413  0.9999988 
    4  1696     3  1.6592701 -0.0013266  0.9999984  0.0017945 -0.0017945  0.9999984 
    4  1696     4  1.6624157 -0.0001997  0.9999977  0.0021268 -0.0021268  0.9999977 
    4  1697     1  1.6581150 -0.0013611  0.9999983  0.0018575 -0.0018575  0.9999983 
    4  1697     2  1.6584978 -0.0019542  0.9999992  0.0012954 -0.0012954  0.9999992 
    4  1697     3  1.6612567 -0.0001979  0.9999975  0.0022213 -0.0022213  0.9999975 
    4  1697     4  1.6615557 -0.0008072  0.9999986  0.0016616 -0.0016616  0.9999986 
    4  1698     1  1.6557399 -0.0003886  0.9999974  0.0022715 -0.0022715  0.9999974 
    4  1698     2  1.6529350 -0.0014362  0.9999981  0.0019382 -0.0019382  0.9999981 
    4  1698     3  1.6561030 -0.0009128  0.9999984  0.0017717 -0.0017717  0.9999984 
    4  1698     4  1.6533058 -0.0019831  0.9999990  0.0014185 -0.0014185  0.9999990 
    4  1699     1  1.6451413 -0.0012048  0.9999984  0.0017902 -0.0017902  0.9999984 
    4  1699     2  1.6450573 -0.0008498  0.9999971  0.0024121 -0.0024121  0.9999971 
    4  1699     3  1.6422020 -0.0020672  0.9999985  0.0017333 -0.0017333  0.9999985 
    4  1699     4  1.6424898 -0.0016637  0.9999974  0.0022630 -0.0022630  0.9999974 
    4  1700     1  1.6474383 -0.0019261  0.9999987  0.0015989 -0.0015989  0.9999987 
    4  1700     2  1.6496429 -0.0009781  0.9999981  0.0019694 -0.0019694  0.9999981 
    4  1700     3  1.6471424 -0.0014788  0.9999979  0.0020429 -0.0020429  0.9999979 
    4  1700     4  1.6491275 -0.0007170  0.9999974  0.0022978 -0.0022978  0.9999974 
    4  1701     1  1.6463047 -0.0009756  0.9999976  0.0021788 -0.0021788  0.9999976 
    4  1701     2  1.6445751 -0.0018258  0.9999968  0.0025139 -0.0025139  0.9999968 
    4  1701     3  1.6451946 -0.0005887  0.9999979  0.0020673 -0.0020673  0.9999979 
    4  1701     4  1.6442183 -0.0013151  0.9999973  0.0023429 -0.0023429  0.9999973 
    4  1702     1  1.6375116 -0.0019486  0.9999973  0.0023050 -0.0023050  0.9999973 
    4  1702     2  1.6375181 -0.0023609  0.9999986  0.0016450 -0.0016450  0.9999986 
    4  1702     3  1.6407460 -0.0009004  0.9999968  0.0025300 -0.0025300  0.9999968 
    4  1702     4  1.6408171 -0.0013096  0.9999983  0.0018461 -0.0018461  0.9999983 
    4  1703     1  1.6355976 -0.0010727  0.9999966  0.0025987 -0.0025987  0.9999966 
    4  1703     2  1.6321759 -0.0021428  0.9999971  0.0024258 -0.0024258  0.9999971 
    4  1703     3  1.6356184 -0.0014115  0.9999982  0.0019084 -0.0019084  0.9999982 
    4  1703     4  1.6322229 -0.0024831  0.9999985  0.0017174 -0.0017174  0.9999985 
    4  1704     1  1.6360150 -0.0013093  0.9999984  0.0017843 -0.0017843  0.9999984 
    4  1704     2  1.6358389 -0.0009260  0.9999967  0.0025801 -0.0025801  0.9999967 
    4  1704     3  1.6320983 -0.0025506  0.9999988  0.0015559 -0.0015559  0.9999988 
    4  1704     4  1.6323188 -0.0020735  0.9999973  0.0023159 -0.0023159  0.9999973 
    4  1705     1  1.6384399 -0.0024208  0.9999989  0.0014810 -0.0014810  0.9999989 
    4  1705     2  1.6415418 -0.0013498  0.9999984  0.0017746 -0.0017746  0.9999984 
    4  1705     3  1.6382655 -0.0018241  0.9999978  0.0020900 -0.0020900  0.9999978 
    4  1705     4  1.6413613 -0.0007385  0.9999971  0.0023990 -0.0023990  0.9999971 
    4  1706     1  1.6353232 -0.0013523  0.9999981  0.0019294 -0.0019294  0.9999981 
    4  1706     2  1.6354450 -0.0008849  0.9999964  0.0026693 -0.0026693  0.9999964 
    4  1706     3  1.6318123 -0.0024757  0.9999985  0.0017066 -0.0017066  0.9999985 
    4  1706     4  1.6316509 -0.0020965  0.9999970  0.0024325 -0.0024325  0.9999970 
    4  1707     1  1.6371774 -0.0022522  0.9999985  0.0017333 -0.0017333  0.9999985 
    4  1707     2  1.6405013 -0.0012508  0.9999984  0.0018028 -0.0018028  0.9999984 
    4  1707     3  1.6373845 -0.0019579  0.9999971  0.0024174 -0.0024174  0.9999971 
    4  1707     4  1.6409109 -0.0008760  0.9999968  0.0025478 -0.0025478  0.9999968 
    4  1708     1  1.6377952 -0.0021584  0.9999966  0.0025937 -0.0025937  0.9999966 
    4  1708     2  1.6374904 -0.0021544  0.9999986  0.0016968 -0.0016968  0.9999986 
    4  1708     3  1.6427375 -0.0006764  0.9999967  0.0025740 -0.0025740  0.9999967 
    4  1708     4  1.6414635 -0.0009660  0.9999985  0.0017094 -0.0017094  0.9999985 
    4  1709     1  1.6351211 -0.0007505  0.9999958  0.0028958 -0.0028958  0.9999958 
    4  1709     2  1.6309978 -0.0021046  0.9999967  0.0025846 -0.0025846  0.9999967 
    4  1709     3  1.6350407 -0.0014227  0.9999978  0.0021017 -0.0021017  0.9999978 
    4  1709     4  1.6311647 -0.0027032  0.9999984  0.0017998 -0.0017998  0.9999984 
    4  1710     1  1.6390706 -0.0018552  0.9999980  0.0020208 -0.0020208  0.9999980 
    4  1710     2  1.6394685 -0.0022953  0.9999990  0.0014111 -0.0014111  0.9999990 
    4  1710     3  1.6421756 -0.0007697  0.9999973  0.0023301 -0.0023301  0.9999973 
    4  1710     4  1.6425495 -0.0012276  0.9999985  0.0017072 -0.0017072  0.9999985 
    4  1711     1  1.6366716 -0.0007873  0.9999972  0.0023843 -0.0023843  0.9999972 
    4  1711     2  1.6335477 -0.0020308  0.9999981  0.0019528 -0.0019528  0.9999981 
    4  1711     3  1.6371366 -0.0015083  0.9999983  0.0018314 -0.0018314  0.9999983 
    4  1711     4  1.6344109 -0.0025449  0.9999989  0.0014880 -0.0014880  0.9999989 
    4  1712     1  1.6386833 -0.0014881  0.9999984  0.0017932 -0.0017932  0.9999984 
    4  1712     2  1.6382993 -0.0009600  0.9999974  0.0022610 -0.0022610  0.9999974 
    4  1712     3  1.6362265 -0.0024462  0.9999989  0.0014676 -0.0014676  0.9999989 
    4  1712     4  1.6357915 -0.0018965  0.9999981  0.0019601 -0.0019601  0.9999981 
    4  1713     1  1.6409099 -0.0023621  0.9999991  0.0013247 -0.0013247  0.9999991 
    4  1713     2  1.6437447 -0.0013233  0.9999986  0.0016474 -0.0016474  0.9999986 
    4  1713     3  1.6404645 -0.0018176  0.9999982  0.0018820 -0.0018820  0.9999982 
    4  1713     4  1.6433613 -0.0007511  0.9999975  0.0022162 -0.0022162  0.9999975 
    4  1714     1  1.6420113 -0.0017414  0.9999985  0.0017603 -0.0017603  0.9999985 
    4  1714     2  1.6424770 -0.0022379  0.9999992  0.0012441 -0.0012441  0.9999992 
    4  1714     3  1.6446462 -0.0007444  0.9999978  0.0020870 -0.0020870  0.9999978 
    4  1714     4  1.6451096 -0.0012586  0.9999988  0.0015560 -0.0015560  0.9999988 
    4  1715     1  1.6396887 -0.0009591  0.9999976  0.0021908 -0.0021908  0.9999976 
    4  1715     2  1.6368645 -0.0019157  0.9999981  0.0019413 -0.0019413  0.9999981 
    4  1715     3  1.6402346 -0.0012709  0.9999987  0.0016009 -0.0016009  0.9999987 
    4  1715     4  1.6372794 -0.0022779  0.9999991  0.0013323 -0.0013323  0.9999991 
    4  1716     1  1.6417027 -0.0011418  0.9999989  0.0014797 -0.0014797  0.9999989 
    4  1716     2  1.6409172 -0.0004970  0.9999978  0.0020780 -0.0020780  0.9999978 
    4  1716     3  1.6387541 -0.0022847  0.9999994  0.0010952 -0.0010952  0.9999994 
    4  1716     4  1.6383142 -0.0016565  0.9999987  0.0016270 -0.0016270  0.9999987 
    4  1717     1  1.6445642 -0.0021711  0.9999993  0.0011578 -0.0011578  0.9999993 
    4  1717     2  1.6465099 -0.0013207  0.9999989  0.0014731 -0.0014731  0.9999989 
    4  1717     3  1.6441211 -0.0015319  0.9999989  0.0015002 -0.0015002  0.9999989 
    4  1717     4  1.6461736 -0.0006015  0.9999983  0.0018496 -0.0018496  0.9999983 
    4  1718     1  1.6319219 -0.0021704  0.9999978  0.0021020 -0.0021020  0.9999978 
    4  1718     2  1.6320116 -0.0022650  0.9999990  0.0014162 -0.0014162  0.9999990 
    4  1718     3  1.6348354 -0.0012877  0.9999976  0.0021770 -0.0021770  0.9999976 
    4  1718     4  1.6352407 -0.0012864  0.9999989  0.0015008 -0.0015008  0.9999989 
    4  1719     1  1.6300904 -0.0015434  0.9999977  0.0021598 -0.0021598  0.9999977 
    4  1719     2  1.6269820 -0.0025051  0.9999974  0.0022959 -0.0022959  0.9999974 
    4  1719     3  1.6300767 -0.0012729  0.9999990  0.0014429 -0.0014429  0.9999990 
    4  1719     4  1.6266513 -0.0023356  0.9999987  0.0016008 -0.0016008  0.9999987 
    4  1720     1  1.6298540 -0.0012020  0.9999992  0.0012356 -0.0012356  0.9999992 
    4  1720     2  1.6299356 -0.0016407  0.9999980  0.0020015 -0.0020015  0.9999980 
    4  1720     3  1.6261571 -0.0023664  0.9999990  0.0014396 -0.0014396  0.9999990 
    4  1720     4  1.6264050 -0.0027626  0.9999976  0.0022128 -0.0022128  0.9999976 
    4  1721     1  1.6323296 -0.0024553  0.9999992  0.0012526 -0.0012526  0.9999992 
    4  1721     2  1.6366423 -0.0011565  0.9999991  0.0013184 -0.0013184  0.9999991 
    4  1721     3  1.6322977 -0.0023351  0.9999977  0.0021616 -0.0021616  0.9999977 
    4  1721     4  1.6359873 -0.0012343  0.9999977  0.0021450 -0.0021450  0.9999977 
    4  1722     1  1.6299556 -0.0012897  0.9999988  0.0015803 -0.0015803  0.9999988 
    4  1722     2  1.6301441 -0.0016673  0.9999977  0.0021444 -0.0021444  0.9999977 
    4  1722     3  1.6274895 -0.0021923  0.9999982  0.0018886 -0.0018886  0.9999982 
    4  1722     4  1.6280397 -0.0023634  0.9999973  0.0023098 -0.0023098  0.9999973 
    4  1723     1  1.6318597 -0.0022644  0.9999988  0.0015368 -0.0015368  0.9999988 
    4  1723     2  1.6343551 -0.0014445  0.9999984  0.0017638 -0.0017638  0.9999984 
    4  1723     3  1.6318234 -0.0020425  0.9999978  0.0021134 -0.0021134  0.9999978 
    4  1723     4  1.6339503 -0.0013798  0.9999975  0.0022177 -0.0022177  0.9999975 
    4  1724     1  1.6309541 -0.0018433  0.9999980  0.0019778 -0.0019778  0.9999980 
    4  1724     2  1.6308567 -0.0026241  0.9999976  0.0021700 -0.0021700  0.9999976 
    4  1724     3  1.6313461 -0.0010456  0.9999975  0.0022451 -0.0022451  0.9999975 
    4  1724     4  1.6311732 -0.0018449  0.9999973  0.0023258 -0.0023258  0.9999973 
    4  1725     1  1.6452636 -0.0016590  0.9999989  0.0014717 -0.0014717  0.9999989 
    4  1725     2  1.6460449 -0.0020944  0.9999994  0.0010918 -0.0010918  0.9999994 
    4  1725     3  1.6475914 -0.0007955  0.9999985  0.0017500 -0.0017500  0.9999985 
    4  1725     4  1.6479569 -0.0013038  0.9999991  0.0013733 -0.0013733  0.9999991 
    4  1726     1  1.6437631 -0.0002898  0.9999991  0.0013726 -0.0013726  0.9999991 
    4  1726     2  1.6435287 -0.0016641  0.9999992  0.0012511 -0.0012511  0.9999992 
    4  1726     3  1.6430950 -0.0017631  0.9999986  0.0016784 -0.0016784  0.9999986 
    4  1726     4  1.6430894 -0.0024382  0.9999989  0.0015039 -0.0015039  0.9999989 
    4  1727     1  1.6456187 -0.0020406  0.9999993  0.0011551 -0.0011551  0.9999993 
    4  1727     2  1.6493279 -0.0009338  0.9999993  0.0011455 -0.0011455  0.9999993 
    4  1727     3  1.6462757 -0.0019990  0.9999982  0.0018898 -0.0018898  0.9999982 
    4  1727     4  1.6489640 -0.0011686  0.9999985  0.0017484 -0.0017484  0.9999985 
    4  1728     1  1.6424491 -0.0012062  0.9999988  0.0015421 -0.0015421  0.9999988 
    4  1728     2  1.6390421 -0.0025552  0.9999980  0.0020065 -0.0020065  0.9999980 
    4  1728     3  1.6417449 -0.0004005  0.9999996  0.0008518 -0.0008518  0.9999996 
    4  1728     4  1.6385313 -0.0018225  0.9999990  0.0013989 -0.0013989  0.9999990 
    4  1729     1  1.6406826 -0.0006335  0.9999997  0.0007470 -0.0007470  0.9999997 
    4  1729     2  1.6412113 -0.0012841  0.9999989  0.0014543 -0.0014543  0.9999989 
    4  1729     3  1.6371501 -0.0019150  0.9999994  0.0011393 -0.0011393  0.9999994 
    4  1729     4  1.6375815 -0.0025964  0.9999983  0.0018530 -0.0018530  0.9999983 
    4  1730     1  1.6432830 -0.0017121  0.9999993  0.0011530 -0.0011530  0.9999993 
    4  1730     2  1.6463803 -0.0004861  0.9999997  0.0007309 -0.0007309  0.9999997 
    4  1730     3  1.6437348 -0.0024118  0.9999985  0.0017486 -0.0017486  0.9999985 
    4  1730     4  1.6468843 -0.0012024  0.9999991  0.0013476 -0.0013476  0.9999991 
    4  1731     1  1.6455753 -0.0024796  0.9999984  0.0018033 -0.0018033  0.9999984 
    4  1731     2  1.6450035 -0.0015826  0.9999992  0.0012607 -0.0012607  0.9999992 
    4  1731     3  1.6485625 -0.0012171  0.9999991  0.0013462 -0.0013462  0.9999991 
    4  1731     4  1.6479696 -0.0003993  0.9999996  0.0008455 -0.0008455  0.9999996 
    4  1732     1  1.6370223 -0.0009737  0.9999937  0.0035624 -0.0035624  0.9999937 
    4  1732     2  1.6366537 -0.0005655  0.9999897  0.0045354 -0.0045354  0.9999897 
    4  1732     3  1.6320859 -0.0025456  0.9999947  0.0032598 -0.0032598  0.9999947 
    4  1732     4  1.6317278 -0.0021280  0.9999910  0.0042443 -0.0042443  0.9999910 
    4  1733     1  1.6403607 -0.0022894  0.9999955  0.0029932 -0.0029932  0.9999955 
    4  1733     2  1.6454038 -0.0006989  0.9999946  0.0032757 -0.0032757  0.9999946 
    4  1733     3  1.6399711 -0.0019314  0.9999920  0.0039928 -0.0039928  0.9999920 
    4  1733     4  1.6450627 -0.0003305  0.9999909  0.0042681 -0.0042681  0.9999909 
    4  1734     1  1.6383772 -0.0019564  0.9999915  0.0041299 -0.0041299  0.9999915 
    4  1734     2  1.6389405 -0.0023502  0.9999951  0.0031381 -0.0031381  0.9999951 
    4  1734     3  1.6434879 -0.0003259  0.9999901  0.0044460 -0.0044460  0.9999901 
    4  1734     4  1.6439320 -0.0007461  0.9999940  0.0034673 -0.0034673  0.9999940 
    4  1735     1  1.6349571 -0.0006086  0.9999889  0.0047103 -0.0047103  0.9999889 
    4  1735     2  1.6303447 -0.0020952  0.9999903  0.0043994 -0.0043994  0.9999903 
    4  1735     3  1.6354782 -0.0009892  0.9999927  0.0038175 -0.0038175  0.9999927 
    4  1735     4  1.6308550 -0.0025010  0.9999940  0.0034696 -0.0034696  0.9999940 
    4  1736     1  1.6183657 -0.0014043  0.9999911  0.0042100 -0.0042100  0.9999911 
    4  1736     2  1.6183247 -0.0013407  0.9999864  0.0052221 -0.0052221  0.9999864 
    4  1736     3  1.6137860 -0.0027643  0.9999904  0.0043736 -0.0043736  0.9999904 
    4  1736     4  1.6143068 -0.0025465  0.9999865  0.0052000 -0.0052000  0.9999865 
    4  1737     1  1.6219209 -0.0025057  0.9999924  0.0038972 -0.0038972  0.9999924 
    4  1737     2  1.6257385 -0.0011878  0.9999906  0.0043338 -0.0043338  0.9999906 
    4  1737     3  1.6214596 -0.0022141  0.9999888  0.0047276 -0.0047276  0.9999888 
    4  1737     4  1.6248797 -0.0011051  0.9999876  0.0049792 -0.0049792  0.9999876 
    4  1738     1  1.6200184 -0.0015249  0.9999883  0.0048469 -0.0048469  0.9999883 
    4  1738     2  1.6180531 -0.0029308  0.9999854  0.0054083 -0.0054083  0.9999854 
    4  1738     3  1.6188702 -0.0007382  0.9999879  0.0049119 -0.0049119  0.9999879 
    4  1738     4  1.6177298 -0.0019821  0.9999859  0.0053080 -0.0053080  0.9999859 
    4  1739     1  1.5674411 -0.0026468  0.9999961  0.0027994 -0.0027994  0.9999961 
    4  1739     2  1.5673605 -0.0044356  0.9999965  0.0026615 -0.0026615  0.9999965 
    4  1739     3  1.5663949 -0.0045812  0.9999947  0.0032533 -0.0032533  0.9999947 
    4  1739     4  1.5665494 -0.0055066  0.9999953  0.0030582 -0.0030582  0.9999953 
    4  1740     1  1.5700504 -0.0044082  0.9999966  0.0026062 -0.0026062  0.9999966 
    4  1740     2  1.5735277 -0.0031761  0.9999975  0.0022198 -0.0022198  0.9999975 
    4  1740     3  1.5710445 -0.0050421  0.9999948  0.0032276 -0.0032276  0.9999948 
    4  1740     4  1.5739591 -0.0038856  0.9999960  0.0028121 -0.0028121  0.9999960 
    4  1741     1  1.5697878 -0.0050080  0.9999951  0.0031276 -0.0031276  0.9999951 
    4  1741     2  1.5711637 -0.0049100  0.9999977  0.0021255 -0.0021255  0.9999977 
    4  1741     3  1.5748530 -0.0034821  0.9999948  0.0032320 -0.0032320  0.9999948 
    4  1741     4  1.5746866 -0.0037862  0.9999971  0.0024010 -0.0024010  0.9999971 
    4  1742     1  1.6454708 -0.0001664  0.9999930  0.0037355 -0.0037355  0.9999930 
    4  1742     2  1.6450287 -0.0001985  0.9999868  0.0051387 -0.0051387  0.9999868 
    4  1742     3  1.6385766 -0.0022405  0.9999934  0.0036302 -0.0036302  0.9999934 
    4  1742     4  1.6380777 -0.0022902  0.9999874  0.0050208 -0.0050208  0.9999874 
    4  1743     1  1.6497528 -0.0019564  0.9999950  0.0031624 -0.0031624  0.9999950 
    4  1743     2  1.6566595  0.0001186  0.9999947  0.0032406 -0.0032406  0.9999947 
    4  1743     3  1.6493412 -0.0020156  0.9999897  0.0045471 -0.0045471  0.9999897 
    4  1743     4  1.6562974  0.0000742  0.9999893  0.0046297 -0.0046297  0.9999893 
    4  1744     1  1.6479076 -0.0020820  0.9999887  0.0047496 -0.0047496  0.9999887 
    4  1744     2  1.6482719 -0.0019502  0.9999944  0.0033456 -0.0033456  0.9999944 
    4  1744     3  1.6549770  0.0000378  0.9999885  0.0047949 -0.0047949  0.9999885 
    4  1744     4  1.6553010  0.0001580  0.9999943  0.0033797 -0.0033797  0.9999943 
    4  1745     1  1.6435887 -0.0002078  0.9999858  0.0053307 -0.0053307  0.9999858 
    4  1745     2  1.6364773 -0.0023415  0.9999862  0.0052604 -0.0052604  0.9999862 
    4  1745     3  1.6439802 -0.0001023  0.9999924  0.0038927 -0.0038927  0.9999924 
    4  1745     4  1.6369153 -0.0022224  0.9999927  0.0038337 -0.0038337  0.9999927 
    4  1746     1  1.5492697 -0.0053304  0.9999635  0.0085449 -0.0085449  0.9999635 
    4  1746     2  1.5555878 -0.0033218  0.9999599  0.0089505 -0.0089505  0.9999599 
    4  1746     3  1.5481069 -0.0050576  0.9999515  0.0098533 -0.0098533  0.9999515 
    4  1746     4  1.5544859 -0.0030360  0.9999475  0.0102505 -0.0102505  0.9999475 
    4  1747     1  1.5446309 -0.0052003  0.9999474  0.0102572 -0.0102572  0.9999474 
    4  1747     2  1.5459122 -0.0056038  0.9999597  0.0089748 -0.0089748  0.9999597 
    4  1747     3  1.5509554 -0.0031543  0.9999426  0.0107163 -0.0107163  0.9999426 
    4  1747     4  1.5521102 -0.0035832  0.9999554  0.0094497 -0.0094497  0.9999554 
    4  1748     1  1.5395073 -0.0037116  0.9999373  0.0112000 -0.0112000  0.9999373 
    4  1748     2  1.5336951 -0.0056045  0.9999422  0.0107551 -0.0107551  0.9999422 
    4  1748     3  1.5406862 -0.0040967  0.9999498  0.0100182 -0.0100182  0.9999498 
    4  1748     4  1.5348397 -0.0060257  0.9999546  0.0095307 -0.0095307  0.9999546 
    4  1749     1  1.5442100 -0.0038718  0.9999551  0.0094812 -0.0094812  0.9999551 
    4  1749     2  1.5430827 -0.0035220  0.9999421  0.0107655 -0.0107655  0.9999421 
    4  1749     3  1.5379887 -0.0058708  0.9999591  0.0090456 -0.0090456  0.9999591 
    4  1749     4  1.5368616 -0.0055172  0.9999466  0.0103360 -0.0103360  0.9999466 
    4  1750     1  1.6859867  0.0001679  0.9999960  0.0028122 -0.0028122  0.9999960 
    4  1750     2  1.6837899 -0.0015170  0.9999941  0.0034371 -0.0034371  0.9999941 
    4  1750     3  1.6846582  0.0008712  0.9999957  0.0029299 -0.0029299  0.9999957 
    4  1750     4  1.6833897 -0.0005530  0.9999944  0.0033593 -0.0033593  0.9999944 
    4  1751     1  1.6840925  0.0006986  0.9999977  0.0021561 -0.0021561  0.9999977 
    4  1751     2  1.6839745  0.0002904  0.9999945  0.0033286 -0.0033286  0.9999945 
    4  1751     3  1.6783487 -0.0011232  0.9999967  0.0025545 -0.0025545  0.9999967 
    4  1751     4  1.6789555 -0.0012428  0.9999939  0.0034910 -0.0034910  0.9999939 
    4  1752     1  1.6885923 -0.0007424  0.9999985  0.0017175 -0.0017175  0.9999985 
    4  1752     2  1.6936719  0.0007787  0.9999979  0.0020579 -0.0020579  0.9999979 
    4  1752     3  1.6878530 -0.0009744  0.9999961  0.0027911 -0.0027911  0.9999961 
    4  1752     4  1.6924260  0.0003959  0.9999957  0.0029174 -0.0029174  0.9999957 
    4  1753     1  1.7405723 -0.0005023  1.0000000  0.0002935 -0.0002935  1.0000000 
    4  1753     2  1.7401784 -0.0003588  1.0000000 -0.0001122  0.0001122  1.0000000 
    4  1753     3  1.7437833  0.0005262  1.0000000  0.0001008 -0.0001008  1.0000000 
    4  1753     4  1.7427633  0.0004658  1.0000000 -0.0002622  0.0002622  1.0000000 
    4  1754     1  1.7385589  0.0004592  1.0000000  0.0002329 -0.0002329  1.0000000 
    4  1754     2  1.7351975 -0.0005514  1.0000000  0.0002730 -0.0002730  1.0000000 
    4  1754     3  1.7383563  0.0004381  1.0000000 -0.0002566  0.0002566  1.0000000 
    4  1754     4  1.7351670 -0.0005208  1.0000000 -0.0002187  0.0002187  1.0000000 
    4  1755     1  1.7380046  0.0004089  1.0000000 -0.0002465  0.0002465  1.0000000 
    4  1755     2  1.7381462  0.0003896  1.0000000  0.0002046 -0.0002046  1.0000000 
    4  1755     3  1.7350739 -0.0004729  1.0000000 -0.0002097  0.0002097  1.0000000 
    4  1755     4  1.7350886 -0.0005284  1.0000000  0.0002291 -0.0002291  1.0000000 
    4  1756     1  1.7395145 -0.0003863  1.0000000 -0.0001286  0.0001286  1.0000000 
    4  1756     2  1.7418317  0.0003273  1.0000000 -0.0002212  0.0002212  1.0000000 
    4  1756     3  1.7396763 -0.0004374  1.0000000  0.0002039 -0.0002039  1.0000000 
    4  1756     4  1.7421563  0.0003122  1.0000000  0.0001524 -0.0001524  1.0000000 
    4  1757     1  1.7459974  0.0000247  1.0000000  0.0000754 -0.0000754  1.0000000 
    4  1757     2  1.7457962 -0.0002190  1.0000000  0.0001717 -0.0001717  1.0000000 
    4  1757     3  1.7459268  0.0001909  1.0000000  0.0001389 -0.0001389  1.0000000 
    4  1757     4  1.7457992 -0.0000342  1.0000000  0.0001917 -0.0001917  1.0000000 
    4  1758     1  1.7452084  0.0001546  1.0000000 -0.0001703  0.0001703  1.0000000 
    4  1758     2  1.7453139  0.0002307  1.0000000  0.0001496 -0.0001496  1.0000000 
    4  1758     3  1.7432587 -0.0004190  1.0000000 -0.0001017  0.0001017  1.0000000 
    4  1758     4  1.7435110 -0.0003077  1.0000000  0.0001564 -0.0001564  1.0000000 
    4  1759     1  1.7469681 -0.0001443  1.0000000 -0.0001755  0.0001755  1.0000000 
    4  1759     2  1.7490198  0.0004348  1.0000000 -0.0001258  0.0001258  1.0000000 
    4  1759     3  1.7467244 -0.0003516  1.0000000  0.0001501 -0.0001501  1.0000000 
    4  1759     4  1.7485189  0.0001799  1.0000000  0.0001334 -0.0001334  1.0000000 
    4  1760     1  1.5013865 -0.0085904  0.9999999  0.0003735 -0.0003735  0.9999999 
    4  1760     2  1.5019015 -0.0085568  0.9999997 -0.0007134  0.0007134  0.9999997 
    4  1760     3  1.5083092 -0.0065101  0.9999999  0.0004499 -0.0004499  0.9999999 
    4  1760     4  1.5066859 -0.0071134  0.9999998 -0.0006101  0.0006101  0.9999998 
    4  1761     1  1.4998355 -0.0060824  0.9999999  0.0004933 -0.0004933  0.9999999 
    4  1761     2  1.5000683 -0.0092077  0.9999999  0.0004093 -0.0004093  0.9999999 
    4  1761     3  1.4978053 -0.0088082  0.9999991  0.0013510 -0.0013510  0.9999991 
    4  1761     4  1.4984456 -0.0099388  0.9999994  0.0010879 -0.0010879  0.9999994 
    4  1762     1  1.5023006 -0.0079065  0.9999998 -0.0006644  0.0006644  0.9999998 
    4  1762     2  1.5051802 -0.0070479  0.9999999 -0.0004192  0.0004192  0.9999999 
    4  1762     3  1.5028600 -0.0069833  1.0000000 -0.0001211  0.0001211  1.0000000 
    4  1762     4  1.5057547 -0.0061165  1.0000000  0.0001274 -0.0001274  1.0000000 
    5     1     1  0.4165745 -0.9424505  0.1338759  0.9909981 -0.9909981  0.1338759 
    5     1     2  0.6935031  0.0092443  0.1611942 -0.9869227  0.9869227  0.1611942 
    5     1     3 -0.1713639 -1.4286331  0.4570547  0.8894386 -0.8894386  0.4570547 
    5     1     4  0.0390382 -0.4104118  0.6493923  0.7604535 -0.7604535  0.6493923 
    5     2     1  1.4950477 -6.6059242  0.8838187  0.4678295 -0.4678295  0.8838187 
    5     2     2 -3.8727510 -23.454501  0.9600602  0.2797935 -0.2797935  0.9600602 
    5     2     3  3.2353052 -15.440801  0.7208171  0.6931253 -0.6931253  0.7208171 
    5     2     4 -4.3027813 -30.119091  0.8636069  0.5041657 -0.5041657  0.8636069 
    5     3     1  2.3197953 -8.2888294  0.9101487  0.4142816 -0.4142816  0.9101487 
    5     3     2 -0.2509556 -7.8700398  0.9387197  0.3446815 -0.3446815  0.9387197 
    5     3     3  0.2384169 -11.907826  0.9555835  0.2947206 -0.2947206  0.9555835 
    5     3     4 -2.0877599 -11.733610  0.9798909  0.1995338 -0.1995338  0.9798909 
    5     4     1  0.0738328 -9.0435268  0.7966454  0.6044469 -0.6044469  0.7966454 
    5     4     2  0.9982477 -8.3206823  0.7642943  0.6448676 -0.6448676  0.7642943 
    5     4     3 -0.7836487 -8.9390504  0.7909964  0.6118208 -0.6118208  0.7909964 
    5     4     4  0.1523373 -8.2277770  0.7545784  0.6562099 -0.6562099  0.7545784 
    6     1     1  1.1553522 -0.0449056  0.9987185  0.0506105 -0.0506105  0.9987185 
    6     1     2  1.1538517 -0.0455111  0.9989489  0.0458377 -0.0458377  0.9989489 
    6     1     3  1.1832498 -0.0365190  0.9986781  0.0514009 -0.0514009  0.9986781 
    6     1     4  1.1820570 -0.0370449  0.9989386  0.0460613 -0.0460613  0.9989386 
    6     2     1  1.1263123 -0.0477347  0.9982761  0.0586933 -0.0586933  0.9982761 
    6     2     2  1.0842767 -0.0607989  0.9980684  0.0621245 -0.0621245  0.9980684 
    6     2     3  1.1248350 -0.0408098  0.9988769  0.0473806 -0.0473806  0.9988769 
    6     2     4  1.0831601 -0.0556645  0.9985550  0.0537399 -0.0537399  0.9985550 
    6     3     1  1.1297119 -0.0480684  0.9990321  0.0439861 -0.0439861  0.9990321 
    6     3     2  1.1295408 -0.0344881  0.9985981  0.0529320 -0.0529320  0.9985981 
    6     3     3  1.1020164 -0.0585147  0.9992519  0.0386729 -0.0386729  0.9992519 
    6     3     4  1.1002691 -0.0500412  0.9990182  0.0443007 -0.0443007  0.9990182 
    6     4     1  1.1564667 -0.0492255  0.9992931  0.0375950 -0.0375950  0.9992931 
    6     4     2  1.1841203 -0.0395027  0.9991343  0.0416008 -0.0416008  0.9991343 
    6     4     3  1.1568280 -0.0439347  0.9991060  0.0422745 -0.0422745  0.9991060 
    6     4     4  1.1862835 -0.0327051  0.9988796  0.0473240 -0.0473240  0.9988796 
    6     5     1  1.1303341 -0.0397206  0.9983679  0.0571103 -0.0571103  0.9983679 
    6     5     2  1.1332467 -0.0501468  0.9984667  0.0553549 -0.0553549  0.9984667 
    6     5     3  1.1206551 -0.0534102  0.9980489  0.0624378 -0.0624378  0.9980489 
    6     5     4  1.1256081 -0.0574505  0.9982250  0.0595557 -0.0595557  0.9982250 
    6     6     1  1.1440088 -0.0484261  0.9987994  0.0489874 -0.0489874  0.9987994 
    6     6     2  1.1805455 -0.0375062  0.9987970  0.0490355 -0.0490355  0.9987970 
    6     6     3  1.1546548 -0.0459634  0.9984654  0.0553798 -0.0553798  0.9984654 
    6     6     4  1.1836793 -0.0372431  0.9984893  0.0549460 -0.0549460  0.9984893 
    6     7     1  1.1477670 -0.0457493  0.9984019  0.0565131 -0.0565131  0.9984019 
    6     7     2  1.1544866 -0.0458419  0.9986681  0.0515958 -0.0515958  0.9986681 
    6     7     3  1.1793212 -0.0359840  0.9982920  0.0584222 -0.0584222  0.9982920 
    6     7     4  1.1795613 -0.0378619  0.9985598  0.0536493 -0.0536493  0.9985598 
    6     8     1  1.0343774 -0.0685078  0.9988962  0.0469727 -0.0469727  0.9988962 
    6     8     2  1.0781156 -0.0552008  0.9989830  0.0450890 -0.0450890  0.9989830 
    6     8     3  1.0314887 -0.0725361  0.9982049  0.0598922 -0.0598922  0.9982049 
    6     8     4  1.0698054 -0.0606865  0.9983476  0.0574644 -0.0574644  0.9983476 
    6     9     1  1.0198693 -0.0741161  0.9974460  0.0714241 -0.0714241  0.9974460 
    6     9     2  1.0231045 -0.0662498  0.9982465  0.0591946 -0.0591946  0.9982465 
    6     9     3  1.0618774 -0.0609597  0.9976991  0.0677982 -0.0677982  0.9976991 
    6     9     4  1.0614286 -0.0542683  0.9984308  0.0559993 -0.0559993  0.9984308 
    6    10     1  0.9928943 -0.0754781  0.9969379  0.0781976 -0.0781976  0.9969379 
    6    10     2  0.9561723 -0.0871010  0.9966735  0.0814977 -0.0814977  0.9966735 
    6    10     3  0.9961572 -0.0694563  0.9978183  0.0660205 -0.0660205  0.9978183 
    6    10     4  0.9582822 -0.0813701  0.9976014  0.0692210 -0.0692210  0.9976014 
    6    11     1  1.0067843 -0.0665618  0.9987032  0.0509115 -0.0509115  0.9987032 
    6    11     2  1.0039322 -0.0763375  0.9979916  0.0633462 -0.0633462  0.9979916 
    6    11     3  0.9678496 -0.0790288  0.9984725  0.0552505 -0.0552505  0.9984725 
    6    11     4  0.9639915 -0.0893733  0.9976709  0.0682111 -0.0682111  0.9976709 
    6    12     1  1.0129075 -0.0700199  0.9974559  0.0712861 -0.0712861  0.9974559 
    6    12     2  1.0544514 -0.0572355  0.9976291  0.0688206 -0.0688206  0.9976291 
    6    12     3  1.0141976 -0.0737492  0.9964865  0.0837535 -0.0837535  0.9964865 
    6    12     4  1.0519257 -0.0620190  0.9967037  0.0811276 -0.0811276  0.9967037 
    6    13     1  1.0078781 -0.0746121  0.9954964  0.0947998 -0.0947998  0.9954964 
    6    13     2  1.0069201 -0.0662844  0.9965486  0.0830114 -0.0830114  0.9965486 
    6    13     3  1.0501531 -0.0608995  0.9959439  0.0899767 -0.0899767  0.9959439 
    6    13     4  1.0453985 -0.0538011  0.9969017  0.0786573 -0.0786573  0.9969017 
    6    14     1  0.9824950 -0.0761893  0.9945788  0.1039853 -0.1039853  0.9945788 
    6    14     2  0.9451379 -0.0883587  0.9941265  0.1082239 -0.1082239  0.9941265 
    6    14     3  0.9815822 -0.0698512  0.9957674  0.0919094 -0.0919094  0.9957674 
    6    14     4  0.9432393 -0.0822669  0.9953706  0.0961114 -0.0961114  0.9953706 
    6    15     1  0.9878260 -0.0687378  0.9969406  0.0781630 -0.0781630  0.9969406 
    6    15     2  0.9886081 -0.0777776  0.9959184  0.0902586 -0.0902586  0.9959184 
    6    15     3  0.9492361 -0.0813646  0.9965488  0.0830094 -0.0830094  0.9965488 
    6    15     4  0.9492149 -0.0909359  0.9954199  0.0955993 -0.0955993  0.9954199 
    6    16     1  1.1150408 -0.0458748  0.9980166  0.0629511 -0.0629511  0.9980166 
    6    16     2  1.1138017 -0.0421439  0.9973063  0.0733491 -0.0733491  0.9973063 
    6    16     3  1.0781130 -0.0571514  0.9981415  0.0609394 -0.0609394  0.9981415 
    6    16     4  1.0771918 -0.0543179  0.9976311  0.0687910 -0.0687910  0.9976311 
    6    17     1  1.1443483 -0.0458234  0.9984774  0.0551625 -0.0551625  0.9984774 
    6    17     2  1.1724520 -0.0372784  0.9983992  0.0565598 -0.0565598  0.9983992 
    6    17     3  1.1439936 -0.0437295  0.9981796  0.0603114 -0.0603114  0.9981796 
    6    17     4  1.1737597 -0.0343542  0.9980428  0.0625340 -0.0625340  0.9980428 
    6    18     1  1.1411874 -0.0468242  0.9976358  0.0687231 -0.0687231  0.9976358 
    6    18     2  1.1390712 -0.0443435  0.9979737  0.0636278 -0.0636278  0.9979737 
    6    18     3  1.1702217 -0.0379223  0.9977680  0.0667757 -0.0667757  0.9977680 
    6    18     4  1.1694155 -0.0346965  0.9981353  0.0610408 -0.0610408  0.9981353 
    6    19     1  1.1139666 -0.0476512  0.9970264  0.0770604 -0.0770604  0.9970264 
    6    19     2  1.0714489 -0.0621022  0.9965655  0.0828079 -0.0828079  0.9965655 
    6    19     3  1.1093455 -0.0389480  0.9977900  0.0664459 -0.0664459  0.9977900 
    6    19     4  1.0675415 -0.0555630  0.9971999  0.0747823 -0.0747823  0.9971999 
    6    20     1  0.9776556 -0.0679039  0.9947190  0.1026360 -0.1026360  0.9947190 
    6    20     2  0.9827900 -0.0763476  0.9934707  0.1140876 -0.1140876  0.9934707 
    6    20     3  0.9390950 -0.0810709  0.9941064  0.1084089 -0.1084089  0.9941064 
    6    20     4  0.9438687 -0.0897980  0.9927623  0.1200959 -0.1200959  0.9927623 
    6    21     1  1.0015329 -0.0682059  0.9955595  0.0941340 -0.0941340  0.9955595 
    6    21     2  1.0431382 -0.0549289  0.9959226  0.0902115 -0.0902115  0.9959226 
    6    21     3  1.0060279 -0.0730979  0.9943596  0.1060612 -0.1060612  0.9943596 
    6    21     4  1.0424179 -0.0613374  0.9947502  0.1023325 -0.1023325  0.9947502 
    6    22     1  1.0061367 -0.0721897  0.9933685  0.1149744 -0.1149744  0.9933685 
    6    22     2  0.9993790 -0.0650890  0.9945550  0.1042127 -0.1042127  0.9945550 
    6    22     3  1.0418406 -0.0600444  0.9939296  0.1100177 -0.1100177  0.9939296 
    6    22     4  1.0346426 -0.0528663  0.9950864  0.0990107 -0.0990107  0.9950864 
    6    23     1  0.9859108 -0.0726106  0.9922028  0.1246335 -0.1246335  0.9922028 
    6    23     2  0.9472151 -0.0861845  0.9914049  0.1308295 -0.1308295  0.9914049 
    6    23     3  0.9783626 -0.0647518  0.9935740  0.1131848 -0.1131848  0.9935740 
    6    23     4  0.9388241 -0.0785529  0.9928369  0.1194777 -0.1194777  0.9928369 
    6    24     1  1.1017161 -0.0452997  0.9966122  0.0822438 -0.0822438  0.9966122 
    6    24     2  1.1009967 -0.0426426  0.9957399  0.0922069 -0.0922069  0.9957399 
    6    24     3  1.0655553 -0.0562889  0.9967429  0.0806443 -0.0806443  0.9967429 
    6    24     4  1.0655199 -0.0540257  0.9960762  0.0884996 -0.0884996  0.9960762 
    6    25     1  1.1305166 -0.0442810  0.9974161  0.0718410 -0.0718410  0.9974161 
    6    25     2  1.1602765 -0.0354088  0.9973635  0.0725677 -0.0725677  0.9973635 
    6    25     3  1.1301317 -0.0425627  0.9969694  0.0777942 -0.0777942  0.9969694 
    6    25     4  1.1618496 -0.0328395  0.9968435  0.0793921 -0.0793921  0.9968435 
    6    26     1  1.1207530 -0.0480877  0.9961676  0.0874645 -0.0874645  0.9961676 
    6    26     2  1.1197651 -0.0384217  0.9966316  0.0820091 -0.0820091  0.9966316 
    6    26     3  1.1499779 -0.0373016  0.9966555  0.0817181 -0.0817181  0.9966555 
    6    26     4  1.1509980 -0.0236221  0.9972595  0.0739829 -0.0739829  0.9972595 
    6    27     1  1.1041504 -0.0468489  0.9952044  0.0978177 -0.0978177  0.9952044 
    6    27     2  1.0624406 -0.0598955  0.9948793  0.1010701 -0.1010701  0.9948793 
    6    27     3  1.0969038 -0.0433188  0.9962178  0.0868915 -0.0868915  0.9962178 
    6    27     4  1.0551401 -0.0567188  0.9958687  0.0908046 -0.0908046  0.9958687 
    6    28     1  1.1336793 -0.0452127  0.9972879  0.0735992 -0.0735992  0.9972879 
    6    28     2  1.1396101 -0.0440874  0.9976871  0.0679741 -0.0679741  0.9976871 
    6    28     3  1.1635950 -0.0362240  0.9972558  0.0740334 -0.0740334  0.9972558 
    6    28     4  1.1637432 -0.0367587  0.9976183  0.0689758 -0.0689758  0.9976183 
    6    29     1  1.1175612 -0.0386472  0.9971178  0.0758692 -0.0758692  0.9971178 
    6    29     2  1.1193133 -0.0485295  0.9973006  0.0734269 -0.0734269  0.9973006 
    6    29     3  1.1098054 -0.0521743  0.9967625  0.0804026 -0.0804026  0.9967625 
    6    29     4  1.1132233 -0.0557871  0.9970063  0.0773202 -0.0773202  0.9970063 
    6    30     1  1.1309847 -0.0467126  0.9977742  0.0666837 -0.0666837  0.9977742 
    6    30     2  1.1669833 -0.0356377  0.9979262  0.0643687 -0.0643687  0.9979262 
    6    30     3  1.1415071 -0.0470546  0.9973619  0.0725893 -0.0725893  0.9973619 
    6    30     4  1.1695306 -0.0380905  0.9975366  0.0701474 -0.0701474  0.9975366 
    6    31     1  0.9813528 -0.0616180  0.9926449  0.1210628 -0.1210628  0.9926449 
    6    31     2  0.9927755 -0.0686518  0.9912702  0.1318462 -0.1318462  0.9912702 
    6    31     3  0.9427822 -0.0754019  0.9918201  0.1276438 -0.1276438  0.9918201 
    6    31     4  0.9560216 -0.0819166  0.9904063  0.1381861 -0.1381861  0.9904063 
    6    32     1  1.0014519 -0.0625810  0.9938320  0.1108961 -0.1108961  0.9938320 
    6    32     2  1.0384117 -0.0492727  0.9945038  0.1047005 -0.1047005  0.9945038 
    6    32     3  1.0124864 -0.0702944  0.9925960  0.1214630 -0.1214630  0.9925960 
    6    32     4  1.0515575 -0.0560130  0.9933923  0.1147682 -0.1147682  0.9933923 
    6    33     1  1.0167117 -0.0671350  0.9917842  0.1279224 -0.1279224  0.9917842 
    6    33     2  1.0072520 -0.0585962  0.9931704  0.1166726 -0.1166726  0.9931704 
    6    33     3  1.0574054 -0.0521922  0.9926638  0.1209072 -0.1209072  0.9926638 
    6    33     4  1.0481102 -0.0437419  0.9939640  0.1097070 -0.1097070  0.9939640 
    6    34     1  0.9964286 -0.0651853  0.9904269  0.1380385 -0.1380385  0.9904269 
    6    34     2  0.9611319 -0.0782976  0.9894887  0.1446105 -0.1446105  0.9894887 
    6    34     3  0.9869102 -0.0565026  0.9918994  0.1270260 -0.1270260  0.9918994 
    6    34     4  0.9514075 -0.0695684  0.9910369  0.1335887 -0.1335887  0.9910369 
    6    35     1  1.0978447 -0.0337520  0.9959198  0.0902426 -0.0902426  0.9959198 
    6    35     2  1.1070912 -0.0446305  0.9949911  0.0999637 -0.0999637  0.9949911 
    6    35     3  1.0605763 -0.0488659  0.9951787  0.0980788 -0.0980788  0.9951787 
    6    35     4  1.0713025 -0.0581565  0.9943004  0.1066146 -0.1066146  0.9943004 
    6    36     1  1.1200402 -0.0432257  0.9964152  0.0845979 -0.0845979  0.9964152 
    6    36     2  1.1478969 -0.0297819  0.9970013  0.0773842 -0.0773842  0.9970013 
    6    36     3  1.1256491 -0.0554729  0.9957084  0.0925458 -0.0925458  0.9957084 
    6    36     4  1.1523757 -0.0420493  0.9963468  0.0853999 -0.0853999  0.9963468 
    6    37     1  1.1348290 -0.0528106  0.9953678  0.0961401 -0.0961401  0.9953678 
    6    37     2  1.1269087 -0.0333883  0.9960170  0.0891638 -0.0891638  0.9960170 
    6    37     3  1.1748854 -0.0300880  0.9964827  0.0837986 -0.0837986  0.9964827 
    6    37     4  1.1573882 -0.0159335  0.9968359  0.0794866 -0.0794866  0.9968359 
    6    38     1  1.1132805 -0.0444427  0.9945549  0.1042142 -0.1042142  0.9945549 
    6    38     2  1.0781961 -0.0589736  0.9937515  0.1116155 -0.1116155  0.9937515 
    6    38     3  1.1042795 -0.0339997  0.9955949  0.0937590 -0.0937590  0.9955949 
    6    38     4  1.0696174 -0.0478225  0.9949144  0.1007236 -0.1007236  0.9949144 
    6    39     1  1.0088945 -0.0543547  0.9923979  0.1230705 -0.1230705  0.9923979 
    6    39     2  1.0475062 -0.0398030  0.9932859  0.1156857 -0.1156857  0.9932859 
    6    39     3  1.0106140 -0.0677046  0.9908484  0.1349797 -0.1349797  0.9908484 
    6    39     4  1.0482626 -0.0531594  0.9918365  0.1275159 -0.1275159  0.9918365 
    6    40     1  0.9989195 -0.0669111  0.9895603  0.1441196 -0.1441196  0.9895603 
    6    40     2  0.9990579 -0.0522971  0.9912686  0.1318582 -0.1318582  0.9912686 
    6    40     3  1.0358888 -0.0525231  0.9906341  0.1365437 -0.1365437  0.9906341 
    6    40     4  1.0360245 -0.0382739  0.9922139  0.1245457 -0.1245457  0.9922139 
    6    41     1  0.9787140 -0.0646167  0.9877865  0.1558137 -0.1558137  0.9877865 
    6    41     2  0.9448551 -0.0779421  0.9865939  0.1631948 -0.1631948  0.9865939 
    6    41     3  0.9786893 -0.0507688  0.9895788  0.1439920 -0.1439920  0.9895788 
    6    41     4  0.9452382 -0.0636384  0.9885215  0.1510804 -0.1510804  0.9885215 
    6    42     1  0.9882076 -0.0521220  0.9909680  0.1340988 -0.1340988  0.9909680 
    6    42     2  0.9905140 -0.0647611  0.9893406  0.1456200 -0.1456200  0.9893406 
    6    42     3  0.9538432 -0.0651852  0.9899957  0.1410978 -0.1410978  0.9899957 
    6    42     4  0.9563217 -0.0780692  0.9882569  0.1528017 -0.1528017  0.9882569 
    6    43     1  1.0949574 -0.0423475  0.9929483  0.1185484 -0.1185484  0.9929483 
    6    43     2  1.0574847 -0.0568614  0.9920654  0.1257226 -0.1257226  0.9920654 
    6    43     3  1.0955268 -0.0282908  0.9943514  0.1061376 -0.1061376  0.9943514 
    6    43     4  1.0577642 -0.0421701  0.9936244  0.1127412 -0.1127412  0.9936244 
    6    44     1  1.1056025 -0.0272501  0.9952480  0.0973727 -0.0973727  0.9952480 
    6    44     2  1.1067705 -0.0440175  0.9940649  0.1087884 -0.1087884  0.9940649 
    6    44     3  1.0697148 -0.0418523  0.9944550  0.1051634 -0.1051634  0.9944550 
    6    44     4  1.0693010 -0.0599927  0.9930924  0.1173352 -0.1173352  0.9930924 
    6    45     1  1.1310876 -0.0370475  0.9962182  0.0868862 -0.0868862  0.9962182 
    6    45     2  1.1769347 -0.0201527  0.9968490  0.0793227 -0.0793227  0.9968490 
    6    45     3  1.1331862 -0.0548661  0.9947583  0.1022541 -0.1022541  0.9947583 
    6    45     4  1.1758335 -0.0361379  0.9956874  0.0927713 -0.0927713  0.9956874 
    6    46     1  1.1169663 -0.0444467  0.9942128  0.1074287 -0.1074287  0.9942128 
    6    46     2  1.1172162 -0.0331757  0.9955437  0.0943016 -0.0943016  0.9955437 
    6    46     3  1.1561758 -0.0310788  0.9947487  0.1023478 -0.1023478  0.9947487 
    6    46     4  1.1573220 -0.0197069  0.9959991  0.0893629 -0.0893629  0.9959991 
    6    47     1  1.2184256 -0.0260217  0.9963107  0.0858200 -0.0858200  0.9963107 
    6    47     2  1.1789218 -0.0397359  0.9958467  0.0910458 -0.0910458  0.9958467 
    6    47     3  1.2212748 -0.0129369  0.9973481  0.0727794 -0.0727794  0.9973481 
    6    47     4  1.1814414 -0.0261083  0.9970057  0.0773282 -0.0773282  0.9970057 
    6    48     1  1.2371867 -0.0106950  0.9978082  0.0661729 -0.0661729  0.9978082 
    6    48     2  1.2366220 -0.0187986  0.9966897  0.0812999 -0.0812999  0.9966897 
    6    48     3  1.1972561 -0.0231535  0.9976256  0.0688713 -0.0688713  0.9976256 
    6    48     4  1.1974974 -0.0298074  0.9966474  0.0818161 -0.0818161  0.9966474 
    6    49     1  1.2677532 -0.0238346  0.9985312  0.0541793 -0.0541793  0.9985312 
    6    49     2  1.3102159 -0.0106389  0.9986813  0.0513394 -0.0513394  0.9986813 
    6    49     3  1.2655270 -0.0348033  0.9975746  0.0696059 -0.0696059  0.9975746 
    6    49     4  1.3083545 -0.0196627  0.9979477  0.0640335 -0.0640335  0.9979477 
    6    50     1  1.2428219 -0.0250166  0.9973283  0.0730504 -0.0730504  0.9973283 
    6    50     2  1.2445560 -0.0186001  0.9981754  0.0603804 -0.0603804  0.9981754 
    6    50     3  1.2821455 -0.0131251  0.9974558  0.0712879 -0.0712879  0.9974558 
    6    50     4  1.2848510 -0.0062905  0.9982925  0.0584124 -0.0584124  0.9982925 
    6    51     1  1.2749163 -0.0299366  0.9978249  0.0659207 -0.0659207  0.9978249 
    6    51     2  1.2722211 -0.0112075  0.9985181  0.0544203 -0.0544203  0.9985181 
    6    51     3  1.3183176 -0.0122781  0.9983240  0.0578723 -0.0578723  0.9983240 
    6    51     4  1.3000223  0.0008317  0.9988115  0.0487400 -0.0487400  0.9988115 
    6    52     1  1.2581671 -0.0188273  0.9973236  0.0731132 -0.0731132  0.9973236 
    6    52     2  1.2274755 -0.0292677  0.9976180  0.0689809 -0.0689809  0.9976180 
    6    52     3  1.2542590 -0.0319428  0.9979699  0.0636870 -0.0636870  0.9979699 
    6    52     4  1.2344555 -0.0392669  0.9981638  0.0605730 -0.0605730  0.9981638 
    6    53     1  1.2717232 -0.0151019  0.9984326  0.0559669 -0.0559669  0.9984326 
    6    53     2  1.2718604 -0.0224293  0.9979295  0.0643169 -0.0643169  0.9979295 
    6    53     3  1.2577888 -0.0190910  0.9983909  0.0567058 -0.0567058  0.9983909 
    6    53     4  1.2552011 -0.0275378  0.9978444  0.0656242 -0.0656242  0.9978444 
    6    54     1  1.2765428 -0.0259609  0.9986481  0.0519809 -0.0519809  0.9986481 
    6    54     2  1.2914028 -0.0215129  0.9986823  0.0513183 -0.0513183  0.9986823 
    6    54     3  1.2813131 -0.0245484  0.9981358  0.0610316 -0.0610316  0.9981358 
    6    54     4  1.2997662 -0.0190045  0.9981671  0.0605189 -0.0605189  0.9981671 
    6    55     1  1.3293145 -0.0199347  0.9987176  0.0506281 -0.0506281  0.9987176 
    6    55     2  1.3279578 -0.0365957  0.9987750  0.0494823 -0.0494823  0.9987750 
    6    55     3  1.3424785 -0.0052168  0.9983996  0.0565527 -0.0565527  0.9983996 
    6    55     4  1.3365630 -0.0237676  0.9985711  0.0534389 -0.0534389  0.9985711 
    6    56     1  1.3191004 -0.0007862  0.9989189  0.0464858 -0.0464858  0.9989189 
    6    56     2  1.3226192 -0.0159445  0.9984972  0.0548027 -0.0548027  0.9984972 
    6    56     3  1.3040638 -0.0107679  0.9986754  0.0514541 -0.0514541  0.9986754 
    6    56     4  1.3074338 -0.0221624  0.9983351  0.0576801 -0.0576801  0.9983351 
    6    57     1  1.3274546 -0.0192929  0.9990536  0.0434968 -0.0434968  0.9990536 
    6    57     2  1.3442521 -0.0143266  0.9990105  0.0444756 -0.0444756  0.9990105 
    6    57     3  1.3329544 -0.0182826  0.9986776  0.0514114 -0.0514114  0.9986776 
    6    57     4  1.3462604 -0.0142953  0.9986799  0.0513656 -0.0513656  0.9986799 
    6    58     1  1.3490033 -0.0153112  0.9984961  0.0548221 -0.0548221  0.9984961 
    6    58     2  1.3065043 -0.0306585  0.9981648  0.0605558 -0.0605558  0.9981648 
    6    58     3  1.3546652  0.0002289  0.9991241  0.0418444 -0.0418444  0.9991241 
    6    58     4  1.3130649 -0.0134886  0.9989303  0.0462420 -0.0462420  0.9989303 
    6    59     1  1.3752123  0.0060416  0.9993112  0.0371089 -0.0371089  0.9993112 
    6    59     2  1.3708707 -0.0068071  0.9986458  0.0520249 -0.0520249  0.9986458 
    6    59     3  1.3327765 -0.0078242  0.9991621  0.0409270 -0.0409270  0.9991621 
    6    59     4  1.3299024 -0.0182850  0.9985735  0.0533948 -0.0533948  0.9985735 
    6    60     1  1.4076425 -0.0083222  0.9995882  0.0286953 -0.0286953  0.9995882 
    6    60     2  1.4537178  0.0093393  0.9997613  0.0218471 -0.0218471  0.9997613 
    6    60     3  1.3999799 -0.0304297  0.9990843  0.0427858 -0.0427858  0.9990843 
    6    60     4  1.4472056 -0.0096137  0.9994222  0.0339879 -0.0339879  0.9994222 
    6    61     1  1.3740799 -0.0251815  0.9989291  0.0462675 -0.0462675  0.9989291 
    6    61     2  1.3811245 -0.0053899  0.9995056  0.0314410 -0.0314410  0.9995056 
    6    61     3  1.4207463 -0.0081597  0.9991985  0.0400284 -0.0400284  0.9991985 
    6    61     4  1.4269146  0.0109272  0.9996713  0.0256385 -0.0256385  0.9996713 
    6    62     1  1.4144587 -0.0193587  0.9991539  0.0411278 -0.0411278  0.9991539 
    6    62     2  1.4145650 -0.0027200  0.9995445  0.0301806 -0.0301806  0.9995445 
    6    62     3  1.4618472 -0.0008458  0.9994265  0.0338635 -0.0338635  0.9994265 
    6    62     4  1.4447860  0.0105936  0.9997003  0.0244796 -0.0244796  0.9997003 
    6    63     1  1.3968056 -0.0058430  0.9988882  0.0471417 -0.0471417  0.9988882 
    6    63     2  1.3661464 -0.0164051  0.9990519  0.0435355 -0.0435355  0.9990519 
    6    63     3  1.3959095 -0.0169048  0.9992682  0.0382511 -0.0382511  0.9992682 
    6    63     4  1.3756773 -0.0241364  0.9993640  0.0356597 -0.0356597  0.9993640 
    6    64     1  1.4192339 -0.0047150  0.9994463  0.0332735 -0.0332735  0.9994463 
    6    64     2  1.4174986 -0.0094305  0.9991767  0.0405705 -0.0405705  0.9991767 
    6    64     3  1.4052892 -0.0086729  0.9994422  0.0333948 -0.0333948  0.9994422 
    6    64     4  1.4005644 -0.0144933  0.9991507  0.0412054 -0.0412054  0.9991507 
    6    65     1  1.4256241 -0.0148145  0.9995864  0.0287594 -0.0287594  0.9995864 
    6    65     2  1.4420217 -0.0099865  0.9995944  0.0284786 -0.0284786  0.9995944 
    6    65     3  1.4279072 -0.0126464  0.9993001  0.0374060 -0.0374060  0.9993001 
    6    65     4  1.4479626 -0.0066810  0.9993048  0.0372815 -0.0372815  0.9993048 
    6    66     1  1.4771760 -0.0127944  0.9996179  0.0276429 -0.0276429  0.9996179 
    6    66     2  1.4777659 -0.0262016  0.9996363  0.0269679 -0.0269679  0.9996363 
    6    66     3  1.4888184 -0.0002173  0.9994814  0.0322020 -0.0322020  0.9994814 
    6    66     4  1.4852320 -0.0154634  0.9995486  0.0300429 -0.0300429  0.9995486 
    6    67     1  1.4703209  0.0047695  0.9996999  0.0244963 -0.0244963  0.9996999 
    6    67     2  1.4725789 -0.0045695  0.9994574  0.0329370 -0.0329370  0.9994574 
    6    67     3  1.4539597 -0.0036662  0.9995874  0.0287220 -0.0287220  0.9995874 
    6    67     4  1.4564360 -0.0104060  0.9993897  0.0349312 -0.0349312  0.9993897 
    6    68     1  1.4802145 -0.0113438  0.9997128  0.0239662 -0.0239662  0.9997128 
    6    68     2  1.4949325 -0.0062503  0.9996728  0.0255787 -0.0255787  0.9996728 
    6    68     3  1.4837321 -0.0064117  0.9995451  0.0301608 -0.0301608  0.9995451 
    6    68     4  1.4955456 -0.0027929  0.9995279  0.0307231 -0.0307231  0.9995279 
    6    69     1  1.4991782 -0.0069803  0.9997545  0.0221569 -0.0221569  0.9997545 
    6    69     2  1.4453303 -0.0376987  0.9993777  0.0352745 -0.0352745  0.9993777 
    6    69     3  1.5050364  0.0257074  0.9999659  0.0082538 -0.0082538  0.9999659 
    6    69     4  1.4557631  0.0008325  0.9998178  0.0190904 -0.0190904  0.9998178 
    6    70     1  1.5276322  0.0349609  0.9999859  0.0053048 -0.0053048  0.9999859 
    6    70     2  1.5178115 -0.0087303  0.9998008  0.0199565 -0.0199565  0.9998008 
    6    70     3  1.4776393  0.0045709  0.9998310  0.0183865 -0.0183865  0.9998310 
    6    70     4  1.4650448 -0.0378566  0.9994681  0.0326107 -0.0326107  0.9994681 
    6    71     1  1.5550264 -0.0035476  0.9999193  0.0127007 -0.0127007  0.9999193 
    6    71     2  1.5946512  0.0325333  0.9999998 -0.0006047  0.0006047  0.9999998 
    6    71     3  1.5454802 -0.0500145  0.9996665  0.0258261 -0.0258261  0.9996665 
    6    71     4  1.5851390 -0.0049975  0.9999447  0.0105121 -0.0105121  0.9999447 
    6    72     1  1.5279824 -0.0517806  0.9997645  0.0217026 -0.0217026  0.9997645 
    6    72     2  1.5322564  0.0052428  0.9999862  0.0052609 -0.0052609  0.9999862 
    6    72     3  1.5875244 -0.0075786  0.9999886  0.0047783 -0.0047783  0.9999886 
    6    72     4  1.5788997  0.0315419  0.9999822 -0.0059748  0.0059748  0.9999822 
    6    73     1  1.5500652 -0.0276236  0.9996389  0.0268724 -0.0268724  0.9996389 
    6    73     2  1.5544172 -0.0095845  0.9996738  0.0255416 -0.0255416  0.9996738 
    6    73     3  1.5725613  0.0152168  0.9998439  0.0176712 -0.0176712  0.9998439 
    6    73     4  1.5692402  0.0192511  0.9998106  0.0194641 -0.0194641  0.9998106 
    6    74     1  1.5383345 -0.0096010  0.9997473  0.0224816 -0.0224816  0.9997473 
    6    74     2  1.5003935 -0.0227892  0.9996506  0.0264325 -0.0264325  0.9996506 
    6    74     3  1.5482281  0.0017455  0.9999326  0.0116072 -0.0116072  0.9999326 
    6    74     4  1.5259667 -0.0062394  0.9998984  0.0142565 -0.0142565  0.9998984 
    6    75     1  1.5535586 -0.0021259  0.9997199  0.0236671 -0.0236671  0.9997199 
    6    75     2  1.5541965  0.0091036  0.9997264  0.0233928 -0.0233928  0.9997264 
    6    75     3  1.5507683 -0.0021756  0.9997530  0.0222258 -0.0222258  0.9997530 
    6    75     4  1.5519432  0.0086446  0.9997526  0.0222437 -0.0222437  0.9997526 
    6    76     1  1.6215195 -0.0055319  0.9999970 -0.0024676  0.0024676  0.9999970 
    6    76     2  1.6060461 -0.0470083  0.9999964  0.0026711 -0.0026711  0.9999964 
    6    76     3  1.6330734  0.0518975  0.9999996  0.0008821 -0.0008821  0.9999996 
    6    76     4  1.6142182 -0.0088147  0.9999901  0.0044513 -0.0044513  0.9999901 
    6    77     1  1.6270623  0.0208954  0.9999950 -0.0031750  0.0031750  0.9999950 
    6    77     2  1.6257832 -0.0013594  0.9998277  0.0185651 -0.0185651  0.9998277 
    6    77     3  1.6018330  0.0075224  0.9999916  0.0040980 -0.0040980  0.9999916 
    6    77     4  1.5994941 -0.0113099  0.9997599  0.0219115 -0.0219115  0.9997599 
    6    78     1  1.6283807 -0.0350206  0.9999921 -0.0039861  0.0039861  0.9999921 
    6    78     2  1.6461836 -0.0207578  0.9999982  0.0018916 -0.0018916  0.9999982 
    6    78     3  1.6407063 -0.0033320  0.9999455  0.0104420 -0.0104420  0.9999455 
    6    78     4  1.6538389  0.0022763  0.9999217  0.0125108 -0.0125108  0.9999217 
    6    79     1  1.5181668 -0.0022799  0.9999935  0.0035960 -0.0035960  0.9999935 
    6    79     2  1.5850577  0.0208992  0.9999948 -0.0032179  0.0032179  0.9999948 
    6    79     3  1.5155895 -0.0215056  0.9997511  0.0223119 -0.0223119  0.9997511 
    6    79     4  1.5805789  0.0030932  0.9999059  0.0137191 -0.0137191  0.9999059 
    6    80     1  1.4860177 -0.0210532  0.9998138  0.0192981 -0.0192981  0.9998138 
    6    80     2  1.4914664 -0.0051885  0.9999981  0.0019497 -0.0019497  0.9999981 
    6    80     3  1.5441412 -0.0017996  0.9998974  0.0143268 -0.0143268  0.9998974 
    6    80     4  1.5482633  0.0122412  0.9999993 -0.0011607  0.0011607  0.9999993 
    6    81     1  1.4545960 -0.0012797  0.9994871  0.0320226 -0.0320226  0.9994871 
    6    81     2  1.4013335 -0.0188021  0.9993278  0.0366593 -0.0366593  0.9993278 
    6    81     3  1.4581872  0.0098007  0.9998330  0.0182725 -0.0182725  0.9998330 
    6    81     4  1.4056340 -0.0064364  0.9997721  0.0213506 -0.0213506  0.9997721 
    6    82     1  1.4847740  0.0161557  0.9999155  0.0129961 -0.0129961  0.9999155 
    6    82     2  1.4808648 -0.0046659  0.9996609  0.0260416 -0.0260416  0.9996609 
    6    82     3  1.4317763 -0.0037068  0.9997898  0.0205035 -0.0205035  0.9997898 
    6    82     4  1.4252058 -0.0285149  0.9993592  0.0357928 -0.0357928  0.9993592 
    6    83     1  1.3548297 -0.0074683  0.9993271  0.0366788 -0.0366788  0.9993271 
    6    83     2  1.4008049  0.0080554  0.9995005  0.0316022 -0.0316022  0.9995005 
    6    83     3  1.3505976 -0.0228851  0.9987777  0.0494277 -0.0494277  0.9987777 
    6    83     4  1.3967337 -0.0064802  0.9990498  0.0435832 -0.0435832  0.9990498 
    6    84     1  1.3295383 -0.0179866  0.9986504  0.0519356 -0.0519356  0.9986504 
    6    84     2  1.3323406 -0.0087123  0.9992438  0.0388816 -0.0388816  0.9992438 
    6    84     3  1.3727635 -0.0041566  0.9988201  0.0485628 -0.0485628  0.9988201 
    6    84     4  1.3754235  0.0045060  0.9993354  0.0364516 -0.0364516  0.9993354 
    6    85     1  1.3036199 -0.0087037  0.9978837  0.0650243 -0.0650243  0.9978837 
    6    85     2  1.2613116 -0.0223056  0.9976330  0.0687630 -0.0687630  0.9976330 
    6    85     3  1.3058639  0.0008240  0.9985902  0.0530812 -0.0530812  0.9985902 
    6    85     4  1.2631475 -0.0126322  0.9984069  0.0564245 -0.0564245  0.9984069 
    6    86     1  1.3278283  0.0007463  0.9988047  0.0488788 -0.0488788  0.9988047 
    6    86     2  1.3253800 -0.0083471  0.9981695  0.0604790 -0.0604790  0.9981695 
    6    86     3  1.2868533 -0.0122424  0.9986426  0.0520865 -0.0520865  0.9986426 
    6    86     4  1.2830920 -0.0218383  0.9979522  0.0639644 -0.0639644  0.9979522 
    6    87     1  1.2844186 -0.0011830  0.9983561  0.0573160 -0.0573160  0.9983561 
    6    87     2  1.2867508 -0.0062155  0.9975820  0.0694987 -0.0694987  0.9975820 
    6    87     3  1.2411636 -0.0143696  0.9982358  0.0593747 -0.0593747  0.9982358 
    6    87     4  1.2440513 -0.0194718  0.9973965  0.0721131 -0.0721131  0.9973965 
    6    88     1  1.3069376 -0.0114452  0.9991606  0.0409654 -0.0409654  0.9991606 
    6    88     2  1.3512743  0.0017788  0.9991754  0.0406012 -0.0406012  0.9991754 
    6    88     3  1.3099439 -0.0136672  0.9985352  0.0541054 -0.0541054  0.9985352 
    6    88     4  1.3550747 -0.0000631  0.9985958  0.0529749 -0.0529749  0.9985958 
    6    89     1  1.2885598 -0.0122121  0.9984939  0.0548629 -0.0548629  0.9984939 
    6    89     2  1.2878550 -0.0104215  0.9990661  0.0432077 -0.0432077  0.9990661 
    6    89     3  1.3312572  0.0005334  0.9985110  0.0545509 -0.0545509  0.9985110 
    6    89     4  1.3310530  0.0024744  0.9990705  0.0431053 -0.0431053  0.9990705 
    6    90     1  1.2662231 -0.0054071  0.9974076  0.0719586 -0.0719586  0.9974076 
    6    90     2  1.2263017 -0.0175833  0.9972577  0.0740078 -0.0740078  0.9972577 
    6    90     3  1.2655712 -0.0001723  0.9981738  0.0604073 -0.0604073  0.9981738 
    6    90     4  1.2249860 -0.0123647  0.9980770  0.0619859 -0.0619859  0.9980770 
    6    91     1  1.4271752  0.0064571  0.9997647  0.0216926 -0.0216926  0.9997647 
    6    91     2  1.4287997  0.0032821  0.9993877  0.0349886 -0.0349886  0.9993877 
    6    91     3  1.3753814 -0.0087986  0.9997707  0.0214146 -0.0214146  0.9997707 
    6    91     4  1.3786139 -0.0117980  0.9993487  0.0360857 -0.0360857  0.9993487 
    6    92     1  1.4557839 -0.0138712  1.0000000 -0.0001557  0.0001557  1.0000000 
    6    92     2  1.5109978  0.0029626  0.9999969  0.0024974 -0.0024974  0.9999969 
    6    92     3  1.4576864 -0.0117702  0.9998627  0.0165680 -0.0165680  0.9998627 
    6    92     4  1.5122180  0.0046113  0.9998531  0.0171428 -0.0171428  0.9998531 
    6    93     1  1.4274665 -0.0051003  0.9999231  0.0124027 -0.0124027  0.9999231 
    6    93     2  1.4292360 -0.0121890  1.0000000 -0.0000666  0.0000666  1.0000000 
    6    93     3  1.4751526  0.0110528  0.9998494  0.0173555 -0.0173555  0.9998494 
    6    93     4  1.4733980  0.0041961  0.9999777  0.0066839 -0.0066839  0.9999777 
    6    94     1  1.3894750  0.0054671  0.9993104  0.0371322 -0.0371322  0.9993104 
    6    94     2  1.3551785 -0.0051859  0.9993791  0.0352347 -0.0352347  0.9993791 
    6    94     3  1.3909294  0.0026984  0.9995983  0.0283417 -0.0283417  0.9995983 
    6    94     4  1.3548723 -0.0087346  0.9996684  0.0257519 -0.0257519  0.9996684 
    6    95     1  1.2670638 -0.0077172  0.9989230  0.0463977 -0.0463977  0.9989230 
    6    95     2  1.3085624  0.0046236  0.9989764  0.0452351 -0.0452351  0.9989764 
    6    95     3  1.2628877 -0.0133972  0.9983963  0.0566115 -0.0566115  0.9983963 
    6    95     4  1.3068224 -0.0003203  0.9984745  0.0552155 -0.0552155  0.9984745 
    6    96     1  1.2273759 -0.0149420  0.9980680  0.0621307 -0.0621307  0.9980680 
    6    96     2  1.2326819 -0.0077131  0.9987184  0.0506123 -0.0506123  0.9987184 
    6    96     3  1.2767366 -0.0000267  0.9982127  0.0597610 -0.0597610  0.9982127 
    6    96     4  1.2796411  0.0067196  0.9988480  0.0479855 -0.0479855  0.9988480 
    6    97     1  1.1988889 -0.0088279  0.9964264  0.0844650 -0.0844650  0.9964264 
    6    97     2  1.1693681 -0.0177089  0.9965025  0.0835633 -0.0835633  0.9965025 
    6    97     3  1.2026386 -0.0079470  0.9969339  0.0782483 -0.0782483  0.9969339 
    6    97     4  1.1799348 -0.0148117  0.9970250  0.0770794 -0.0770794  0.9970250 
    6    98     1  1.2388635 -0.0032238  0.9977432  0.0671453 -0.0671453  0.9977432 
    6    98     2  1.2358844 -0.0063649  0.9971697  0.0751841 -0.0751841  0.9971697 
    6    98     3  1.2080383 -0.0123213  0.9977322  0.0673090 -0.0673090  0.9977322 
    6    98     4  1.2048602 -0.0156516  0.9971141  0.0759180 -0.0759180  0.9971141 
    6    99     1  1.3501461  0.0033763  0.9993202  0.0368667 -0.0368667  0.9993202 
    6    99     2  1.3035825 -0.0114939  0.9991627  0.0409140 -0.0409140  0.9991627 
    6    99     3  1.3423626  0.0105518  0.9996601  0.0260717 -0.0260717  0.9996601 
    6    99     4  1.3046571 -0.0025634  0.9995311  0.0306206 -0.0306206  0.9995311 
    6   100     1  1.3684215  0.0053774  0.9995482  0.0300557 -0.0300557  0.9995482 
    6   100     2  1.3587880  0.0038975  0.9992409  0.0389562 -0.0389562  0.9992409 
    6   100     3  1.3298799 -0.0062685  0.9995771  0.0290803 -0.0290803  0.9995771 
    6   100     4  1.3281619 -0.0054629  0.9992998  0.0374159 -0.0374159  0.9992998 
    6   101     1  1.3783306 -0.0173041  0.9997337  0.0230761 -0.0230761  0.9997337 
    6   101     2  1.3674566 -0.0001720  0.9997985  0.0200715 -0.0200715  0.9997985 
    6   101     3  1.4048474  0.0113883  0.9999268  0.0121001 -0.0121001  0.9999268 
    6   101     4  1.3896619  0.0157209  0.9999169  0.0128885 -0.0128885  0.9999169 
    6   102     1  1.3613544 -0.0047363  0.9999569  0.0092895 -0.0092895  0.9999569 
    6   102     2  1.4353329  0.0218669  1.0000000 -0.0001665  0.0001665  1.0000000 
    6   102     3  1.3604414 -0.0230705  0.9995995  0.0282991 -0.0282991  0.9995995 
    6   102     4  1.4316842  0.0061385  0.9998774  0.0156613 -0.0156613  0.9998774 
    6   103     1  1.3257256 -0.0224721  0.9997252  0.0234406 -0.0234406  0.9997252 
    6   103     2  1.3331567 -0.0039351  0.9999865  0.0052053 -0.0052053  0.9999865 
    6   103     3  1.3894805 -0.0007084  0.9998657  0.0163905 -0.0163905  0.9998657 
    6   103     4  1.3943087  0.0149954  0.9999998  0.0006669 -0.0006669  0.9999998 
    6   104     1  1.2910403 -0.0018844  0.9990276  0.0440888 -0.0440888  0.9990276 
    6   104     2  1.2393927 -0.0190243  0.9987737  0.0495090 -0.0495090  0.9987737 
    6   104     3  1.2958166  0.0086901  0.9994843  0.0321111 -0.0321111  0.9994843 
    6   104     4  1.2474046 -0.0064237  0.9993556  0.0358940 -0.0358940  0.9993556 
    6   105     1  1.3253775  0.0147283  0.9996930  0.0247773 -0.0247773  0.9996930 
    6   105     2  1.3219787 -0.0015327  0.9993646  0.0356415 -0.0356415  0.9993646 
    6   105     3  1.2827281 -0.0007721  0.9995103  0.0312910 -0.0312910  0.9995103 
    6   105     4  1.2717936 -0.0212548  0.9990165  0.0443393 -0.0443393  0.9990165 
    6   106     1  1.2077281 -0.0078468  0.9983569  0.0573020 -0.0573020  0.9983569 
    6   106     2  1.2459550  0.0040784  0.9985544  0.0537505 -0.0537505  0.9985544 
    6   106     3  1.1980076 -0.0191004  0.9977522  0.0670111 -0.0670111  0.9977522 
    6   106     4  1.2380040 -0.0062626  0.9980242  0.0628303 -0.0628303  0.9980242 
    6   107     1  1.1560632 -0.0220226  0.9971184  0.0758617 -0.0758617  0.9971184 
    6   107     2  1.1633064 -0.0135009  0.9979337  0.0642524 -0.0642524  0.9979337 
    6   107     3  1.2015311 -0.0079100  0.9973631  0.0725731 -0.0725731  0.9973631 
    6   107     4  1.2078013  0.0002670  0.9981252  0.0612055 -0.0612055  0.9981252 
    6   108     1  1.1191806 -0.0130466  0.9946357  0.1034402 -0.1034402  0.9946357 
    6   108     2  1.0783562 -0.0254672  0.9943729  0.1059367 -0.1059367  0.9943729 
    6   108     3  1.1256443 -0.0054644  0.9958150  0.0913922 -0.0913922  0.9958150 
    6   108     4  1.0845834 -0.0182073  0.9955416  0.0943232 -0.0943232  0.9955416 
    6   109     1  1.1621364 -0.0037585  0.9964073  0.0846911 -0.0846911  0.9964073 
    6   109     2  1.1552433 -0.0088396  0.9955549  0.0941834 -0.0941834  0.9955549 
    6   109     3  1.1250638 -0.0147165  0.9963550  0.0853033 -0.0853033  0.9963550 
    6   109     4  1.1201577 -0.0189060  0.9955725  0.0939967 -0.0939967  0.9955725 
    6   110     1  1.1558620 -0.0186179  0.9965471  0.0830298 -0.0830298  0.9965471 
    6   110     2  1.1859372 -0.0096475  0.9963198  0.0857143 -0.0857143  0.9963198 
    6   110     3  1.1592002 -0.0178694  0.9957657  0.0919271 -0.0919271  0.9957657 
    6   110     4  1.1853044 -0.0100679  0.9957125  0.0925021 -0.0925021  0.9957125 
    6   111     1  1.1569628 -0.0097586  0.9952078  0.0977822 -0.0977822  0.9952078 
    6   111     2  1.1310818 -0.0256972  0.9943197  0.1064347 -0.1064347  0.9943197 
    6   111     3  1.1323447 -0.0081118  0.9952021  0.0978404 -0.0978404  0.9952021 
    6   111     4  1.1195421 -0.0199627  0.9945614  0.1041516 -0.1041516  0.9945614 
    6   112     1  1.1370372 -0.0149809  0.9951948  0.0979145 -0.0979145  0.9951948 
    6   112     2  1.1442092 -0.0177913  0.9942394  0.1071818 -0.1071818  0.9942394 
    6   112     3  1.1019273 -0.0271551  0.9946836  0.1029779 -0.1029779  0.9946836 
    6   112     4  1.1136398 -0.0280510  0.9938379  0.1108430 -0.1108430  0.9938379 
    6   113     1  1.0597240 -0.0312496  0.9928477  0.1193882 -0.1193882  0.9928477 
    6   113     2  1.0920400 -0.0196824  0.9934475  0.1142897 -0.1142897  0.9934475 
    6   113     3  1.0794755 -0.0322880  0.9919155  0.1269004 -0.1269004  0.9919155 
    6   113     4  1.1085416 -0.0219799  0.9924659  0.1225214 -0.1225214  0.9924659 
    6   114     1  1.0686015 -0.0333415  0.9925418  0.1219051 -0.1219051  0.9925418 
    6   114     2  1.0677241 -0.0254563  0.9940682  0.1087584 -0.1087584  0.9940682 
    6   114     3  1.1221676 -0.0158266  0.9932415  0.1160662 -0.1160662  0.9932415 
    6   114     4  1.1034629 -0.0149978  0.9942693  0.1069043 -0.1069043  0.9942693 
    6   115     1  1.0503237 -0.0121499  0.9907142  0.1359611 -0.1359611  0.9907142 
    6   115     2  1.0550225 -0.0316043  0.9913495  0.1312484 -0.1312484  0.9913495 
    6   115     3  1.0383013 -0.0389365  0.9897469  0.1428323 -0.1428323  0.9897469 
    6   115     4  1.0445399 -0.0470690  0.9904766  0.1376809 -0.1376809  0.9904766 
    6   116     1  1.0152961 -0.0271050  0.9894292  0.1450170 -0.1450170  0.9894292 
    6   116     2  1.0156049 -0.0218259  0.9871060  0.1600679 -0.1600679  0.9871060 
    6   116     3  0.9791052 -0.0385369  0.9898941  0.1418088 -0.1418088  0.9898941 
    6   116     4  0.9794634 -0.0340214  0.9879990  0.1544603 -0.1544603  0.9879990 
    6   117     1  1.0500183 -0.0253008  0.9935078  0.1137643 -0.1137643  0.9935078 
    6   117     2  1.0906211 -0.0131054  0.9934410  0.1143459 -0.1143459  0.9934410 
    6   117     3  1.0474612 -0.0258494  0.9921144  0.1253356 -0.1253356  0.9921144 
    6   117     4  1.0873511 -0.0138816  0.9920409  0.1259160 -0.1259160  0.9920409 
    6   118     1  1.0043035 -0.0335325  0.9899751  0.1412421 -0.1412421  0.9899751 
    6   118     2  1.0112805 -0.0188773  0.9918125  0.1277023 -0.1277023  0.9918125 
    6   118     3  1.0440973 -0.0212069  0.9906814  0.1361997 -0.1361997  0.9906814 
    6   118     4  1.0523826 -0.0053373  0.9925545  0.1218015 -0.1218015  0.9925545 
    6   119     1  0.9728074 -0.0314243  0.9846350  0.1746250 -0.1746250  0.9846350 
    6   119     2  0.9284755 -0.0451878  0.9834696  0.1810733 -0.1810733  0.9834696 
    6   119     3  0.9811254 -0.0098494  0.9879181  0.1549770 -0.1549770  0.9879181 
    6   119     4  0.9357138 -0.0252799  0.9866721  0.1627210 -0.1627210  0.9866721 
    6   120     1  0.9113827 -0.0461767  0.9842540  0.1767599 -0.1767599  0.9842540 
    6   120     2  0.9565951 -0.0312176  0.9853939  0.1702904 -0.1702904  0.9853939 
    6   120     3  0.9084303 -0.0638372  0.9801982  0.1980188 -0.1980188  0.9801982 
    6   120     4  0.9521687 -0.0481959  0.9817326  0.1902660 -0.1902660  0.9817326 
    6   121     1  0.8559399 -0.0656505  0.9752943  0.2209096 -0.2209096  0.9752943 
    6   121     2  0.8642056 -0.0423358  0.9799520  0.1992339 -0.1992339  0.9799520 
    6   121     3  0.8989998 -0.0502883  0.9772227  0.2122165 -0.2122165  0.9772227 
    6   121     4  0.9063297 -0.0270940  0.9816756  0.1905600 -0.1905600  0.9816756 
    6   122     1  0.8327799 -0.0570627  0.9676160  0.2524266 -0.2524266  0.9676160 
    6   122     2  0.8026389 -0.0660557  0.9673993  0.2532560 -0.2532560  0.9673993 
    6   122     3  0.8356823 -0.0522845  0.9727481  0.2318645 -0.2318645  0.9727481 
    6   122     4  0.8083801 -0.0607798  0.9721292  0.2344458 -0.2344458  0.9721292 
    6   123     1  0.8876866 -0.0623824  0.9780174  0.2085233 -0.2085233  0.9780174 
    6   123     2  0.8905967 -0.0605310  0.9750928  0.2217971 -0.2217971  0.9750928 
    6   123     3  0.8638548 -0.0696333  0.9783194  0.2071019 -0.2071019  0.9783194 
    6   123     4  0.8657799 -0.0679833  0.9751684  0.2214647 -0.2214647  0.9751684 
    6   124     1  0.9387227 -0.0661438  0.9832807  0.1820964 -0.1820964  0.9832807 
    6   124     2  0.9375005 -0.0433486  0.9862424  0.1653057 -0.1653057  0.9862424 
    6   124     3  0.9875965 -0.0456261  0.9854608  0.1699031 -0.1699031  0.9854608 
    6   124     4  0.9784469 -0.0275140  0.9877667  0.1559387 -0.1559387  0.9877667 
    6   125     1  0.9187570 -0.0602333  0.9791975  0.2029094 -0.2029094  0.9791975 
    6   125     2  0.8865980 -0.0705798  0.9784447  0.2065090 -0.2065090  0.9784447 
    6   125     3  0.9156587 -0.0543381  0.9819606  0.1890855 -0.1890855  0.9819606 
    6   125     4  0.8825405 -0.0644018  0.9814918  0.1915041 -0.1915041  0.9814918 
    6   126     1  0.9355937 -0.0491184  0.9845886  0.1748866 -0.1748866  0.9845886 
    6   126     2  0.9393891 -0.0613486  0.9821567  0.1880642 -0.1880642  0.9821567 
    6   126     3  0.8990230 -0.0617506  0.9834400  0.1812340 -0.1812340  0.9834400 
    6   126     4  0.9023884 -0.0749485  0.9807445  0.1952951 -0.1952951  0.9807445 
    6   127     1  0.9529470 -0.0502125  0.9872504  0.1591750 -0.1591750  0.9872504 
    6   127     2  0.9887708 -0.0359720  0.9885043  0.1511928 -0.1511928  0.9885043 
    6   127     3  0.9564534 -0.0652632  0.9849610  0.1727771 -0.1727771  0.9849610 
    6   127     4  0.9935655 -0.0503745  0.9863768  0.1645015 -0.1645015  0.9863768 
    6   128     1  0.8380376 -0.0896888  0.9722791  0.2338232 -0.2338232  0.9722791 
    6   128     2  0.8350476 -0.0707201  0.9754610  0.2201724 -0.2201724  0.9754610 
    6   128     3  0.8692281 -0.0759393  0.9744070  0.2247911 -0.2247911  0.9744070 
    6   128     4  0.8677330 -0.0565344  0.9775502  0.2107027 -0.2107027  0.9775502 
    6   129     1  0.8263640 -0.0885265  0.9677957  0.2517370 -0.2517370  0.9677957 
    6   129     2  0.7965247 -0.0993002  0.9662466  0.2576190 -0.2576190  0.9662466 
    6   129     3  0.8191198 -0.0789469  0.9712705  0.2379782 -0.2379782  0.9712705 
    6   129     4  0.7873578 -0.0901774  0.9697714  0.2440152 -0.2440152  0.9697714 
    6   130     1  0.8334527 -0.0789839  0.9741447  0.2259248 -0.2259248  0.9741447 
    6   130     2  0.8378012 -0.0909657  0.9712608  0.2380178 -0.2380178  0.9712608 
    6   130     3  0.8005730 -0.0910631  0.9724573  0.2330813 -0.2330813  0.9724573 
    6   130     4  0.8056341 -0.1032905  0.9694133  0.2454340 -0.2454340  0.9694133 
    6   131     1  0.8494031 -0.0740388  0.9780197  0.2085123 -0.2085123  0.9780197 
    6   131     2  0.8819486 -0.0606581  0.9797910  0.2000242 -0.2000242  0.9797910 
    6   131     3  0.8521526 -0.0895354  0.9753023  0.2208741 -0.2208741  0.9753023 
    6   131     4  0.8843391 -0.0761373  0.9771696  0.2124608 -0.2124608  0.9771696 
    6   132     1  0.8042484 -0.0588910  0.9681141  0.2505095 -0.2505095  0.9681141 
    6   132     2  0.8060501 -0.0874752  0.9641054  0.2655198 -0.2655198  0.9641054 
    6   132     3  0.7761469 -0.0777343  0.9645915  0.2637486 -0.2637486  0.9645915 
    6   132     4  0.7813526 -0.0996255  0.9615844  0.2745095 -0.2745095  0.9615844 
    6   133     1  0.8186306 -0.0744081  0.9742022  0.2256770 -0.2256770  0.9742022 
    6   133     2  0.8495256 -0.0665014  0.9746983  0.2235245 -0.2235245  0.9746983 
    6   133     3  0.8207110 -0.0902619  0.9695733  0.2448010 -0.2448010  0.9695733 
    6   133     4  0.8480093 -0.0801968  0.9709738  0.2391858 -0.2391858  0.9709738 
    6   134     1  0.8031177 -0.0766579  0.9637769  0.2667098 -0.2667098  0.9637769 
    6   134     2  0.7818540 -0.1176156  0.9595999  0.2813682 -0.2813682  0.9595999 
    6   134     3  0.7941216 -0.0579821  0.9615407  0.2746626 -0.2746626  0.9615407 
    6   134     4  0.7821548 -0.0914228  0.9592373  0.2826018 -0.2826018  0.9592373 
    6   135     1  0.7501046 -0.1221705  0.9578235  0.2873573 -0.2873573  0.9578235 
    6   135     2  0.7429076 -0.1028380  0.9611600  0.2759917 -0.2759917  0.9611600 
    6   135     3  0.7834828 -0.1056109  0.9612892  0.2755415 -0.2755415  0.9612892 
    6   135     4  0.7761227 -0.0857993  0.9646475  0.2635437 -0.2635437  0.9646475 
    6   136     1  0.7393917 -0.1236384  0.9512965  0.3082774 -0.3082774  0.9512965 
    6   136     2  0.7031873 -0.1373103  0.9484774  0.3168446 -0.3168446  0.9484774 
    6   136     3  0.7284303 -0.1126588  0.9554663  0.2951003 -0.2951003  0.9554663 
    6   136     4  0.6929385 -0.1263092  0.9526966  0.3039230 -0.3039230  0.9526966 
    6   137     1  0.7394276 -0.1165548  0.9598893  0.2803793 -0.2803793  0.9598893 
    6   137     2  0.7446106 -0.1248805  0.9562327  0.2926074 -0.2926074  0.9562327 
    6   137     3  0.7047965 -0.1286018  0.9579479  0.2869421 -0.2869421  0.9579479 
    6   137     4  0.7093511 -0.1374192  0.9540661  0.2995963 -0.2995963  0.9540661 
    6   138     1  0.7557048 -0.1060330  0.9652273  0.2614119 -0.2614119  0.9652273 
    6   138     2  0.7865976 -0.0925074  0.9677325  0.2519797 -0.2519797  0.9677325 
    6   138     3  0.7587196 -0.1214707  0.9620563  0.2728510 -0.2728510  0.9620563 
    6   138     4  0.7907165 -0.1076506  0.9646914  0.2633827 -0.2633827  0.9646914 
    6   139     1  0.7192225 -0.1053548  0.9502564  0.3114688 -0.3114688  0.9502564 
    6   139     2  0.7287391 -0.1266619  0.9449108  0.3273279 -0.3273279  0.9449108 
    6   139     3  0.6837530 -0.1214511  0.9462754  0.3233619 -0.3233619  0.9462754 
    6   139     4  0.6918984 -0.1432618  0.9407132  0.3392030 -0.3392030  0.9407132 
    6   140     1  0.7363494 -0.0961287  0.9551930  0.2959836 -0.2959836  0.9551930 
    6   140     2  0.7652700 -0.0736249  0.9598789  0.2804150 -0.2804150  0.9598789 
    6   140     3  0.7394046 -0.1276249  0.9520029  0.3060890 -0.3060890  0.9520029 
    6   140     4  0.7700235 -0.1064264  0.9566665  0.2911860 -0.2911860  0.9566665 
    6   141     1  0.7290739 -0.1348186  0.9490361  0.3151673 -0.3151673  0.9490361 
    6   141     2  0.7141404 -0.0930109  0.9549395  0.2968005 -0.2968005  0.9549395 
    6   141     3  0.7722064 -0.1052993  0.9554762  0.2950683 -0.2950683  0.9554762 
    6   141     4  0.7551518 -0.0715161  0.9600388  0.2798670 -0.2798670  0.9600388 
    6   142     1  0.7150057 -0.1245946  0.9388805  0.3442431 -0.3442431  0.9388805 
    6   142     2  0.6745217 -0.1455867  0.9329871  0.3599099 -0.3599099  0.9329871 
    6   142     3  0.7031144 -0.0978828  0.9442388  0.3292615 -0.3292615  0.9442388 
    6   142     4  0.6647542 -0.1169903  0.9388606  0.3442974 -0.3442974  0.9388606 
    6   143     1  0.6302275 -0.1490464  0.9299347  0.3677247 -0.3677247  0.9299347 
    6   143     2  0.6701752 -0.1265764  0.9367440  0.3500152 -0.3500152  0.9367440 
    6   143     3  0.6372327 -0.1789114  0.9247245  0.3806370 -0.3806370  0.9247245 
    6   143     4  0.6763667 -0.1562896  0.9315076  0.3637218 -0.3637218  0.9315076 
    6   144     1  0.6216106 -0.1784405  0.9132562  0.4073857 -0.4073857  0.9132562 
    6   144     2  0.6137664 -0.1421078  0.9185830  0.3952282 -0.3952282  0.9185830 
    6   144     3  0.6616020 -0.1531565  0.9215301  0.3883069 -0.3883069  0.9215301 
    6   144     4  0.6542747 -0.1178174  0.9268590  0.3754096 -0.3754096  0.9268590 
    6   145     1  0.6118334 -0.1899183  0.8994723  0.4369777 -0.4369777  0.8994723 
    6   145     2  0.5764029 -0.2149639  0.8901891  0.4555912 -0.4555912  0.8901891 
    6   145     3  0.6049613 -0.1538479  0.9035876  0.4284034 -0.4284034  0.9035876 
    6   145     4  0.5690852 -0.1788491  0.8939412  0.4481843 -0.4481843  0.8939412 
    6   146     1  0.6157823 -0.1616980  0.9181863  0.3961489 -0.3961489  0.9181863 
    6   146     2  0.6245495 -0.1906147  0.9129108  0.4081592 -0.4081592  0.9129108 
    6   146     3  0.5772647 -0.1837238  0.9104279  0.4136677 -0.4136677  0.9104279 
    6   146     4  0.5865132 -0.2121740  0.9053780  0.4246066 -0.4246066  0.9053780 
    6   147     1  0.6469360 -0.1715543  0.9344049  0.3562127 -0.3562127  0.9344049 
    6   147     2  0.6397694 -0.1512251  0.9390277  0.3438415 -0.3438415  0.9390277 
    6   147     3  0.6890706 -0.1524063  0.9397652  0.3418207 -0.3418207  0.9397652 
    6   147     4  0.6799068 -0.1317298  0.9443680  0.3288907 -0.3288907  0.9443680 
    6   148     1  0.6353463 -0.1822175  0.9223620  0.3863267 -0.3863267  0.9223620 
    6   148     2  0.5935759 -0.1981002  0.9178952  0.3968228 -0.3968228  0.9178952 
    6   148     3  0.6227205 -0.1679133  0.9288479  0.3704613 -0.3704613  0.9288479 
    6   148     4  0.5812577 -0.1848846  0.9240014  0.3823892 -0.3823892  0.9240014 
    6   149     1  0.6322472 -0.1742655  0.9380198  0.3465817 -0.3465817  0.9380198 
    6   149     2  0.6403155 -0.1765516  0.9311915  0.3645303 -0.3645303  0.9311915 
    6   149     3  0.5817702 -0.1896524  0.9368062  0.3498488 -0.3498488  0.9368062 
    6   149     4  0.5935797 -0.1901075  0.9309280  0.3652028 -0.3652028  0.9309280 
    6   150     1  0.6616611 -0.1507577  0.9493616  0.3141856 -0.3141856  0.9493616 
    6   150     2  0.6894192 -0.1413596  0.9508752  0.3095745 -0.3095745  0.9508752 
    6   150     3  0.6634027 -0.1558117  0.9458613  0.3245711 -0.3245711  0.9458613 
    6   150     4  0.6934215 -0.1459079  0.9473840  0.3200992 -0.3200992  0.9473840 
    6   151     1  0.7546043 -0.1288700  0.9615506  0.2746277 -0.2746277  0.9615506 
    6   151     2  0.7195060 -0.1433893  0.9586553  0.2845699 -0.2845699  0.9586553 
    6   151     3  0.7509416 -0.1168517  0.9642460  0.2650088 -0.2650088  0.9642460 
    6   151     4  0.7161095 -0.1301193  0.9617044  0.2740887 -0.2740887  0.9617044 
    6   152     1  0.7604748 -0.1158606  0.9687444  0.2480611 -0.2480611  0.9687444 
    6   152     2  0.7610248 -0.1282821  0.9660727  0.2582702 -0.2582702  0.9660727 
    6   152     3  0.7276277 -0.1292258  0.9663748  0.2571375 -0.2571375  0.9663748 
    6   152     4  0.7287552 -0.1419168  0.9635568  0.2675036 -0.2675036  0.9635568 
    6   153     1  0.7791833 -0.1083335  0.9731692  0.2300907 -0.2300907  0.9731692 
    6   153     2  0.8102572 -0.0964877  0.9748766  0.2227458 -0.2227458  0.9748766 
    6   153     3  0.7796641 -0.1204441  0.9704784  0.2411880 -0.2411880  0.9704784 
    6   153     4  0.8110485 -0.1081280  0.9723563  0.2335019 -0.2335019  0.9723563 
    6   154     1  0.7693020 -0.1211284  0.9664610  0.2568133 -0.2568133  0.9664610 
    6   154     2  0.7658904 -0.1087594  0.9692190  0.2462002 -0.2462002  0.9692190 
    6   154     3  0.8001636 -0.1087384  0.9685620  0.2487725 -0.2487725  0.9685620 
    6   154     4  0.7980202 -0.0959994  0.9713007  0.2378547 -0.2378547  0.9713007 
    6   155     1  0.6693097 -0.1540183  0.9569955  0.2901028 -0.2901028  0.9569955 
    6   155     2  0.7096422 -0.1372336  0.9606702  0.2776918 -0.2776918  0.9606702 
    6   155     3  0.6804367 -0.1658368  0.9545468  0.2980610 -0.2980610  0.9545468 
    6   155     4  0.7129105 -0.1503165  0.9579683  0.2868742 -0.2868742  0.9579683 
    6   156     1  0.6664944 -0.1578248  0.9508024  0.3097980 -0.3097980  0.9508024 
    6   156     2  0.6690840 -0.1502444  0.9546679  0.2976729 -0.2976729  0.9546679 
    6   156     3  0.7035195 -0.1451955  0.9528378  0.3034801 -0.3034801  0.9528378 
    6   156     4  0.7001063 -0.1402231  0.9560006  0.2933646 -0.2933646  0.9560006 
    6   157     1  0.6586127 -0.1487881  0.9470479  0.3210924 -0.3210924  0.9470479 
    6   157     2  0.6597872 -0.1701400  0.9504277  0.3109456 -0.3109456  0.9504277 
    6   157     3  0.6445925 -0.1842853  0.9437993  0.3305190 -0.3305190  0.9437993 
    6   157     4  0.6492791 -0.1888142  0.9471378  0.3208269 -0.3208269  0.9471378 
    6   158     1  0.7722383 -0.1246526  0.9699276  0.2433935 -0.2433935  0.9699276 
    6   158     2  0.7373581 -0.1381013  0.9677521  0.2519047 -0.2519047  0.9677521 
    6   158     3  0.7670016 -0.1134717  0.9726782  0.2321575 -0.2321575  0.9726782 
    6   158     4  0.7325504 -0.1269827  0.9705540  0.2408835 -0.2408835  0.9705540 
    6   159     1  0.7727609 -0.1172594  0.9758772  0.2183201 -0.2183201  0.9758772 
    6   159     2  0.7770895 -0.1258391  0.9733398  0.2293678 -0.2293678  0.9733398 
    6   159     3  0.7395168 -0.1290521  0.9743785  0.2249146 -0.2249146  0.9743785 
    6   159     4  0.7431231 -0.1380140  0.9717006  0.2362159 -0.2362159  0.9717006 
    6   160     1  0.7915340 -0.1104409  0.9793334  0.2022524 -0.2022524  0.9793334 
    6   160     2  0.8278867 -0.0972206  0.9808623  0.1947026 -0.1947026  0.9808623 
    6   160     3  0.7954702 -0.1209063  0.9769096  0.2136531 -0.2136531  0.9769096 
    6   160     4  0.8317606 -0.1074938  0.9785631  0.2059473 -0.2059473  0.9785631 
    6   161     1  0.7893362 -0.1193260  0.9739550  0.2267415 -0.2267415  0.9739550 
    6   161     2  0.7849677 -0.1086611  0.9765002  0.2155166 -0.2155166  0.9765002 
    6   161     3  0.8229194 -0.1066202  0.9756818  0.2191919 -0.2191919  0.9756818 
    6   161     4  0.8202481 -0.0954669  0.9781988  0.2076709 -0.2076709  0.9781988 
    6   162     1  0.6821616 -0.1540946  0.9689472  0.2472676 -0.2472676  0.9689472 
    6   162     2  0.7177129 -0.1418977  0.9704974  0.2411116 -0.2411116  0.9704974 
    6   162     3  0.6840674 -0.1596765  0.9660698  0.2582812 -0.2582812  0.9660698 
    6   162     4  0.7216483 -0.1471273  0.9676131  0.2524380 -0.2524380  0.9676131 
    6   163     1  0.6854846 -0.1705754  0.9587965  0.2840938 -0.2840938  0.9587965 
    6   163     2  0.6785784 -0.1535891  0.9606941  0.2776091 -0.2776091  0.9606941 
    6   163     3  0.7186570 -0.1542628  0.9625292  0.2711782 -0.2711782  0.9625292 
    6   163     4  0.7151027 -0.1344868  0.9649252  0.2625249 -0.2625249  0.9649252 
    6   164     1  0.6578807 -0.1845731  0.9506733  0.3101939 -0.3101939  0.9506733 
    6   164     2  0.6007412 -0.2166198  0.9421202  0.3352754 -0.3352754  0.9421202 
    6   164     3  0.6454037 -0.1537763  0.9544731  0.2982969 -0.2982969  0.9544731 
    6   164     4  0.5953851 -0.1883081  0.9459787  0.3242287 -0.3242287  0.9459787 
    6   165     1  0.6472469 -0.1747731  0.9619749  0.2731378 -0.2731378  0.9619749 
    6   165     2  0.6544160 -0.1787560  0.9563943  0.2920787 -0.2920787  0.9563943 
    6   165     3  0.5969992 -0.1907146  0.9603169  0.2789111 -0.2789111  0.9603169 
    6   165     4  0.6057012 -0.1929960  0.9558050  0.2940014 -0.2940014  0.9558050 
    6   166     1  0.6852407 -0.1617726  0.9696198  0.2446169 -0.2446169  0.9696198 
    6   166     2  0.6832032 -0.1548540  0.9729026  0.2312153 -0.2312153  0.9729026 
    6   166     3  0.7291183 -0.1467409  0.9714771  0.2371335 -0.2371335  0.9714771 
    6   166     4  0.7186198 -0.1433484  0.9740620  0.2262813 -0.2262813  0.9740620 
    6   167     1  0.6679665 -0.1539972  0.9663724  0.2571468 -0.2571468  0.9663724 
    6   167     2  0.6537699 -0.1767717  0.9706198  0.2406182 -0.2406182  0.9706198 
    6   167     3  0.6599301 -0.1865098  0.9663514  0.2572256 -0.2572256  0.9663514 
    6   167     4  0.6517951 -0.1946105  0.9693379  0.2457318 -0.2457318  0.9693379 
    6   168     1  0.6734879 -0.1629821  0.9740951  0.2261387 -0.2261387  0.9740951 
    6   168     2  0.7135485 -0.1442752  0.9772676  0.2120093 -0.2120093  0.9772676 
    6   168     3  0.6937674 -0.1735534  0.9728118  0.2315969 -0.2315969  0.9728118 
    6   168     4  0.7219536 -0.1565218  0.9756083  0.2195186 -0.2195186  0.9756083 
    6   169     1  0.6751443 -0.1938834  0.9760865  0.2173825 -0.2173825  0.9760865 
    6   169     2  0.6705112 -0.1662281  0.9745155  0.2243201 -0.2243201  0.9745155 
    6   169     3  0.6952858 -0.1606433  0.9793218  0.2023088 -0.2023088  0.9793218 
    6   169     4  0.6892429 -0.1411702  0.9778696  0.2092153 -0.2092153  0.9778696 
    6   170     1  0.6418798 -0.1832189  0.9691117  0.2466224 -0.2466224  0.9691117 
    6   170     2  0.6026711 -0.2017762  0.9650023  0.2622414 -0.2622414  0.9650023 
    6   170     3  0.6254749 -0.1636115  0.9711357  0.2385277 -0.2385277  0.9711357 
    6   170     4  0.5995130 -0.1828552  0.9674753  0.2529656 -0.2529656  0.9674753 
    6   171     1  0.6350705 -0.1851135  0.9766298  0.2149285 -0.2149285  0.9766298 
    6   171     2  0.6315862 -0.1677392  0.9744219  0.2247265 -0.2247265  0.9744219 
    6   171     3  0.5971547 -0.2007175  0.9795254  0.2013205 -0.2013205  0.9795254 
    6   171     4  0.6053473 -0.1823264  0.9770485  0.2130170 -0.2130170  0.9770485 
    6   172     1  0.7688281 -0.1253912  0.9817194  0.1903340 -0.1903340  0.9817194 
    6   172     2  0.7772249 -0.1325956  0.9790074  0.2038246 -0.2038246  0.9790074 
    6   172     3  0.7274695 -0.1393048  0.9803942  0.1970462 -0.1970462  0.9803942 
    6   172     4  0.7372298 -0.1451103  0.9779278  0.2089430 -0.2089430  0.9779278 
    6   173     1  0.7896653 -0.1182322  0.9846826  0.1743566 -0.1743566  0.9846826 
    6   173     2  0.8189524 -0.1088262  0.9852721  0.1709937 -0.1709937  0.9852721 
    6   173     3  0.7972513 -0.1209891  0.9826512  0.1854634 -0.1854634  0.9826512 
    6   173     4  0.8300544 -0.1103308  0.9834012  0.1814445 -0.1814445  0.9834012 
    6   174     1  0.7989592 -0.1226921  0.9797200  0.2003713 -0.2003713  0.9797200 
    6   174     2  0.7883586 -0.1153133  0.9819178  0.1893078 -0.1893078  0.9819178 
    6   174     3  0.8371002 -0.1092976  0.9811284  0.1933571 -0.1933571  0.9811284 
    6   174     4  0.8255286 -0.1022875  0.9832174  0.1824380 -0.1824380  0.9832174 
    6   175     1  0.7823370 -0.1307444  0.9766668  0.2147602 -0.2147602  0.9766668 
    6   175     2  0.7459696 -0.1444158  0.9748091  0.2230408 -0.2230408  0.9748091 
    6   175     3  0.7720680 -0.1220829  0.9788688  0.2044895 -0.2044895  0.9788688 
    6   175     4  0.7339988 -0.1357607  0.9771315  0.2126358 -0.2126358  0.9771315 
    6   176     1  0.7925513 -0.1269649  0.9842635  0.1767068 -0.1767068  0.9842635 
    6   176     2  0.7915218 -0.1176355  0.9861858  0.1656431 -0.1656431  0.9861858 
    6   176     3  0.8208793 -0.1152515  0.9855461  0.1694074 -0.1694074  0.9855461 
    6   176     4  0.8159628 -0.1089645  0.9869607  0.1609614 -0.1609614  0.9869607 
    6   177     1  0.7768119 -0.1127806  0.9830444  0.1833674 -0.1833674  0.9830444 
    6   177     2  0.7591862 -0.1273078  0.9848475  0.1734227 -0.1734227  0.9848475 
    6   177     3  0.7727067 -0.1332196  0.9841520  0.1773270 -0.1773270  0.9841520 
    6   177     4  0.7604890 -0.1383518  0.9851715  0.1715724 -0.1715724  0.9851715 
    6   178     1  0.7842475 -0.1252592  0.9858954  0.1673628 -0.1673628  0.9858954 
    6   178     2  0.8110192 -0.1041292  0.9882819  0.1526396 -0.1526396  0.9882819 
    6   178     3  0.7930319 -0.1437436  0.9858940  0.1673707 -0.1673707  0.9858940 
    6   178     4  0.8132530 -0.1248810  0.9877603  0.1559797 -0.1559797  0.9877603 
    6   179     1  0.7324185 -0.1420917  0.9850208  0.1724354 -0.1724354  0.9850208 
    6   179     2  0.7188786 -0.1726706  0.9828448  0.1844344 -0.1844344  0.9828448 
    6   179     3  0.7349192 -0.1168722  0.9833034  0.1819734 -0.1819734  0.9833034 
    6   179     4  0.7207063 -0.1526117  0.9812133  0.1929260 -0.1929260  0.9812133 
    6   180     1  0.7003378 -0.1264851  0.9864634  0.1639815 -0.1639815  0.9864634 
    6   180     2  0.7056991 -0.1654029  0.9869336  0.1611277 -0.1611277  0.9869336 
    6   180     3  0.6589872 -0.1783442  0.9807742  0.1951459 -0.1951459  0.9807742 
    6   180     4  0.6727566 -0.1985853  0.9828060  0.1846410 -0.1846410  0.9828060 
    6   181     1  0.7407035 -0.1389381  0.9892639  0.1461399 -0.1461399  0.9892639 
    6   181     2  0.7891493 -0.1074344  0.9923187  0.1237081 -0.1237081  0.9923187 
    6   181     3  0.7472152 -0.1615148  0.9880152  0.1543564 -0.1543564  0.9880152 
    6   181     4  0.7915491 -0.1350223  0.9907894  0.1354115 -0.1354115  0.9907894 
    6   182     1  0.7765449 -0.1553667  0.9872050  0.1594562 -0.1594562  0.9872050 
    6   182     2  0.7706903 -0.1355064  0.9868601  0.1615768 -0.1615768  0.9868601 
    6   182     3  0.8001583 -0.1316379  0.9894879  0.1446154 -0.1446154  0.9894879 
    6   182     4  0.7991759 -0.1049303  0.9897228  0.1429991 -0.1429991  0.9897228 
    6   183     1  0.8621481 -0.0947709  0.9911092  0.1330511 -0.1330511  0.9911092 
    6   183     2  0.8670953 -0.1082234  0.9897817  0.1425907 -0.1425907  0.9897817 
    6   183     3  0.8278209 -0.1095513  0.9897574  0.1427594 -0.1427594  0.9897574 
    6   183     4  0.8342920 -0.1231959  0.9883328  0.1523099 -0.1523099  0.9883328 
    6   184     1  0.8832554 -0.0942431  0.9921492  0.1250595 -0.1250595  0.9921492 
    6   184     2  0.9174775 -0.0809663  0.9930826  0.1174178 -0.1174178  0.9930826 
    6   184     3  0.8885245 -0.1061217  0.9907229  0.1358976 -0.1358976  0.9907229 
    6   184     4  0.9214030 -0.0930547  0.9917272  0.1283630 -0.1283630  0.9917272 
    6   185     1  0.8936479 -0.1019882  0.9892405  0.1462987 -0.1462987  0.9892405 
    6   185     2  0.8855054 -0.0919672  0.9907641  0.1355970 -0.1355970  0.9907641 
    6   185     3  0.9264404 -0.0893279  0.9902537  0.1392751 -0.1392751  0.9902537 
    6   185     4  0.9188031 -0.0796907  0.9916526  0.1289385 -0.1289385  0.9916526 
    6   186     1  0.8737147 -0.1032036  0.9879847  0.1545520 -0.1545520  0.9879847 
    6   186     2  0.8396695 -0.1169975  0.9866431  0.1628968 -0.1628968  0.9866431 
    6   186     3  0.8667533 -0.0933966  0.9894011  0.1452081 -0.1452081  0.9894011 
    6   186     4  0.8326843 -0.1062834  0.9882487  0.1528545 -0.1528545  0.9882487 
    6   187     1  0.8861128 -0.1090009  0.9923749  0.1232560 -0.1232560  0.9923749 
    6   187     2  0.8838031 -0.0956922  0.9937220  0.1118772 -0.1118772  0.9937220 
    6   187     3  0.9207730 -0.0950465  0.9933533  0.1151054 -0.1151054  0.9933533 
    6   187     4  0.9202114 -0.0814821  0.9946165  0.1036241 -0.1036241  0.9946165 
    6   188     1  0.8624002 -0.1117239  0.9915372  0.1298232 -0.1298232  0.9915372 
    6   188     2  0.8275388 -0.1285407  0.9899961  0.1410948 -0.1410948  0.9899961 
    6   188     3  0.8599339 -0.0949144  0.9927968  0.1198106 -0.1198106  0.9927968 
    6   188     4  0.8219636 -0.1127718  0.9912474  0.1320176 -0.1320176  0.9912474 
    6   189     1  0.8628351 -0.0948692  0.9945496  0.1042642 -0.1042642  0.9945496 
    6   189     2  0.8612944 -0.1128894  0.9931576  0.1167815 -0.1167815  0.9931576 
    6   189     3  0.8215701 -0.1130024  0.9932175  0.1162712 -0.1162712  0.9932175 
    6   189     4  0.8231946 -0.1292269  0.9918428  0.1274670 -0.1274670  0.9918428 
    6   190     1  0.8885183 -0.0942026  0.9952314  0.0975422 -0.0975422  0.9952314 
    6   190     2  0.9246950 -0.0805737  0.9959358  0.0900665 -0.0900665  0.9959358 
    6   190     3  0.8872257 -0.1071280  0.9939536  0.1098011 -0.1098011  0.9939536 
    6   190     4  0.9233944 -0.0936381  0.9947349  0.1024819 -0.1024819  0.9947349 
    6   191     1  0.8707812 -0.0898645  0.9879303  0.1548990 -0.1548990  0.9879303 
    6   191     2  0.8818792 -0.0959038  0.9861924  0.1656037 -0.1656037  0.9861924 
    6   191     3  0.8351600 -0.1023405  0.9869376  0.1611030 -0.1611030  0.9869376 
    6   191     4  0.8471269 -0.1083173  0.9851161  0.1718900 -0.1718900  0.9851161 
    6   192     1  0.8886510 -0.0878728  0.9896054  0.1438091 -0.1438091  0.9896054 
    6   192     2  0.9240040 -0.0753810  0.9904711  0.1377206 -0.1377206  0.9904711 
    6   192     3  0.9002124 -0.0946180  0.9879449  0.1548056 -0.1548056  0.9879449 
    6   192     4  0.9373838 -0.0812668  0.9889536  0.1482251 -0.1482251  0.9889536 
    6   193     1  0.9041570 -0.0915093  0.9867047  0.1625231 -0.1625231  0.9867047 
    6   193     2  0.8942482 -0.0839843  0.9885327  0.1510071 -0.1510071  0.9885327 
    6   193     3  0.9427360 -0.0776361  0.9878055  0.1556928 -0.1556928  0.9878055 
    6   193     4  0.9324607 -0.0705340  0.9895019  0.1445197 -0.1445197  0.9895019 
    6   194     1  0.8863239 -0.0926359  0.9846709  0.1744224 -0.1744224  0.9846709 
    6   194     2  0.8533692 -0.1044896  0.9835728  0.1805117 -0.1805117  0.9835728 
    6   194     3  0.8762570 -0.0856297  0.9865630  0.1633811 -0.1633811  0.9865630 
    6   194     4  0.8422098 -0.0977256  0.9855193  0.1695630 -0.1695630  0.9855193 
    6   195     1  0.8728338 -0.0915118  0.9804405  0.1968159 -0.1968159  0.9804405 
    6   195     2  0.8409518 -0.1037406  0.9789851  0.2039318 -0.2039318  0.9789851 
    6   195     3  0.8710126 -0.0797590  0.9826642  0.1853942 -0.1853942  0.9826642 
    6   195     4  0.8393704 -0.0916242  0.9813463  0.1922482 -0.1922482  0.9813463 
    6   196     1  0.8778895 -0.0812773  0.9848252  0.1735491 -0.1735491  0.9848252 
    6   196     2  0.8819859 -0.0920845  0.9827968  0.1846902 -0.1846902  0.9827968 
    6   196     3  0.8464296 -0.0929536  0.9836400  0.1801455 -0.1801455  0.9836400 
    6   196     4  0.8500034 -0.1041818  0.9814805  0.1915623 -0.1915623  0.9814805 
    6   197     1  0.8963409 -0.0794872  0.9870317  0.1605256 -0.1605256  0.9870317 
    6   197     2  0.9335197 -0.0659488  0.9881626  0.1534103 -0.1534103  0.9881626 
    6   197     3  0.9004077 -0.0902653  0.9850820  0.1720855 -0.1720855  0.9850820 
    6   197     4  0.9369740 -0.0767406  0.9863065  0.1649228 -0.1649228  0.9863065 
    6   198     1  0.8912083 -0.0897807  0.9830678  0.1832421 -0.1832421  0.9830678 
    6   198     2  0.8898289 -0.0775139  0.9852141  0.1713277 -0.1713277  0.9852141 
    6   198     3  0.9254902 -0.0768192  0.9843735  0.1760931 -0.1760931  0.9843735 
    6   198     4  0.9249481 -0.0645247  0.9864203  0.1642406 -0.1642406  0.9864203 
    6   199     1  0.8784429 -0.0765814  0.9830048  0.1835799 -0.1835799  0.9830048 
    6   199     2  0.9117139 -0.0639864  0.9843275  0.1763504 -0.1763504  0.9843275 
    6   199     3  0.8786572 -0.0897658  0.9807461  0.1952869 -0.1952869  0.9807461 
    6   199     4  0.9113967 -0.0771163  0.9821715  0.1879872 -0.1879872  0.9821715 
    6   200     1  0.8649565 -0.0895450  0.9781455  0.2079215 -0.2079215  0.9781455 
    6   200     2  0.8643081 -0.0752185  0.9805708  0.1961657 -0.1961657  0.9805708 
    6   200     3  0.8973311 -0.0766191  0.9797795  0.2000802 -0.2000802  0.9797795 
    6   200     4  0.8970199 -0.0622896  0.9821146  0.1882843 -0.1882843  0.9821146 
    6   201     1  0.8482986 -0.0918081  0.9746573  0.2237035 -0.2237035  0.9746573 
    6   201     2  0.8167326 -0.1042827  0.9728654  0.2313716 -0.2313716  0.9728654 
    6   201     3  0.8468513 -0.0794810  0.9771471  0.2125641 -0.2125641  0.9771471 
    6   201     4  0.8152670 -0.0915074  0.9755240  0.2198930 -0.2198930  0.9755240 
    6   202     1  0.8600573 -0.0785780  0.9800376  0.1988122 -0.1988122  0.9800376 
    6   202     2  0.8605598 -0.0919097  0.9776694  0.2101488 -0.2101488  0.9776694 
    6   202     3  0.8283329 -0.0908949  0.9784689  0.2063943 -0.2063943  0.9784689 
    6   202     4  0.8286608 -0.1045444  0.9759653  0.2179260 -0.2179260  0.9759653 
    6   203     1  0.9510260 -0.0636680  0.9841701  0.1772262 -0.1772262  0.9841701 
    6   203     2  0.9160501 -0.0772332  0.9827716  0.1848240 -0.1848240  0.9827716 
    6   203     3  0.9505682 -0.0504242  0.9862497  0.1652620 -0.1652620  0.9862497 
    6   203     4  0.9157925 -0.0633862  0.9850290  0.1723889 -0.1723889  0.9850290 
    6   204     1  0.9656853 -0.0500577  0.9879941  0.1544916 -0.1544916  0.9879941 
    6   204     2  0.9649044 -0.0645570  0.9860821  0.1662591 -0.1662591  0.9860821 
    6   204     3  0.9316672 -0.0632211  0.9867977  0.1619577 -0.1619577  0.9867977 
    6   204     4  0.9305464 -0.0782644  0.9847302  0.1740876 -0.1740876  0.9847302 
    6   205     1  0.9857332 -0.0518982  0.9899651  0.1413123 -0.1413123  0.9899651 
    6   205     2  1.0215009 -0.0384740  0.9909373  0.1343254 -0.1343254  0.9909373 
    6   205     3  0.9846902 -0.0661193  0.9881344  0.1535918 -0.1535918  0.9881344 
    6   205     4  1.0195425 -0.0526609  0.9892130  0.1464844 -0.1464844  0.9892130 
    6   206     1  0.9694836 -0.0653499  0.9865583  0.1634099 -0.1634099  0.9865583 
    6   206     2  0.9697244 -0.0507051  0.9884925  0.1512702 -0.1512702  0.9884925 
    6   206     3  1.0037188 -0.0519461  0.9877458  0.1560713 -0.1560713  0.9877458 
    6   206     4  1.0042965 -0.0372512  0.9895954  0.1438780 -0.1438780  0.9895954 
    6   207     1  1.0458831 -0.0273416  0.9915721  0.1295562 -0.1295562  0.9915721 
    6   207     2  1.0534111 -0.0378052  0.9897585  0.1427522 -0.1427522  0.9897585 
    6   207     3  1.0061323 -0.0418221  0.9906457  0.1364591 -0.1364591  0.9906457 
    6   207     4  1.0122941 -0.0526642  0.9887331  0.1496893 -0.1496893  0.9887331 
    6   208     1  1.0639910 -0.0327998  0.9932570  0.1159332 -0.1159332  0.9932570 
    6   208     2  1.1025230 -0.0187235  0.9939861  0.1095064 -0.1095064  0.9939861 
    6   208     3  1.0709849 -0.0425971  0.9917253  0.1283779 -0.1283779  0.9917253 
    6   208     4  1.1091073 -0.0289407  0.9924830  0.1223824 -0.1223824  0.9924830 
    6   209     1  1.0750413 -0.0400328  0.9916754  0.1287628 -0.1287628  0.9916754 
    6   209     2  1.0627315 -0.0332972  0.9928802  0.1191173 -0.1191173  0.9928802 
    6   209     3  1.1047600 -0.0287968  0.9923525  0.1234365 -0.1234365  0.9923525 
    6   209     4  1.0964150 -0.0210408  0.9935374  0.1135051 -0.1135051  0.9935374 
    6   210     1  1.0519957 -0.0314224  0.9896507  0.1434974 -0.1434974  0.9896507 
    6   210     2  1.0053765 -0.0518853  0.9879096  0.1550311 -0.1550311  0.9879096 
    6   210     3  1.0347589 -0.0172062  0.9915272  0.1298993 -0.1298993  0.9915272 
    6   210     4  0.9941328 -0.0388773  0.9896581  0.1434467 -0.1434467  0.9896581 
    6   211     1  1.0613398 -0.0412285  0.9907239  0.1358899 -0.1358899  0.9907239 
    6   211     2  1.0239871 -0.0547628  0.9898341  0.1422267 -0.1422267  0.9898341 
    6   211     3  1.0614121 -0.0294011  0.9923118  0.1237634 -0.1237634  0.9923118 
    6   211     4  1.0241724 -0.0425534  0.9915477  0.1297427 -0.1297427  0.9915477 
    6   212     1  1.0792137 -0.0284084  0.9933376  0.1152405 -0.1152405  0.9933376 
    6   212     2  1.0775346 -0.0415552  0.9918418  0.1274747 -0.1274747  0.9918418 
    6   212     3  1.0430045 -0.0414026  0.9926196  0.1212693 -0.1212693  0.9926196 
    6   212     4  1.0408150 -0.0550738  0.9909941  0.1339053 -0.1339053  0.9909941 
    6   213     1  1.1006761 -0.0324778  0.9947375  0.1024566 -0.1024566  0.9947375 
    6   213     2  1.1382608 -0.0196271  0.9952519  0.0973329 -0.0973329  0.9952519 
    6   213     3  1.0989122 -0.0446422  0.9933691  0.1149691 -0.1149691  0.9933691 
    6   213     4  1.1357223 -0.0318479  0.9939634  0.1097123 -0.1097123  0.9939634 
    6   214     1  1.0816805 -0.0439820  0.9924839  0.1223753 -0.1223753  0.9924839 
    6   214     2  1.0819773 -0.0328566  0.9939233  0.1100753 -0.1100753  0.9939233 
    6   214     3  1.1176746 -0.0314367  0.9931127  0.1171634 -0.1171634  0.9931127 
    6   214     4  1.1184572 -0.0202803  0.9944774  0.1049505 -0.1049505  0.9944774 
    6   215     1  1.1619114 -0.0127807  0.9957182  0.0924410 -0.0924410  0.9957182 
    6   215     2  1.1658383 -0.0199183  0.9945416  0.1043406 -0.1043406  0.9945416 
    6   215     3  1.1217335 -0.0257669  0.9953386  0.0964425 -0.0964425  0.9953386 
    6   215     4  1.1273448 -0.0324790  0.9941110  0.1083667 -0.1083667  0.9941110 
    6   216     1  1.1815442 -0.0188546  0.9970326  0.0769800 -0.0769800  0.9970326 
    6   216     2  1.2204805 -0.0068497  0.9972169  0.0745549 -0.0745549  0.9972169 
    6   216     3  1.1850070 -0.0245224  0.9959920  0.0894418 -0.0894418  0.9959920 
    6   216     4  1.2236957 -0.0123851  0.9962446  0.0865835 -0.0865835  0.9962446 
    6   217     1  1.1702949 -0.0225615  0.9957895  0.0916698 -0.0916698  0.9957895 
    6   217     2  1.1659041 -0.0194480  0.9968386  0.0794536 -0.0794536  0.9968386 
    6   217     3  1.2072162 -0.0112937  0.9959524  0.0898817 -0.0898817  0.9959524 
    6   217     4  1.2043273 -0.0079843  0.9969198  0.0784283 -0.0784283  0.9969198 
    6   218     1  1.1530821 -0.0183315  0.9942018  0.1075307 -0.1075307  0.9942018 
    6   218     2  1.1180881 -0.0300112  0.9937426  0.1116945 -0.1116945  0.9937426 
    6   218     3  1.1483695 -0.0107857  0.9953776  0.0960390 -0.0960390  0.9953776 
    6   218     4  1.1110964 -0.0233589  0.9949210  0.1006591 -0.1006591  0.9949210 
    6   219     1  1.1789239 -0.0221008  0.9950784  0.0990911 -0.0990911  0.9950784 
    6   219     2  1.1395589 -0.0350292  0.9946418  0.1033809 -0.1033809  0.9946418 
    6   219     3  1.1792817 -0.0128829  0.9961994  0.0871021 -0.0871021  0.9961994 
    6   219     4  1.1402805 -0.0255021  0.9958451  0.0910635 -0.0910635  0.9958451 
    6   220     1  1.1994698 -0.0127814  0.9967417  0.0806600 -0.0806600  0.9967417 
    6   220     2  1.1975143 -0.0224858  0.9956778  0.0928751 -0.0928751  0.9956778 
    6   220     3  1.1612725 -0.0251103  0.9964319  0.0844011 -0.0844011  0.9964319 
    6   220     4  1.1588916 -0.0351195  0.9952918  0.0969242 -0.0969242  0.9952918 
    6   221     1  1.2224712 -0.0184968  0.9976857  0.0679939 -0.0679939  0.9976857 
    6   221     2  1.2610397 -0.0063623  0.9978865  0.0649803 -0.0649803  0.9978865 
    6   221     3  1.2201710 -0.0273493  0.9967979  0.0799627 -0.0799627  0.9967979 
    6   221     4  1.2577785 -0.0154627  0.9970401  0.0768839 -0.0768839  0.9970401 
    6   222     1  1.2007883 -0.0267236  0.9963371  0.0855122 -0.0855122  0.9963371 
    6   222     2  1.2012841 -0.0182384  0.9973121  0.0732702 -0.0732702  0.9973121 
    6   222     3  1.2384213 -0.0147090  0.9966154  0.0822053 -0.0822053  0.9966154 
    6   222     4  1.2392183 -0.0062981  0.9975301  0.0702401 -0.0702401  0.9975301 
    6   223     1  0.8642276 -0.1108124  0.9950432  0.0994433 -0.0994433  0.9950432 
    6   223     2  0.8214870 -0.1263484  0.9941519  0.1079903 -0.1079903  0.9941519 
    6   223     3  0.8624309 -0.0991238  0.9962256  0.0868013 -0.0868013  0.9962256 
    6   223     4  0.8189045 -0.1151548  0.9954040  0.0957644 -0.0957644  0.9954040 
    6   224     1  0.8696061 -0.1002758  0.9975128  0.0704859 -0.0704859  0.9975128 
    6   224     2  0.8647297 -0.1085142  0.9962797  0.0861789 -0.0861789  0.9962797 
    6   224     3  0.8235547 -0.1147934  0.9971856  0.0749730 -0.0749730  0.9971856 
    6   224     4  0.8205250 -0.1217487  0.9960275  0.0890463 -0.0890463  0.9960275 
    6   225     1  0.9023611 -0.0956583  0.9979118  0.0645919 -0.0645919  0.9979118 
    6   225     2  0.9403288 -0.0836149  0.9981487  0.0608202 -0.0608202  0.9981487 
    6   225     3  0.8978258 -0.1033195  0.9970255  0.0770719 -0.0770719  0.9970255 
    6   225     4  0.9368540 -0.0909160  0.9973259  0.0730820 -0.0730820  0.9973259 
    6   226     1  0.8923606 -0.1050919  0.9956223  0.0934683 -0.0934683  0.9956223 
    6   226     2  0.8913308 -0.0956430  0.9967112  0.0810355 -0.0810355  0.9967112 
    6   226     3  0.9297937 -0.0924219  0.9961343  0.0878433 -0.0878433  0.9961343 
    6   226     4  0.9318037 -0.0818610  0.9971931  0.0748733 -0.0748733  0.9971931 
    6   227     1  0.7362249 -0.1450199  0.9961078  0.0881433 -0.0881433  0.9961078 
    6   227     2  0.7902301 -0.1264910  0.9968709  0.0790464 -0.0790464  0.9968709 
    6   227     3  0.7327865 -0.1551856  0.9946045  0.1037400 -0.1037400  0.9946045 
    6   227     4  0.7868172 -0.1360486  0.9956028  0.0936758 -0.0936758  0.9956028 
    6   228     1  0.7398365 -0.1622266  0.9910074  0.1338070 -0.1338070  0.9910074 
    6   228     2  0.7349774 -0.1429401  0.9921642  0.1249407 -0.1249407  0.9921642 
    6   228     3  0.7865310 -0.1405261  0.9931032  0.1172433 -0.1172433  0.9931032 
    6   228     4  0.7852666 -0.1175022  0.9943971  0.1057088 -0.1057088  0.9943971 
    6   229     1  0.6872112 -0.1785785  0.9890761  0.1474058 -0.1474058  0.9890761 
    6   229     2  0.6148996 -0.2154533  0.9842004  0.1770580 -0.1770580  0.9842004 
    6   229     3  0.6808130 -0.1481571  0.9912315  0.1321364 -0.1321364  0.9912315 
    6   229     4  0.6154444 -0.1851177  0.9868364  0.1617219 -0.1617219  0.9868364 
    6   230     1  0.6807997 -0.1640187  0.9950911  0.0989636 -0.0989636  0.9950911 
    6   230     2  0.6788735 -0.1758058  0.9926298  0.1211861 -0.1211861  0.9926298 
    6   230     3  0.6125999 -0.1865051  0.9939826  0.1095378 -0.1095378  0.9939826 
    6   230     4  0.6140038 -0.1953472  0.9917932  0.1278523 -0.1278523  0.9917932 
    6   231     1  0.7249980 -0.1602399  0.9962738  0.0862467 -0.0862467  0.9962738 
    6   231     2  0.7249639 -0.1438572  0.9971890  0.0749269 -0.0749269  0.9971890 
    6   231     3  0.7781086 -0.1361495  0.9976148  0.0690272 -0.0690272  0.9976148 
    6   231     4  0.7611976 -0.1289510  0.9979464  0.0640543 -0.0640543  0.9979464 
    6   232     1  0.6951213 -0.1436929  0.9963342  0.0855459 -0.0855459  0.9963342 
    6   232     2  0.6699480 -0.1703294  0.9978188  0.0660131 -0.0660131  0.9978188 
    6   232     3  0.6922292 -0.1770730  0.9964923  0.0836850 -0.0836850  0.9964923 
    6   232     4  0.6754980 -0.1863906  0.9974790  0.0709616 -0.0709616  0.9974790 
    6   233     1  0.7073281 -0.1564982  0.9977597  0.0668992 -0.0668992  0.9977597 
    6   233     2  0.7375967 -0.1393188  0.9985807  0.0532594 -0.0532594  0.9985807 
    6   233     3  0.7182949 -0.1689239  0.9975989  0.0692567 -0.0692567  0.9975989 
    6   233     4  0.7437513 -0.1532538  0.9983420  0.0575614 -0.0575614  0.9983420 
    6   234     1  0.6544978 -0.1885422  0.9984194  0.0562022 -0.0562022  0.9984194 
    6   234     2  0.6030516 -0.2274366  0.9962407  0.0866287 -0.0866287  0.9962407 
    6   234     3  0.6532841 -0.1478421  0.9989441  0.0459418 -0.0459418  0.9989441 
    6   234     4  0.6109751 -0.1847094  0.9973154  0.0732250 -0.0732250  0.9973154 
    6   235     1  0.6443548 -0.1685538  0.9999598  0.0089673 -0.0089673  0.9999598 
    6   235     2  0.6435824 -0.1905142  0.9995797  0.0289895 -0.0289895  0.9995797 
    6   235     3  0.6118803 -0.1821684  0.9998138  0.0192986 -0.0192986  0.9998138 
    6   235     4  0.6077734 -0.2030867  0.9992732  0.0381182 -0.0381182  0.9992732 
    6   236     1  0.6695883 -0.1685386  0.9999196  0.0126783 -0.0126783  0.9999196 
    6   236     2  0.7019978 -0.1569464  0.9999828  0.0058722 -0.0058722  0.9999828 
    6   236     3  0.6728837 -0.1784537  0.9996326  0.0271058 -0.0271058  0.9996326 
    6   236     4  0.7081628 -0.1670363  0.9997727  0.0213184 -0.0213184  0.9997727 
    6   237     1  0.7032933 -0.1794983  0.9986126  0.0526586 -0.0526586  0.9986126 
    6   237     2  0.7018193 -0.1588883  0.9987357  0.0502703 -0.0502703  0.9987357 
    6   237     3  0.7237931 -0.1661927  0.9991666  0.0408187 -0.0408187  0.9991666 
    6   237     4  0.7231673 -0.1433950  0.9993005  0.0373969 -0.0373969  0.9993005 
    6   238     1  0.8023809 -0.1296068  0.9985654  0.0535463 -0.0535463  0.9985654 
    6   238     2  0.8051221 -0.1455761  0.9983016  0.0582576 -0.0582576  0.9983016 
    6   238     3  0.8163338 -0.1163303  0.9978830  0.0650348 -0.0650348  0.9978830 
    6   238     4  0.8150024 -0.1319431  0.9978405  0.0656841 -0.0656841  0.9978405 
    6   239     1  0.7860008 -0.1251196  0.9991874  0.0403061 -0.0403061  0.9991874 
    6   239     2  0.7894699 -0.1355315  0.9987907  0.0491649 -0.0491649  0.9987907 
    6   239     3  0.7589276 -0.1388294  0.9987522  0.0499395 -0.0499395  0.9987522 
    6   239     4  0.7648281 -0.1460237  0.9984201  0.0561892 -0.0561892  0.9984201 
    6   240     1  0.8120078 -0.1263421  0.9992936  0.0375814 -0.0375814  0.9992936 
    6   240     2  0.8429261 -0.1172398  0.9992455  0.0388386 -0.0388386  0.9992455 
    6   240     3  0.8150138 -0.1266110  0.9988434  0.0480820 -0.0480820  0.9988434 
    6   240     4  0.8413698 -0.1186729  0.9988787  0.0473424 -0.0473424  0.9988787 
    6   241     1  0.8076392 -0.1293613  0.9993879  0.0349823 -0.0349823  0.9993879 
    6   241     2  0.8000078 -0.1277703  0.9997398  0.0228107 -0.0228107  0.9997398 
    6   241     3  0.8404112 -0.1192652  0.9994692  0.0325784 -0.0325784  0.9994692 
    6   241     4  0.8344881 -0.1172329  0.9997875  0.0206154 -0.0206154  0.9997875 
    6   242     1  0.7821179 -0.1398038  0.9993402  0.0363191 -0.0363191  0.9993402 
    6   242     2  0.7522414 -0.1504846  0.9990934  0.0425717 -0.0425717  0.9990934 
    6   242     3  0.7758433 -0.1304973  0.9996755  0.0254743 -0.0254743  0.9996755 
    6   242     4  0.7441896 -0.1420759  0.9994743  0.0324199 -0.0324199  0.9994743 
    6   243     1  0.7621964 -0.1393032  0.9999876  0.0049843 -0.0049843  0.9999876 
    6   243     2  0.7688596 -0.1441927  0.9998479  0.0174409 -0.0174409  0.9998479 
    6   243     3  0.7307017 -0.1493269  0.9999613  0.0087941 -0.0087941  0.9999613 
    6   243     4  0.7372558 -0.1539481  0.9997846  0.0207529 -0.0207529  0.9997846 
    6   244     1  0.7874317 -0.1323028  0.9999923  0.0039291 -0.0039291  0.9999923 
    6   244     2  0.8221306 -0.1218285  0.9999965  0.0026554 -0.0026554  0.9999965 
    6   244     3  0.7950985 -0.1322787  0.9998645  0.0164597 -0.0164597  0.9998645 
    6   244     4  0.8292201 -0.1219855  0.9998852  0.0151537 -0.0151537  0.9998852 
    6   245     1  0.8840593 -0.1045295  0.9999983  0.0018177 -0.0018177  0.9999983 
    6   245     2  0.8894493 -0.1035730  0.9999005  0.0141078 -0.0141078  0.9999005 
    6   245     3  0.8479648 -0.1153626  0.9999977  0.0021396 -0.0021396  0.9999977 
    6   245     4  0.8548188 -0.1139761  0.9998927  0.0146472 -0.0146472  0.9998927 
    6   246     1  0.9102007 -0.0989641  0.9999994  0.0010906 -0.0010906  0.9999994 
    6   246     2  0.9478895 -0.0876575  0.9999995  0.0010229 -0.0010229  0.9999995 
    6   246     3  0.9150824 -0.0977402  0.9999100  0.0134170 -0.0134170  0.9999100 
    6   246     4  0.9522991 -0.0865690  0.9999146  0.0130688 -0.0130688  0.9999146 
    6   247     1  0.9196683 -0.0974318  0.9995993  0.0283055 -0.0283055  0.9995993 
    6   247     2  0.9164527 -0.0973540  0.9998758  0.0157632 -0.0157632  0.9998758 
    6   247     3  0.9567157 -0.0862809  0.9996227  0.0274682 -0.0274682  0.9996227 
    6   247     4  0.9539723 -0.0860894  0.9998828  0.0153120 -0.0153120  0.9998828 
    6   248     1  0.8955600 -0.1025768  0.9995470  0.0300974 -0.0300974  0.9995470 
    6   248     2  0.8640745 -0.1121110  0.9995062  0.0314218 -0.0314218  0.9995062 
    6   248     3  0.8921431 -0.1013298  0.9998329  0.0182823 -0.0182823  0.9998329 
    6   248     4  0.8588485 -0.1113573  0.9998134  0.0193163 -0.0193163  0.9998134 
    6   249     1  0.8802319 -0.1043634  0.9978471  0.0655830 -0.0655830  0.9978471 
    6   249     2  0.8411948 -0.1166463  0.9981076  0.0614922 -0.0614922  0.9981076 
    6   249     3  0.8817595 -0.1106342  0.9985332  0.0541437 -0.0541437  0.9985332 
    6   249     4  0.8502216 -0.1206378  0.9987165  0.0506485 -0.0506485  0.9987165 
    6   250     1  0.8935553 -0.1053363  0.9993592  0.0357933 -0.0357933  0.9993592 
    6   250     2  0.8922539 -0.1038434  0.9989478  0.0458627 -0.0458627  0.9989478 
    6   250     3  0.8641874 -0.1143041  0.9994150  0.0341993 -0.0341993  0.9994150 
    6   250     4  0.8618958 -0.1129263  0.9989742  0.0452835 -0.0452835  0.9989742 
    6   251     1  0.9177159 -0.0984322  0.9995288  0.0306947 -0.0306947  0.9995288 
    6   251     2  0.9542045 -0.0874860  0.9995319  0.0305953 -0.0305953  0.9995319 
    6   251     3  0.9158204 -0.0991841  0.9990790  0.0429091 -0.0429091  0.9990790 
    6   251     4  0.9532471 -0.0879441  0.9991021  0.0423666 -0.0423666  0.9991021 
    6   252     1  0.9069451 -0.1018011  0.9981445  0.0608898 -0.0608898  0.9981445 
    6   252     2  0.9097634 -0.0959573  0.9988607  0.0477213 -0.0477213  0.9988607 
    6   252     3  0.9461319 -0.0898149  0.9982991  0.0583004 -0.0583004  0.9982991 
    6   252     4  0.9485158 -0.0840689  0.9989790  0.0451780 -0.0451780  0.9989790 
    6   253     1  1.0102437 -0.0745324  0.9986686  0.0515859 -0.0515859  0.9986686 
    6   253     2  0.9730691 -0.0861235  0.9985206  0.0543747 -0.0543747  0.9985206 
    6   253     3  1.0129051 -0.0694420  0.9992231  0.0394100 -0.0394100  0.9992231 
    6   253     4  0.9752733 -0.0810918  0.9991191  0.0419637 -0.0419637  0.9991191 
    6   254     1  1.0181246 -0.0677458  0.9997127  0.0239673 -0.0239673  0.9997127 
    6   254     2  1.0170295 -0.0748094  0.9993557  0.0358903 -0.0358903  0.9993557 
    6   254     3  0.9811252 -0.0793088  0.9996313  0.0271515 -0.0271515  0.9996313 
    6   254     4  0.9786546 -0.0869593  0.9992178  0.0395450 -0.0395450  0.9992178 
    6   255     1  1.0440619 -0.0672893  0.9997242  0.0234838 -0.0234838  0.9997242 
    6   255     2  1.0862567 -0.0542888  0.9997794  0.0210024 -0.0210024  0.9997794 
    6   255     3  1.0431372 -0.0707531  0.9993820  0.0351523 -0.0351523  0.9993820 
    6   255     4  1.0808700 -0.0591398  0.9994559  0.0329838 -0.0329838  0.9994559 
    6   256     1  1.0379770 -0.0754575  0.9988737  0.0474491 -0.0474491  0.9988737 
    6   256     2  1.0408579 -0.0634041  0.9993987  0.0346735 -0.0346735  0.9993987 
    6   256     3  1.0842169 -0.0599372  0.9991472  0.0412890 -0.0412890  0.9991472 
    6   256     4  1.0805398 -0.0504310  0.9995553  0.0298189 -0.0298189  0.9995553 
    6   257     1  1.0443035 -0.0704107  0.9997528  0.0222337 -0.0222337  0.9997528 
    6   257     2  1.0421020 -0.0672725  0.9999368  0.0112450 -0.0112450  0.9999368 
    6   257     3  1.0861984 -0.0577212  0.9997938  0.0203050 -0.0203050  0.9997938 
    6   257     4  1.0797668 -0.0558037  0.9999557  0.0094152 -0.0094152  0.9999557 
    6   258     1  1.0182383 -0.0719173  0.9996921  0.0248141 -0.0248141  0.9996921 
    6   258     2  0.9816209 -0.0829818  0.9996626  0.0259757 -0.0259757  0.9996626 
    6   258     3  1.0163283 -0.0710517  0.9999185  0.0127673 -0.0127673  0.9999185 
    6   258     4  0.9793310 -0.0822228  0.9999032  0.0139130 -0.0139130  0.9999032 
    6   259     1  1.0120218 -0.0719272  1.0000000 -0.0000873  0.0000873  1.0000000 
    6   259     2  1.0153190 -0.0718030  0.9999297  0.0118582 -0.0118582  0.9999297 
    6   259     3  0.9741284 -0.0833036  1.0000000  0.0003136 -0.0003136  1.0000000 
    6   259     4  0.9780290 -0.0830065  0.9999227  0.0124326 -0.0124326  0.9999227 
    6   260     1  1.0377659 -0.0726340  0.9999998 -0.0006845  0.0006845  0.9999998 
    6   260     2  1.0775180 -0.0606905  0.9999999  0.0004031 -0.0004031  0.9999999 
    6   260     3  1.0415949 -0.0687852  0.9999319  0.0116711 -0.0116711  0.9999319 
    6   260     4  1.0798395 -0.0573374  0.9999234  0.0123749 -0.0123749  0.9999234 
    6   261     1  1.1397200 -0.0484196  0.9999886  0.0047655 -0.0047655  0.9999886 
    6   261     2  1.1397503 -0.0392060  0.9998922  0.0146832 -0.0146832  0.9998922 
    6   261     3  1.0981779 -0.0627958  0.9999995 -0.0009936  0.0009936  0.9999995 
    6   261     4  1.1003516 -0.0554720  0.9999798  0.0063507 -0.0063507  0.9999798 
    6   262     1  1.1739543 -0.0486159  0.9999968  0.0025161 -0.0025161  0.9999968 
    6   262     2  1.1978805 -0.0404656  0.9999829  0.0058418 -0.0058418  0.9999829 
    6   262     3  1.1737639 -0.0444239  0.9999825  0.0059231 -0.0059231  0.9999825 
    6   262     4  1.1990420 -0.0351152  0.9999500  0.0099954 -0.0099954  0.9999500 
    6   263     1  1.1726216 -0.0463152  0.9998986  0.0142388 -0.0142388  0.9998986 
    6   263     2  1.1697124 -0.0464424  0.9999493  0.0100694 -0.0100694  0.9999493 
    6   263     3  1.1985758 -0.0385973  0.9998995  0.0141795 -0.0141795  0.9998995 
    6   263     4  1.1975610 -0.0380336  0.9999565  0.0093257 -0.0093257  0.9999565 
    6   264     1  1.1466725 -0.0451873  0.9998469  0.0174992 -0.0174992  0.9998469 
    6   264     2  1.1101097 -0.0564521  0.9998018  0.0199103 -0.0199103  0.9998018 
    6   264     3  1.1398564 -0.0422954  0.9999665  0.0081794 -0.0081794  0.9999665 
    6   264     4  1.1052415 -0.0543301  0.9999132  0.0131742 -0.0131742  0.9999132 
    6   265     1  1.1688263 -0.0456850  0.9999971  0.0024213 -0.0024213  0.9999971 
    6   265     2  1.1737186 -0.0491463  0.9999992 -0.0012636  0.0012636  0.9999992 
    6   265     3  1.2014473 -0.0340242  0.9999733  0.0073142 -0.0073142  0.9999733 
    6   265     4  1.2012632 -0.0388264  0.9999947  0.0032614 -0.0032614  0.9999947 
    6   266     1  1.1479055 -0.0452053  0.9999911  0.0042182 -0.0042182  0.9999911 
    6   266     2  1.1544072 -0.0531324  0.9999982  0.0018914 -0.0018914  0.9999982 
    6   266     3  1.1411880 -0.0523158  0.9999714  0.0075677 -0.0075677  0.9999714 
    6   266     4  1.1464640 -0.0564388  0.9999849  0.0055036 -0.0055036  0.9999849 
    6   267     1  1.1565132 -0.0509351  0.9999895 -0.0045852  0.0045852  0.9999895 
    6   267     2  1.1965411 -0.0379394  0.9999998 -0.0006181  0.0006181  0.9999998 
    6   267     3  1.1721262 -0.0426507  0.9999991  0.0013743 -0.0013743  0.9999991 
    6   267     4  1.1999988 -0.0341653  0.9999945  0.0033312 -0.0033312  0.9999945 
    6   268     1  1.1404928 -0.0490063  0.9994443  0.0333339 -0.0333339  0.9994443 
    6   268     2  1.1075982 -0.0629703  0.9991662  0.0408289 -0.0408289  0.9991662 
    6   268     3  1.1396559 -0.0328976  0.9997086  0.0241407 -0.0241407  0.9997086 
    6   268     4  1.1059367 -0.0527276  0.9993855  0.0350522 -0.0350522  0.9993855 
    6   269     1  1.1455185 -0.0443340  0.9998048  0.0197589 -0.0197589  0.9998048 
    6   269     2  1.1410012 -0.0435380  0.9995505  0.0299811 -0.0299811  0.9995505 
    6   269     3  1.1093002 -0.0551344  0.9998144  0.0192650 -0.0192650  0.9998144 
    6   269     4  1.1058352 -0.0545675  0.9996395  0.0268504 -0.0268504  0.9996395 
    6   270     1  1.1714225 -0.0442058  0.9998064  0.0196756 -0.0196756  0.9998064 
    6   270     2  1.1960741 -0.0366316  0.9998311  0.0183807 -0.0183807  0.9998311 
    6   270     3  1.1691832 -0.0459176  0.9997065  0.0242274 -0.0242274  0.9997065 
    6   270     4  1.1952049 -0.0381135  0.9997196  0.0236798 -0.0236798  0.9997196 
    6   271     1  1.1689167 -0.0500868  0.9995013  0.0315774 -0.0315774  0.9995013 
    6   271     2  1.1689560 -0.0442021  0.9996175  0.0276570 -0.0276570  0.9996175 
    6   271     3  1.1940543 -0.0405878  0.9996330  0.0270883 -0.0270883  0.9996330 
    6   271     4  1.1953599 -0.0333459  0.9997503  0.0223478 -0.0223478  0.9997503 
    6   272     1  1.1547666 -0.0390210  0.9993957  0.0347584 -0.0347584  0.9993957 
    6   272     2  1.1420190 -0.0498323  0.9995755  0.0291339 -0.0291339  0.9995755 
    6   272     3  1.1566554 -0.0517128  0.9994353  0.0336006 -0.0336006  0.9994353 
    6   272     4  1.1462694 -0.0555077  0.9995574  0.0297478 -0.0297478  0.9995574 
    6   273     1  1.1666300 -0.0460118  0.9995245  0.0308340 -0.0308340  0.9995245 
    6   273     2  1.1953301 -0.0346363  0.9996752  0.0254846 -0.0254846  0.9996752 
    6   273     3  1.1741213 -0.0492896  0.9994178  0.0341191 -0.0341191  0.9994178 
    6   273     4  1.1959673 -0.0402710  0.9995559  0.0297999 -0.0297999  0.9995559 
    6   274     1  1.1721756 -0.0485327  0.9992870  0.0377567 -0.0377567  0.9992870 
    6   274     2  1.1764020 -0.0410908  0.9994769  0.0323404 -0.0323404  0.9994769 
    6   274     3  1.1950863 -0.0400788  0.9994205  0.0340404 -0.0340404  0.9994205 
    6   274     4  1.1967926 -0.0345502  0.9995549  0.0298339 -0.0298339  0.9995549 
    6   275     1  1.1658738 -0.0452012  0.9992383  0.0390238 -0.0390238  0.9992383 
    6   275     2  1.1723190 -0.0469566  0.9993453  0.0361795 -0.0361795  0.9993453 
    6   275     3  1.1901891 -0.0361325  0.9990770  0.0429561 -0.0429561  0.9990770 
    6   275     4  1.1902506 -0.0399773  0.9992259  0.0393401 -0.0393401  0.9992259 
    6   276     1  1.1527742 -0.0383445  0.9992735  0.0381119 -0.0381119  0.9992735 
    6   276     2  1.1586873 -0.0514506  0.9991623  0.0409232 -0.0409232  0.9991623 
    6   276     3  1.1321816 -0.0530209  0.9989497  0.0458205 -0.0458205  0.9989497 
    6   276     4  1.1410183 -0.0582776  0.9989501  0.0458110 -0.0458110  0.9989501 
    6   277     1  1.1728753 -0.0483275  0.9995418  0.0302684 -0.0302684  0.9995418 
    6   277     2  1.1932165 -0.0409691  0.9994389  0.0334948 -0.0334948  0.9994389 
    6   277     3  1.1775733 -0.0410562  0.9993763  0.0353130 -0.0353130  0.9993763 
    6   277     4  1.1956831 -0.0354528  0.9992988  0.0374414 -0.0374414  0.9992988 
    6   278     1  1.1887718 -0.0347837  0.9971065  0.0760169 -0.0760169  0.9971065 
    6   278     2  1.1883412 -0.0506221  0.9972974  0.0734705 -0.0734705  0.9972974 
    6   278     3  1.2044943 -0.0224760  0.9965948  0.0824552 -0.0824552  0.9965948 
    6   278     4  1.1982221 -0.0397598  0.9969563  0.0779630 -0.0779630  0.9969563 
    6   279     1  1.1778742 -0.0148102  0.9973775  0.0723754 -0.0723754  0.9973775 
    6   279     2  1.1812098 -0.0325051  0.9967744  0.0802543 -0.0802543  0.9967744 
    6   279     3  1.1643229 -0.0257537  0.9969536  0.0779968 -0.0779968  0.9969536 
    6   279     4  1.1665548 -0.0393929  0.9964642  0.0840189 -0.0840189  0.9964642 
    6   280     1  1.1870864 -0.0292273  0.9976068  0.0691420 -0.0691420  0.9976068 
    6   280     2  1.2031522 -0.0248362  0.9976512  0.0684989 -0.0684989  0.9976512 
    6   280     3  1.1921890 -0.0342549  0.9970622  0.0765957 -0.0765957  0.9970622 
    6   280     4  1.2058155 -0.0300628  0.9971485  0.0754650 -0.0754650  0.9971485 
    6   281     1  1.1696791 -0.0474863  0.9997965  0.0201735 -0.0201735  0.9997965 
    6   281     2  1.1763978 -0.0461098  0.9998836  0.0152587 -0.0152587  0.9998836 
    6   281     3  1.1988497 -0.0387401  0.9997909  0.0204479 -0.0204479  0.9997909 
    6   281     4  1.2000407 -0.0389753  0.9998744  0.0158508 -0.0158508  0.9998744 
    6   282     1  1.1557639 -0.0405988  0.9998392  0.0179317 -0.0179317  0.9998392 
    6   282     2  1.1528655 -0.0511385  0.9998907  0.0147825 -0.0147825  0.9998907 
    6   282     3  1.1521235 -0.0520137  0.9997792  0.0210122 -0.0210122  0.9997792 
    6   282     4  1.1509534 -0.0566892  0.9998410  0.0178301 -0.0178301  0.9998410 
    6   283     1  1.1687391 -0.0474498  0.9999068  0.0136554 -0.0136554  0.9999068 
    6   283     2  1.1992513 -0.0381937  0.9999223  0.0124636 -0.0124636  0.9999223 
    6   283     3  1.1765291 -0.0467613  0.9998298  0.0184484 -0.0184484  0.9998298 
    6   283     4  1.2009121 -0.0392656  0.9998523  0.0171850 -0.0171850  0.9998523 
    6   284     1  1.2201459 -0.0231070  0.9974480  0.0713971 -0.0713971  0.9974480 
    6   284     2  1.2028866 -0.0417280  0.9968628  0.0791494 -0.0791494  0.9968628 
    6   284     3  1.2151321 -0.0070116  0.9975322  0.0702106 -0.0702106  0.9975322 
    6   284     4  1.2052800 -0.0223206  0.9971493  0.0754536 -0.0754536  0.9971493 
    6   285     1  1.2235807 -0.0251201  0.9978937  0.0648699 -0.0648699  0.9978937 
    6   285     2  1.2240702 -0.0257196  0.9974038  0.0720110 -0.0720110  0.9974038 
    6   285     3  1.2098901 -0.0293373  0.9978099  0.0661471 -0.0661471  0.9978099 
    6   285     4  1.2124311 -0.0292590  0.9973657  0.0725370 -0.0725370  0.9973657 
    6   286     1  1.2312957 -0.0390069  0.9982336  0.0594107 -0.0594107  0.9982336 
    6   286     2  1.2451783 -0.0319312  0.9980097  0.0630612 -0.0630612  0.9980097 
    6   286     3  1.2340962 -0.0279696  0.9977196  0.0674958 -0.0674958  0.9977196 
    6   286     4  1.2471404 -0.0235525  0.9976006  0.0692320 -0.0692320  0.9976006 
    6   287     1  1.3605096 -0.0090475  0.9989206  0.0464504 -0.0464504  0.9989206 
    6   287     2  1.3399375 -0.0287141  0.9985219  0.0543511 -0.0543511  0.9985219 
    6   287     3  1.3542708  0.0045076  0.9990152  0.0443690 -0.0443690  0.9990152 
    6   287     4  1.3423024 -0.0115392  0.9987449  0.0500863 -0.0500863  0.9987449 
    6   288     1  1.3682606 -0.0049740  0.9991928  0.0401716 -0.0401716  0.9991928 
    6   288     2  1.3648069 -0.0115012  0.9988970  0.0469558 -0.0469558  0.9988970 
    6   288     3  1.3537753 -0.0103393  0.9991069  0.0422537 -0.0422537  0.9991069 
    6   288     4  1.3526567 -0.0154505  0.9988455  0.0480378 -0.0480378  0.9988455 
    6   289     1  1.3775676 -0.0216662  0.9993716  0.0354446 -0.0354446  0.9993716 
    6   289     2  1.3919451 -0.0154677  0.9992645  0.0383475 -0.0383475  0.9992645 
    6   289     3  1.3764142 -0.0148525  0.9990726  0.0430580 -0.0430580  0.9990726 
    6   289     4  1.3905224 -0.0102780  0.9990180  0.0443052 -0.0443052  0.9990180 
    6   290     1  1.5090560 -0.0057196  0.9996869  0.0250232 -0.0250232  0.9996869 
    6   290     2  1.4875946 -0.0214468  0.9994988  0.0316552 -0.0316552  0.9994988 
    6   290     3  1.5029751  0.0006088  0.9997509  0.0223204 -0.0223204  0.9997509 
    6   290     4  1.4900883 -0.0116322  0.9996210  0.0275310 -0.0275310  0.9996210 
    6   291     1  1.5215212  0.0098200  0.9998007  0.0199661 -0.0199661  0.9998007 
    6   291     2  1.5139228  0.0001277  0.9996568  0.0261978 -0.0261978  0.9996568 
    6   291     3  1.5060971  0.0033520  0.9997461  0.0225343 -0.0225343  0.9997461 
    6   291     4  1.5022834 -0.0037743  0.9996249  0.0273878 -0.0273878  0.9996249 
    6   292     1  1.5332219 -0.0073842  0.9998467  0.0175067 -0.0175067  0.9998467 
    6   292     2  1.5480319 -0.0012902  0.9998024  0.0198773 -0.0198773  0.9998024 
    6   292     3  1.5269572 -0.0017702  0.9997195  0.0236823 -0.0236823  0.9997195 
    6   292     4  1.5409063  0.0026669  0.9996929  0.0247825 -0.0247825  0.9996929 
    7     1     1  0.1914035 -2.6093218  0.9975105 -0.0705174  0.0705174  0.9975105 
    7     1     2  0.2729773 -2.3726328  0.9959148 -0.0902984  0.0902984  0.9959148 
    7     1     3  0.2678719 -2.6157122  0.9962343 -0.0867025  0.0867025  0.9962343 
    7     1     4  0.3624200 -2.3659935  0.9940122 -0.1092689  0.1092689  0.9940122 
    7     2     1  0.2453097 -2.2225895  0.9996871  0.0250137 -0.0250137  0.9996871 
    7     2     2  0.1569035 -2.2508504  0.9999751 -0.0070505  0.0070505  0.9999751 
    7     2     3  0.1327882 -2.5881244  0.9999911  0.0042203 -0.0042203  0.9999911 
    7     2     4  0.0487981 -2.6163609  0.9996899 -0.0249001  0.0249001  0.9996899 
    7     3     1  0.3541016 -1.9104223  0.9899379  0.1415024 -0.1415024  0.9899379 
    7     3     2  0.5864008 -1.3470546  0.9758752  0.2183291 -0.2183291  0.9758752 
    7     3     3  0.1670156 -1.9358564  0.9958927  0.0905409 -0.0905409  0.9958927 
    7     3     4  0.3837226 -1.3519253  0.9861002  0.1661517 -0.1661517  0.9861002 
    7     4     1  0.2725494 -2.2724244  0.9985688  0.0534824 -0.0534824  0.9985688 
    7     4     2  0.4086682 -2.2125793  0.9935923  0.1130235 -0.1130235  0.9935923 
    7     4     3  0.5275563 -1.4881910  0.9950119  0.0997563 -0.0997563  0.9950119 
    7     4     4  0.6709215 -1.4847755  0.9854232  0.1701212 -0.1701212  0.9854232 
    7     5     1  0.8455205 -2.7184287  0.9989958  0.0448034 -0.0448034  0.9989958 
    7     5     2  0.7076894 -3.0675276  0.9945295  0.1044561 -0.1044561  0.9945295 
    7     5     3  0.3338574 -2.7867614  0.9984388  0.0558573 -0.0558573  0.9984388 
    7     5     4  0.2991594 -3.0481932  0.9944123  0.1055656 -0.1055656  0.9944123 
    7     6     1  0.7206092 -2.3382145  0.9998785 -0.0155895  0.0155895  0.9998785 
    7     6     2  0.9613613 -5.8956056  0.8814843 -0.4722133  0.4722133  0.8814843 
    7     6     3 -0.8604041 -7.9431168  0.9997529  0.0222292 -0.0222292  0.9997529 
    7     6     4 -2.1105383 -13.262844  0.9621258 -0.2726058  0.2726058  0.9621258 
    7     7     1  0.0993647 -1.0687221  0.9088706 -0.4170781  0.4170781  0.9088706 
    7     7     2  0.1913418 -0.5057871  0.8882348 -0.4593897  0.4593897  0.8882348 
    7     7     3 -0.1328428 -1.4936962  0.8241815 -0.5663258  0.5663258  0.8241815 
    7     7     4  0.0087329 -0.9217050  0.7447716 -0.6673194  0.6673194  0.7447716 
    7     8     1 -0.0858064 -3.3664473  0.9491373 -0.3148624  0.3148624  0.9491373 
    7     8     2  0.2298876 -2.7803073  0.9835478 -0.1806483  0.1806483  0.9835478 
    7     8     3  0.3450509 -1.8751042  0.9243734 -0.3814888  0.3814888  0.9243734 
    7     8     4  0.5730127 -1.4316214  0.9818476 -0.1896716  0.1896716  0.9818476 
    7     9     1  0.5425403 -1.4414417  0.8550369  0.5185672 -0.5185672  0.8550369 
    7     9     2 -0.8247804 -6.1012881  0.9037002  0.4281658 -0.4281658  0.9037002 
    7     9     3  0.8877308 -3.3883447  0.5944114  0.8041611 -0.8041611  0.5944114 
    7     9     4 -0.6880980 -6.3164841  0.7696690  0.6384432 -0.6384432  0.7696690 
    7    10     1  0.4606825 -1.7417185  0.8014055  0.5981214 -0.5981214  0.8014055 
    7    10     2 -0.1817044 -1.9946564  0.8496009  0.5274261 -0.5274261  0.8496009 
    7    10     3  0.5767134 -1.8004536  0.8492594  0.5279758 -0.5279758  0.8492594 
    7    10     4  0.1352598 -1.9525054  0.8649560  0.5018477 -0.5018477  0.8649560 
    7    11     1  0.9539367 -0.4477676  0.4863285 -0.8737761  0.8737761  0.4863285 
    7    11     2  1.4186373  0.0589155  0.6576250 -0.7533455  0.7533455  0.6576250 
    7    11     3  0.5119160 -0.3377462  0.4366668 -0.8996233  0.8996233  0.4366668 
    7    11     4  0.9971038  0.1462313  0.7089341 -0.7052747  0.7052747  0.7089341 
    7    12     1  0.1103702 -2.0578451  0.9992826  0.0378719 -0.0378719  0.9992826 
    7    12     2 -0.0460318 -2.5685451  0.9998507  0.0172807 -0.0172807  0.9998507 
    7    12     3  0.1892941 -2.0505687  0.9963734  0.0850890 -0.0850890  0.9963734 
    7    12     4  0.0276899 -2.5568230  0.9982798  0.0586289 -0.0586289  0.9982798 
    7    13     1  0.1463124 -1.9088720  0.9937170  0.1119216 -0.1119216  0.9937170 
    7    13     2  0.0775689 -1.9063126  0.9980203  0.0628933 -0.0628933  0.9980203 
    7    13     3 -0.0122068 -2.3976471  0.9965026  0.0835618 -0.0835618  0.9965026 
    7    13     4 -0.0758027 -2.4001176  0.9991692  0.0407545 -0.0407545  0.9991692 
    7    14     1  0.1125001 -1.6879521  0.9743543  0.2250193 -0.2250193  0.9743543 
    7    14     2  0.2881775 -1.2767502  0.9571499  0.2895930 -0.2895930  0.9571499 
    7    14     3  0.0110324 -1.6721734  0.9833598  0.1816689 -0.1816689  0.9833598 
    7    14     4  0.1769345 -1.2512356  0.9694515  0.2452831 -0.2452831  0.9694515 
    7    15     1  0.0698670 -1.7688830  0.9901811  0.1397906 -0.1397906  0.9901811 
    7    15     2  0.2016130 -1.7716350  0.9823750  0.1869206 -0.1869206  0.9823750 
    7    15     3  0.2562519 -1.2819775  0.9781177  0.2080521 -0.2080521  0.9781177 
    7    15     4  0.4003785 -1.2973769  0.9665056  0.2566454 -0.2566454  0.9665056 
    7    16     1  0.0550655 -1.7644204  0.9970852  0.0762958 -0.0762958  0.9970852 
    7    16     2 -0.0786627 -2.1908972  0.9985418  0.0539843 -0.0539843  0.9985418 
    7    16     3  0.1143259 -1.7693789  0.9925157  0.1221172 -0.1221172  0.9925157 
    7    16     4 -0.0237496 -2.1915302  0.9955339  0.0944051 -0.0944051  0.9955339 
    7    17     1  0.0907066 -1.6300993  0.9922220  0.1244809 -0.1244809  0.9922220 
    7    17     2  0.0404462 -1.6255319  0.9965276  0.0832626 -0.0832626  0.9965276 
    7    17     3 -0.0238960 -1.9789221  0.9951249  0.0986225 -0.0986225  0.9951249 
    7    17     4 -0.0707766 -1.9777288  0.9980904  0.0617704 -0.0617704  0.9980904 
    7    18     1  0.0458377 -1.5173878  0.9651955  0.2615295 -0.2615295  0.9651955 
    7    18     2  0.1724499 -1.2077008  0.9506585  0.3102393 -0.3102393  0.9506585 
    7    18     3 -0.0073870 -1.4915939  0.9744779  0.2244835 -0.2244835  0.9744779 
    7    18     4  0.1136226 -1.1763103  0.9624270  0.2715406 -0.2715406  0.9624270 
    7    19     1 -0.0071868 -1.5827444  0.9782502  0.2074284 -0.2074284  0.9782502 
    7    19     2  0.0599174 -1.6085460  0.9686003  0.2486231 -0.2486231  0.9686003 
    7    19     3  0.1344765 -1.2122539  0.9655308  0.2602889 -0.2602889  0.9655308 
    7    19     4  0.2089791 -1.2454383  0.9528328  0.3034958 -0.3034958  0.9528328 
    7    20     1  0.0307457 -1.4896737  0.9961168  0.0880412 -0.0880412  0.9961168 
    7    20     2 -0.0603838 -1.7758310  0.9977459  0.0671054 -0.0671054  0.9977459 
    7    20     3  0.0747412 -1.4927972  0.9922050  0.1246163 -0.1246163  0.9922050 
    7    20     4 -0.0190015 -1.7763434  0.9949596  0.1002765 -0.1002765  0.9949596 
    7    21     1  0.0633634 -1.3587621  0.9921729  0.1248719 -0.1248719  0.9921729 
    7    21     2  0.0238603 -1.3571130  0.9957224  0.0923949 -0.0923949  0.9957224 
    7    21     3 -0.0133433 -1.5886799  0.9948354  0.1015017 -0.1015017  0.9948354 
    7    21     4 -0.0507934 -1.5890830  0.9974301  0.0716467 -0.0716467  0.9974301 
    7    22     1  0.0433993 -1.3113414  0.9605633  0.2780614 -0.2780614  0.9605633 
    7    22     2  0.1384106 -1.0855811  0.9472477  0.3205025 -0.3205025  0.9472477 
    7    22     3  0.0015195 -1.2910144  0.9687810  0.2479180 -0.2479180  0.9687810 
    7    22     4  0.0930169 -1.0617412  0.9571172  0.2897011 -0.2897011  0.9571172 
    7    23     1 -0.0038445 -1.3939225  0.9713939  0.2374742 -0.2374742  0.9713939 
    7    23     2  0.0437362 -1.4169618  0.9626426  0.2707751 -0.2707751  0.9626426 
    7    23     3  0.1017812 -1.1246593  0.9594272  0.2819564 -0.2819564  0.9594272 
    7    23     4  0.1538084 -1.1521427  0.9486607  0.3162954 -0.3162954  0.9486607 
    7    24     1  0.0470846 -1.1075977  0.9918596  0.1273364 -0.1273364  0.9918596 
    7    24     2  0.0150749 -1.1079765  0.9948103  0.1017472 -0.1017472  0.9948103 
    7    24     3 -0.0040619 -1.2571349  0.9944428  0.1052781 -0.1052781  0.9944428 
    7    24     4 -0.0347988 -1.2587863  0.9967001  0.0811725 -0.0811725  0.9967001 
    7    25     1  0.0502810 -1.0993247  0.9564262  0.2919740 -0.2919740  0.9564262 
    7    25     2  0.1214818 -0.9404312  0.9437507  0.3306579 -0.3306579  0.9437507 
    7    25     3  0.0138058 -1.0857331  0.9633454  0.2682640 -0.2682640  0.9633454 
    7    25     4  0.0828319 -0.9246651  0.9516573  0.3071619 -0.3071619  0.9516573 
    7    26     1  0.0100971 -1.1871585  0.9662900  0.2574563 -0.2574563  0.9662900 
    7    26     2  0.0453941 -1.2047236  0.9587460  0.2842640 -0.2842640  0.9587460 
    7    26     3  0.0870310 -0.9966923  0.9553655  0.2954263 -0.2954263  0.9553655 
    7    26     4  0.1249631 -1.0168921  0.9465153  0.3226588 -0.3226588  0.9465153 
    7    27     1  0.0188394 -1.2290295  0.9953000  0.0968398 -0.0968398  0.9953000 
    7    27     2 -0.0424748 -1.4172288  0.9970974  0.0761369 -0.0761369  0.9970974 
    7    27     3  0.0545212 -1.2295321  0.9920543  0.1258107 -0.1258107  0.9920543 
    7    27     4 -0.0084223 -1.4161025  0.9946713  0.1030967 -0.1030967  0.9946713 
    7    28     1  0.0196717 -0.9855825  0.9604831  0.2783382 -0.2783382  0.9604831 
    7    28     2  0.0493966 -0.9978489  0.9539776  0.2998779 -0.2998779  0.9539776 
    7    28     3  0.0776204 -0.8510362  0.9495116  0.3137319 -0.3137319  0.9495116 
    7    28     4  0.1089994 -0.8649567  0.9421889  0.3350822 -0.3350822  0.9421889 
    7    29     1  0.0119437 -0.9924963  0.9941309  0.1081840 -0.1081840  0.9941309 
    7    29     2 -0.0287337 -1.1127397  0.9962039  0.0870499 -0.0870499  0.9962039 
    7    29     3  0.0416740 -0.9912227  0.9914253  0.1306744 -0.1306744  0.9914253 
    7    29     4 -0.0000220 -1.1104475  0.9940941  0.1085217 -0.1085217  0.9940941 
    7    30     1  0.0363321 -0.8814118  0.9908752  0.1347828 -0.1347828  0.9908752 
    7    30     2  0.0093642 -0.8832667  0.9933260  0.1153409 -0.1153409  0.9933260 
    7    30     3  0.0028637 -0.9745983  0.9936204  0.1127765 -0.1127765  0.9936204 
    7    30     4 -0.0233175 -0.9772399  0.9955760  0.0939598 -0.0939598  0.9955760 
    7    31     1  0.0527800 -0.9007446  0.9514153  0.3079105 -0.3079105  0.9514153 
    7    31     2  0.1011152 -0.7963717  0.9405749  0.3395864 -0.3395864  0.9405749 
    7    31     3  0.0271314 -0.8912977  0.9570402  0.2899554 -0.2899554  0.9570402 
    7    31     4  0.0743248 -0.7857830  0.9467461  0.3219811 -0.3219811  0.9467461 
    7    32     1  0.0073574 -0.7806248  0.9923043  0.1238232 -0.1238232  0.9923043 
    7    32     2 -0.0183329 -0.8515831  0.9947690  0.1021505 -0.1021505  0.9947690 
    7    32     3  0.0318191 -0.7782270  0.9901481  0.1400241 -0.1400241  0.9901481 
    7    32     4  0.0055445 -0.8486010  0.9930029  0.1180903 -0.1180903  0.9930029 
    7    33     1  0.0280775 -0.6809279  0.9891196  0.1471137 -0.1471137  0.9891196 
    7    33     2  0.0055172 -0.6839297  0.9909319  0.1343647 -0.1343647  0.9909319 
    7    33     3  0.0078841 -0.7316953  0.9921766  0.1248420 -0.1248420  0.9921766 
    7    33     4 -0.0142611 -0.7351121  0.9937068  0.1120123 -0.1120123  0.9937068 
    7    34     1  0.0596987 -0.7211620  0.9426648  0.3337409 -0.3337409  0.9426648 
    7    34     2  0.0944579 -0.6575162  0.9318333  0.3628866 -0.3628866  0.9318333 
    7    34     3  0.0363720 -0.7168869  0.9465982  0.3224155 -0.3224155  0.9465982 
    7    34     4  0.0705803 -0.6526903  0.9358626  0.3523651 -0.3523651  0.9358626 
    7    35     1  0.0327440 -0.8023074  0.9523941  0.3048697 -0.3048697  0.9523941 
    7    35     2  0.0573706 -0.8086827  0.9477111  0.3191295 -0.3191295  0.9477111 
    7    35     3  0.0724875 -0.7205648  0.9420025  0.3356057 -0.3356057  0.9420025 
    7    35     4  0.0979035 -0.7277294  0.9370345  0.3492369 -0.3492369  0.9370345 
    7    36     1  0.0213016 -0.5036582  0.9861639  0.1657731 -0.1657731  0.9861639 
    7    36     2  0.0033238 -0.5074147  0.9870256  0.1605628 -0.1605628  0.9870256 
    7    36     3  0.0108812 -0.5236771  0.9896293  0.1436452 -0.1436452  0.9896293 
    7    36     4 -0.0069653 -0.5275646  0.9904442  0.1379141 -0.1379141  0.9904442 
    7    37     1  0.0600379 -0.5587114  0.9290396  0.3699802 -0.3699802  0.9290396 
    7    37     2  0.0865038 -0.5193103  0.9173849  0.3980012 -0.3980012  0.9173849 
    7    37     3  0.0397163 -0.5572165  0.9316087  0.3634627 -0.3634627  0.9316087 
    7    37     4  0.0659401 -0.5175737  0.9197628  0.3924746 -0.3924746  0.9197628 
    7    38     1  0.0393002 -0.6352871  0.9395710  0.3423541 -0.3423541  0.9395710 
    7    38     2  0.0601577 -0.6376725  0.9365736  0.3504708 -0.3504708  0.9365736 
    7    38     3  0.0673763 -0.5880780  0.9290013  0.3700764 -0.3700764  0.9290013 
    7    38     4  0.0885615 -0.5907908  0.9260630  0.3773689 -0.3773689  0.9260630 
    7    39     1  0.0043482 -0.5918296  0.9892278  0.1463841 -0.1463841  0.9892278 
    7    39     2 -0.0106698 -0.6273227  0.9923380  0.1235524 -0.1235524  0.9923380 
    7    39     3  0.0247176 -0.5884844  0.9877737  0.1558943 -0.1558943  0.9877737 
    7    39     4  0.0094244 -0.6237024  0.9910631  0.1333935 -0.1333935  0.9910631 
    7    40     1  0.0407291 -0.4835239  0.9229907  0.3848221 -0.3848221  0.9229907 
    7    40     2  0.0570415 -0.4844809  0.9210446  0.3894571 -0.3894571  0.9210446 
    7    40     3  0.0616450 -0.4542734  0.9118199  0.4105904 -0.4105904  0.9118199 
    7    40     4  0.0780931 -0.4553654  0.9100925  0.4144052 -0.4144052  0.9100925 
    7    41     1  0.0026112 -0.4284134  0.9839197  0.1786113 -0.1786113  0.9839197 
    7    41     2 -0.0039445 -0.4360965  0.9878002  0.1557266 -0.1557266  0.9878002 
    7    41     3  0.0188311 -0.4241326  0.9838403  0.1790485 -0.1790485  0.9838403 
    7    41     4  0.0122600 -0.4318006  0.9876335  0.1567801 -0.1567801  0.9876335 
    7    42     1  0.0158779 -0.3512496  0.9809310  0.1943563 -0.1943563  0.9809310 
    7    42     2  0.0019480 -0.3559879  0.9798233  0.1998659 -0.1998659  0.9798233 
    7    42     3  0.0129878 -0.3477158  0.9848756  0.1732630 -0.1732630  0.9848756 
    7    42     4 -0.0010256 -0.3523698  0.9839689  0.1783399 -0.1783399  0.9839689 
    7    43     1  0.0552238 -0.4157225  0.9125517  0.4089614 -0.4089614  0.9125517 
    7    43     2  0.0702442 -0.3985342  0.9032099  0.4291991 -0.4291991  0.9032099 
    7    43     3  0.0424074 -0.4161055  0.9132489  0.4074021 -0.4074021  0.9132489 
    7    43     4  0.0573968 -0.3988877  0.9036847  0.4281985 -0.4281985  0.9036847 
    7    44     1  0.0014440 -0.2903682  0.9742614  0.2254210 -0.2254210  0.9742614 
    7    44     2  0.0018201 -0.2767197  0.9782858  0.2072604 -0.2072604  0.9782858 
    7    44     3  0.0130001 -0.2850891  0.9772063  0.2122919 -0.2122919  0.9772063 
    7    44     4  0.0135212 -0.2715874  0.9810246  0.1938835 -0.1938835  0.9810246 
    7    45     1  0.0102547 -0.2253562  0.9721481  0.2343673 -0.2343673  0.9721481 
    7    45     2  0.0008534 -0.2313069  0.9663764  0.2571315 -0.2571315  0.9663764 
    7    45     3  0.0136443 -0.2037696  0.9754031  0.2204285 -0.2204285  0.9754031 
    7    45     4  0.0040983 -0.2095718  0.9695261  0.2449881 -0.2449881  0.9695261 
    7    46     1  0.0507242 -0.2950406  0.8885979  0.4586871 -0.4586871  0.8885979 
    7    46     2  0.0590988 -0.2943718  0.8811257  0.4728822 -0.4728822  0.8811257 
    7    46     3  0.0403418 -0.2987046  0.8855455  0.4645526 -0.4645526  0.8855455 
    7    46     4  0.0487849 -0.2981129  0.8779015  0.4788412 -0.4788412  0.8779015 
    7    47     1  0.0425663 -0.3550214  0.9009720  0.4338772 -0.4338772  0.9009720 
    7    47     2  0.0540197 -0.3527163  0.9021340  0.4314560 -0.4314560  0.9021340 
    7    47     3  0.0535646 -0.3479805  0.8925077  0.4510323 -0.4510323  0.8925077 
    7    47     4  0.0649768 -0.3456306  0.8938948  0.4482767 -0.4482767  0.8938948 
    7    48     1  0.0005778 -0.1777265  0.9558581  0.2938285 -0.2938285  0.9558581 
    7    48     2  0.0061138 -0.1513774  0.9559781  0.2934381 -0.2934381  0.9559781 
    7    48     3  0.0073592 -0.1714431  0.9654978  0.2604113 -0.2604113  0.9654978 
    7    48     4  0.0129247 -0.1451309  0.9667776  0.2556189 -0.2556189  0.9667776 
    7    49     1  0.0041650 -0.1257029  0.9575696  0.2882022 -0.2882022  0.9575696 
    7    49     2  0.0001478 -0.1323523  0.9417958  0.3361856 -0.3361856  0.9417958 
    7    49     3  0.0119866 -0.0956356  0.9531299  0.3025614 -0.3025614  0.9531299 
    7    49     4  0.0082368 -0.1025390  0.9332387  0.3592569 -0.3592569  0.9332387 
    7    50     1  0.0364215 -0.1933682  0.8511391  0.5249403 -0.5249403  0.8511391 
    7    50     2  0.0416399 -0.1960437  0.8449706  0.5348128 -0.5348128  0.8449706 
    7    50     3  0.0295557 -0.1969996  0.8456759  0.5336968 -0.5336968  0.8456759 
    7    50     4  0.0348076 -0.1997415  0.8394925  0.5433713 -0.5433713  0.8394925 
    7    51     1  0.0357692 -0.2466351  0.8663522  0.4994336 -0.4994336  0.8663522 
    7    51     2  0.0446410 -0.2418120  0.8717203  0.4900039 -0.4900039  0.8717203 
    7    51     3  0.0415082 -0.2513957  0.8605760  0.5093221 -0.5093221  0.8605760 
    7    51     4  0.0503202 -0.2464940  0.8659450  0.5001392 -0.5001392  0.8659450 
    7    52     1 -0.0014212 -0.0548640  0.9312152  0.3644697 -0.3644697  0.9312152 
    7    52     2 -0.0010840 -0.0618388  0.8905871  0.4548127 -0.4548127  0.8905871 
    7    52     3  0.0090762 -0.0263214  0.8709532  0.4913659 -0.4913659  0.8709532 
    7    52     4  0.0108627 -0.0347337  0.8132993  0.5818456 -0.5818456  0.8132993 
    7    53     1  0.0180809 -0.1095828  0.8026314  0.5964753 -0.5964753  0.8026314 
    7    53     2  0.0190685 -0.1144743  0.8031455  0.5957830 -0.5957830  0.8031455 
    7    53     3  0.0151240 -0.1127785  0.7943414  0.6074716 -0.6074716  0.7943414 
    7    53     4  0.0160604 -0.1177228  0.7951013  0.6064767 -0.6064767  0.7951013 
    7    54     1  0.0226205 -0.1521781  0.8226050  0.5686133 -0.5686133  0.8226050 
    7    54     2  0.0273255 -0.1489574  0.8290331  0.5591995 -0.5591995  0.8290331 
    7    54     3  0.0257871 -0.1557341  0.8186905  0.5742350 -0.5742350  0.8186905 
    7    54     4  0.0304974 -0.1524616  0.8250232  0.5650988 -0.5650988  0.8250232 
    7    55     1 -0.0002225 -0.0936692  0.9210991  0.3893283 -0.3893283  0.9210991 
    7    55     2  0.0098408 -0.0636878  0.8925736  0.4509018 -0.4509018  0.8925736 
    7    55     3  0.0015207 -0.0867289  0.9462941  0.3233070 -0.3233070  0.9462941 
    7    55     4  0.0108253 -0.0560097  0.9280684  0.3724098 -0.3724098  0.9280684 
    7    56     1  0.0068185 -0.0787917  0.7484167  0.6632287 -0.6632287  0.7484167 
    7    56     2  0.0093010 -0.0749068  0.7627801  0.6466579 -0.6466579  0.7627801 
    7    56     3  0.0065850 -0.0852627  0.7561184  0.6544348 -0.6544348  0.7561184 
    7    56     4  0.0092146 -0.0812199  0.7699309  0.6381273 -0.6381273  0.7699309 
    7    57     1 -0.0021025 -0.0355502  0.8512896  0.5246961 -0.5246961  0.8512896 
    7    57     2  0.0114032 -0.0152419  0.6653019  0.7465745 -0.7465745  0.6653019 
    7    57     3 -0.0046309 -0.0296949  0.9178030  0.3970361 -0.3970361  0.9178030 
    7    57     4  0.0073261 -0.0076329  0.6814497  0.7318650 -0.7318650  0.6814497 
    7    58     1 -0.0078960 -0.0134828  0.9715007  0.2370368 -0.2370368  0.9715007 
    7    58     2 -0.0048727 -0.0176235  0.7626879  0.6467667 -0.6467667  0.7626879 
    7    58     3  0.0076251 -0.0017912  0.0433983 -0.9990578  0.9990578  0.0433983 
    7    58     4  0.0085574 -0.0050964  0.3056082  0.9521574 -0.9521574  0.3056082 
    7    59     1  0.0025104 -0.0459934  0.6770515  0.7359356 -0.7359356  0.6770515 
    7    59     2  0.0005494 -0.0523621  0.7056267  0.7085838 -0.7085838  0.7056267 
    7    59     3  0.0015946 -0.0496061  0.6560787  0.7546925 -0.7546925  0.6560787 
    7    59     4 -0.0006245 -0.0563224  0.6866971  0.7269437 -0.7269437  0.6866971 
    7    60     1  0.0030514 -0.0022123  0.6003083 -0.7997687  0.7997687  0.6003083 
    7    60     2  0.0059431 -0.0004719  0.2399164 -0.9707935  0.9707935  0.2399164 
    7    60     3  0.0053740 -0.0014305  0.5492826 -0.8356367  0.8356367  0.5492826 
    7    60     4  0.0076113 -0.0000377  0.3560784 -0.9344561  0.9344561  0.3560784 
    7    61     1  0.0021323 -0.0002260  0.6259042 -0.7798999  0.7798999  0.6259042 
    7    61     2  0.0015905 -0.0001379  0.4924552 -0.8703378  0.8703378  0.4924552 
    7    61     3  0.0024697  0.0000782  0.5131924 -0.8582736  0.8582736  0.5131924 
    7    61     4  0.0021203  0.0000639  0.4161374 -0.9093017  0.9093017  0.4161374 
    7    62     1  0.0032709 -0.0019879  0.7826922 -0.6224089  0.6224089  0.7826922 
    7    62     2  0.0042744 -0.0037297  0.8234623 -0.5673711  0.5673711  0.8234623 
    7    62     3  0.0059558  0.0007504  0.9279689 -0.3726578  0.3726578  0.9279689 
    7    62     4  0.0064574 -0.0013190  0.9026256 -0.4304265  0.4304265  0.9026256 
    7    63     1 -0.0028648 -0.0057462  0.9172575 -0.3982946  0.3982946  0.9172575 
    7    63     2  0.0060957 -0.0006351  0.3141993 -0.9493570  0.9493570  0.3141993 
    7    63     3 -0.0019622 -0.0089804  0.8793424 -0.4761900  0.4761900  0.8793424 
    7    63     4  0.0030716 -0.0043421  0.6468241 -0.7626392  0.7626392  0.6468241 
    7    64     1  0.0048968 -0.0081889  0.8730567 -0.4876187  0.4876187  0.8730567 
    7    64     2  0.0112764 -0.0030684  0.9612958 -0.2755184  0.2755184  0.9612958 
    7    64     3  0.0030019 -0.0020862  0.8761355 -0.4820649  0.4820649  0.8761355 
    7    64     4  0.0112612  0.0028001  0.9999958  0.0028966 -0.0028966  0.9999958 
    7    65     1 -0.0000995 -0.0095812  0.5427752  0.8398780 -0.8398780  0.5427752 
    7    65     2 -0.0000278 -0.0069757  0.5258114 -0.8506012  0.8506012  0.5258114 
    7    65     3  0.0126573 -0.0000955  0.9051715  0.4250466 -0.4250466  0.9051715 
    7    65     4  0.0120174  0.0018309  0.9483531 -0.3172166  0.3172166  0.9483531 
    7    66     1  0.0031136 -0.0257758  0.5620453  0.8271065 -0.8271065  0.5620453 
    7    66     2 -0.0001602 -0.0278084  0.5168095  0.8561004 -0.8561004  0.5168095 
    7    66     3 -0.0015287 -0.0259938  0.5923344  0.8056922 -0.8056922  0.5923344 
    7    66     4 -0.0045233 -0.0279028  0.5393943  0.8420533 -0.8420533  0.5393943 
-----------------------------------------------------------------------------
Job: ATENA, Log end: 3.11.2010 15:31:49
-----------------------------------------------------------------------------
