Výsledky

Výpočtový krok 1

-----------------------------------------------------------------------------
Job: ATENA, Openning output file: 3.11.2010 15:31:27
-----------------------------------------------------------------------------
Output data for request: STRESS
Description: Stress
  Step: 1  Iteration: 2 at Time: 1
-----------------------------------------------------------------------------------------------
Group Elem.    IP   sigma_xx   sigma_yy     tau_xy 
Units                    MPa        MPa        MPa 
    1     1     1  1.4460562 -0.0117659  0.0279863 
    1     1     2  1.4472123 -0.0110911  0.0228715 
    1     1     3  1.4645762 -0.0062282  0.0281084 
    1     1     4  1.4649927 -0.0057616  0.0227872 
    1     2     1  1.4345376 -0.0089651  0.0306993 
    1     2     2  1.4173826 -0.0141047  0.0307514 
    1     2     3  1.4361207 -0.0081355  0.0253564 
    1     2     4  1.4192022 -0.0132092  0.0254815 
    1     3     1  1.4401636 -0.0081219  0.0232622 
    1     3     2  1.4389875 -0.0086826  0.0286281 
    1     3     3  1.4238803 -0.0130014  0.0232078 
    1     3     4  1.4222717 -0.0136899  0.0285247 
    1     4     1  1.4508115 -0.0119358  0.0208144 
    1     4     2  1.4678339 -0.0068039  0.0213029 
    1     4     3  1.4501926 -0.0116214  0.0265145 
    1     4     4  1.4677949 -0.0063267  0.0268827 
    1     5     1  1.3891283 -0.0164326  0.0330786 
    1     5     2  1.3916464 -0.0150389  0.0277377 
    1     5     3  1.4060909 -0.0113575  0.0329164 
    1     5     4  1.4082837 -0.0100513  0.0274970 
    1     6     1  1.3777559 -0.0138029  0.0351764 
    1     6     2  1.3612699 -0.0187282  0.0353446 
    1     6     3  1.3806612 -0.0121672  0.0297079 
    1     6     4  1.3645451 -0.0169967  0.0299771 
    1     7     1  1.3867944 -0.0124329  0.0274042 
    1     7     2  1.3842631 -0.0133537  0.0327236 
    1     7     3  1.3715052 -0.0170133  0.0272614 
    1     7     4  1.3687089 -0.0180106  0.0324835 
    1     8     1  1.3974396 -0.0149867  0.0253110 
    1     8     2  1.4132551 -0.0102479  0.0253932 
    1     8     3  1.3951843 -0.0158521  0.0305607 
    1     8     4  1.4113476 -0.0110116  0.0307158 
    1     9     1  1.3459971 -0.0193083  0.0290639 
    1     9     2  1.3607604 -0.0148752  0.0293791 
    1     9     3  1.3428790 -0.0201672  0.0342506 
    1     9     4  1.3577871 -0.0156888  0.0346935 
    1    10     1  1.3342597 -0.0209757  0.0376082 
    1    10     2  1.3381302 -0.0189154  0.0322080 
    1    10     3  1.3498956 -0.0163189  0.0374527 
    1    10     4  1.3535853 -0.0142877  0.0319081 
    1    11     1  1.3232671 -0.0189430  0.0397484 
    1    11     2  1.3091138 -0.0231479  0.0397549 
    1    11     3  1.3273085 -0.0169024  0.0340846 
    1    11     4  1.3127828 -0.0212487  0.0342980 
    1    12     1  1.3350361 -0.0177882  0.0312029 
    1    12     2  1.3318971 -0.0179485  0.0365908 
    1    12     3  1.3206159 -0.0221738  0.0305087 
    1    12     4  1.3175352 -0.0223406  0.0357303 
    1    13     1  1.3397060 -0.0173968  0.0335334 
    1    13     2  1.3258777 -0.0217744  0.0322145 
    1    13     3  1.3422845 -0.0181522  0.0285755 
    1    13     4  1.3286983 -0.0224225  0.0273814 
    1    14     1  1.3492003 -0.0183927  0.0258525 
    1    14     2  1.3470161 -0.0169495  0.0304258 
    1    14     3  1.3363580 -0.0225792  0.0243397 
    1    14     4  1.3338401 -0.0212607  0.0288378 
    1    15     1  1.3596332 -0.0197212  0.0232690 
    1    15     2  1.3733389 -0.0154587  0.0243268 
    1    15     3  1.3573196 -0.0191315  0.0280833 
    1    15     4  1.3712844 -0.0147787  0.0291980 
    1    16     1  1.3504178 -0.0195938  0.0310806 
    1    16     2  1.3530179 -0.0196281  0.0260727 
    1    16     3  1.3648758 -0.0151661  0.0319558 
    1    16     4  1.3672647 -0.0152788  0.0268496 
    1    17     1  1.3141018 -0.0260870  0.0252957 
    1    17     2  1.3254609 -0.0218565  0.0275292 
    1    17     3  1.3114117 -0.0233969  0.0290214 
    1    17     4  1.3233951 -0.0189326  0.0313792 
    1    18     1  1.3008455 -0.0241495  0.0329974 
    1    18     2  1.3039675 -0.0257613  0.0283771 
    1    18     3  1.3145076 -0.0194650  0.0350668 
    1    18     4  1.3173025 -0.0212699  0.0302434 
    1    19     1  1.2891645 -0.0204891  0.0356837 
    1    19     2  1.2776075 -0.0268232  0.0315088 
    1    19     3  1.2909602 -0.0267835  0.0329193 
    1    19     4  1.2813708 -0.0316730  0.0296269 
    1    20     1  1.3024659 -0.0250904  0.0296507 
    1    20     2  1.3010171 -0.0212583  0.0318381 
    1    20     3  1.2946580 -0.0291115  0.0270577 
    1    20     4  1.2927247 -0.0252058  0.0292726 
    1    21     1  1.2952048 -0.0257143  0.0316022 
    1    21     2  1.3092696 -0.0212545  0.0329560 
    1    21     3  1.2925121 -0.0244278  0.0366708 
    1    21     4  1.3064996 -0.0198948  0.0382604 
    1    22     1  1.2838140 -0.0258863  0.0418163 
    1    22     2  1.2863163 -0.0250924  0.0357740 
    1    22     3  1.2982501 -0.0215586  0.0422280 
    1    22     4  1.3018087 -0.0204457  0.0358878 
    1    23     1  1.2731733 -0.0248978  0.0446456 
    1    23     2  1.2576006 -0.0295467  0.0445776 
    1    23     3  1.2754536 -0.0236018  0.0377692 
    1    23     4  1.2587989 -0.0285912  0.0378916 
    1    24     1  1.2818636 -0.0237191  0.0342634 
    1    24     2  1.2789638 -0.0218174  0.0409927 
    1    24     3  1.2646179 -0.0291845  0.0326107 
    1    24     4  1.2633717 -0.0271007  0.0386490 
    1    25     1  1.2760400 -0.0301343  0.0266322 
    1    25     2  1.2850622 -0.0261252  0.0291646 
    1    25     3  1.2746042 -0.0275519  0.0300113 
    1    25     4  1.2826690 -0.0244328  0.0317295 
    1    26     1  1.2691056 -0.0273734  0.0320375 
    1    26     2  1.2625306 -0.0332814  0.0357670 
    1    26     3  1.2666919 -0.0224133  0.0327217 
    1    26     4  1.2624330 -0.0281732  0.0353231 
    1    27     1  1.2667781 -0.0267152  0.0274324 
    1    27     2  1.2653457 -0.0272930  0.0323462 
    1    27     3  1.2543821 -0.0304590  0.0283140 
    1    27     4  1.2548600 -0.0304343  0.0322447 
    1    28     1  1.2339260 -0.0363595  0.0391882 
    1    28     2  1.2336139 -0.0308419  0.0329970 
    1    28     3  1.2533779 -0.0294579  0.0357249 
    1    28     4  1.2497740 -0.0251905  0.0302112 
    1    29     1  1.2224153 -0.0339034  0.0405549 
    1    29     2  1.2051761 -0.0392264  0.0418266 
    1    29     3  1.2224850 -0.0315124  0.0342764 
    1    29     4  1.2057714 -0.0366542  0.0354593 
    1    30     1  1.2230957 -0.0320459  0.0295035 
    1    30     2  1.2235054 -0.0327793  0.0357164 
    1    30     3  1.2072767 -0.0368344  0.0301083 
    1    30     4  1.2071767 -0.0376911  0.0361153 
    1    31     1  1.2325291 -0.0327939  0.0295584 
    1    31     2  1.2464185 -0.0283729  0.0281803 
    1    31     3  1.2327718 -0.0344504  0.0345344 
    1    31     4  1.2470193 -0.0301008  0.0336553 
    1    32     1  1.2337787 -0.0333444  0.0357434 
    1    32     2  1.2538733 -0.0272788  0.0350099 
    1    32     3  1.2332908 -0.0350769  0.0435406 
    1    32     4  1.2519412 -0.0293129  0.0422002 
    1    33     1  1.2306532 -0.0328324  0.0469544 
    1    33     2  1.2307387 -0.0324870  0.0402722 
    1    33     3  1.2472942 -0.0278437  0.0469199 
    1    33     4  1.2478679 -0.0273494  0.0401825 
    1    34     1  1.2192387 -0.0321520  0.0490347 
    1    34     2  1.2001208 -0.0379303  0.0497781 
    1    34     3  1.2195604 -0.0305845  0.0420029 
    1    34     4  1.2005705 -0.0362928  0.0425916 
    1    35     1  1.2211852 -0.0309895  0.0374387 
    1    35     2  1.2211476 -0.0325691  0.0440414 
    1    35     3  1.2037310 -0.0362871  0.0382538 
    1    35     4  1.2033397 -0.0379877  0.0449311 
    1    36     1  1.2798900 -0.0271236  0.0271366 
    1    36     2  1.2814319 -0.0297716  0.0234760 
    1    36     3  1.2903100 -0.0231646  0.0292701 
    1    36     4  1.2923728 -0.0257134  0.0255948 
    1    37     1  1.2696715 -0.0263045  0.0304677 
    1    37     2  1.2571656 -0.0303712  0.0290046 
    1    37     3  1.2717268 -0.0275959  0.0255890 
    1    37     4  1.2582336 -0.0318790  0.0242838 
    1    38     1  1.2778378 -0.0273330  0.0229498 
    1    38     2  1.2753319 -0.0226133  0.0268433 
    1    38     3  1.2658336 -0.0323973  0.0198730 
    1    38     4  1.2645857 -0.0281477  0.0233031 
    1    39     1  1.2903591 -0.0296412  0.0205741 
    1    39     2  1.2988385 -0.0258001  0.0230260 
    1    39     3  1.2887740 -0.0258982  0.0229805 
    1    39     4  1.2976336 -0.0216978  0.0256626 
    1    40     1  1.2378495 -0.0353951  0.0211774 
    1    40     2  1.2557378 -0.0299054  0.0222660 
    1    40     3  1.2372001 -0.0341603  0.0274880 
    1    40     4  1.2530161 -0.0293851  0.0281025 
    1    41     1  1.2338787 -0.0333217  0.0304211 
    1    41     2  1.2341963 -0.0341875  0.0252151 
    1    41     3  1.2478282 -0.0290546  0.0312135 
    1    41     4  1.2488121 -0.0297810  0.0256956 
    1    42     1  1.2244675 -0.0325583  0.0323087 
    1    42     2  1.2091069 -0.0371686  0.0321661 
    1    42     3  1.2248001 -0.0325993  0.0264563 
    1    42     4  1.2091600 -0.0372916  0.0263872 
    1    43     1  1.2267657 -0.0329472  0.0225457 
    1    43     2  1.2263170 -0.0339371  0.0283893 
    1    43     3  1.2109759 -0.0376659  0.0227333 
    1    43     4  1.2106494 -0.0386190  0.0285733 
    1    44     1  1.2278050 -0.0358469  0.0246747 
    1    44     2  1.2117895 -0.0406504  0.0250079 
    1    44     3  1.2278750 -0.0349197  0.0189372 
    1    44     4  1.2120297 -0.0396582  0.0191786 
    1    45     1  1.2280874 -0.0356372  0.0136256 
    1    45     2  1.2288849 -0.0346128  0.0193497 
    1    45     3  1.2127404 -0.0402419  0.0133365 
    1    45     4  1.2131353 -0.0393503  0.0189656 
    1    46     1  1.2378430 -0.0349025  0.0135301 
    1    46     2  1.2516777 -0.0306487  0.0126516 
    1    46     3  1.2383284 -0.0358896  0.0185823 
    1    46     4  1.2529513 -0.0314535  0.0179224 
    1    47     1  1.2393006 -0.0371308  0.0235107 
    1    47     2  1.2390589 -0.0342610  0.0171378 
    1    47     3  1.2575716 -0.0314054  0.0218581 
    1    47     4  1.2552671 -0.0293578  0.0160534 
    1    48     1  1.2941618 -0.0261145  0.0212582 
    1    48     2  1.2969863 -0.0287742  0.0185237 
    1    48     3  1.3041905 -0.0223604  0.0233585 
    1    48     4  1.3053019 -0.0252516  0.0206319 
    1    49     1  1.2880738 -0.0203093  0.0200496 
    1    49     2  1.2862077 -0.0290125  0.0184823 
    1    49     3  1.2845271 -0.0293065  0.0227744 
    1    49     4  1.2840002 -0.0336713  0.0208898 
    1    50     1  1.2954603 -0.0279226  0.0173221 
    1    50     2  1.3105516 -0.0234090  0.0168899 
    1    50     3  1.2985312 -0.0282199  0.0222708 
    1    50     4  1.3095255 -0.0247089  0.0210329 
    1    51     1  1.2813973 -0.0279628  0.0189318 
    1    51     2  1.2674738 -0.0337992  0.0224316 
    1    51     3  1.2785759 -0.0229618  0.0144420 
    1    51     4  1.2659457 -0.0291904  0.0184022 
    1    52     1  1.2737430 -0.0263411  0.0112997 
    1    52     2  1.2761464 -0.0288728  0.0158091 
    1    52     3  1.2611758 -0.0307695  0.0133971 
    1    52     4  1.2623030 -0.0336412  0.0179599 
    1    53     1  1.2843895 -0.0272405  0.0136904 
    1    53     2  1.2942838 -0.0223635  0.0105819 
    1    53     3  1.2859833 -0.0318056  0.0166905 
    1    53     4  1.2966950 -0.0266527  0.0134084 
    1    54     1  1.2944166 -0.0315069  0.0194855 
    1    54     2  1.2924050 -0.0257792  0.0165846 
    1    54     3  1.3055792 -0.0257595  0.0157233 
    1    54     4  1.3031642 -0.0206750  0.0131888 
    1    55     1  1.2804718 -0.0321988  0.0135526 
    1    55     2  1.2790454 -0.0282475  0.0111008 
    1    55     3  1.2884899 -0.0272996  0.0104288 
    1    55     4  1.2860951 -0.0246480  0.0087958 
    1    56     1  1.2716236 -0.0286146  0.0140746 
    1    56     2  1.2592503 -0.0322065  0.0140976 
    1    56     3  1.2697957 -0.0279009  0.0095665 
    1    56     4  1.2595426 -0.0310882  0.0103501 
    1    57     1  1.2737032 -0.0286657  0.0096774 
    1    57     2  1.2712398 -0.0241175  0.0097063 
    1    57     3  1.2669664 -0.0332983  0.0064187 
    1    57     4  1.2667573 -0.0288121  0.0072229 
    1    58     1  1.2405538 -0.0359617  0.0056850 
    1    58     2  1.2583682 -0.0302560  0.0075927 
    1    58     3  1.2399921 -0.0332749  0.0113751 
    1    58     4  1.2551968 -0.0284889  0.0128351 
    1    59     1  1.2377498 -0.0340405  0.0141918 
    1    59     2  1.2377711 -0.0352810  0.0094287 
    1    59     3  1.2515520 -0.0297735  0.0151596 
    1    59     4  1.2516855 -0.0310934  0.0099686 
    1    60     1  1.2289648 -0.0326352  0.0153639 
    1    60     2  1.2142412 -0.0371244  0.0144862 
    1    60     3  1.2287260 -0.0344943  0.0100366 
    1    60     4  1.2137509 -0.0390358  0.0092160 
    1    61     1  1.2297171 -0.0333061  0.0061756 
    1    61     2  1.2294257 -0.0331930  0.0117848 
    1    61     3  1.2136353 -0.0381399  0.0058373 
    1    61     4  1.2136055 -0.0379479  0.0114595 
    1    62     1  1.2414692 -0.0358848  0.0085890 
    1    62     2  1.2412872 -0.0349696  0.0020627 
    1    62     3  1.2601960 -0.0302407  0.0080389 
    1    62     4  1.2583523 -0.0298959  0.0020297 
    1    63     1  1.2300052 -0.0340429  0.0084510 
    1    63     2  1.2145399 -0.0386887  0.0082232 
    1    63     3  1.2300700 -0.0342915  0.0031400 
    1    63     4  1.2144924 -0.0389753  0.0028236 
    1    64     1  1.2293752 -0.0342876 -0.0017268 
    1    64     2  1.2300645 -0.0327615  0.0043890 
    1    64     3  1.2116323 -0.0396283 -0.0023256 
    1    64     4  1.2121410 -0.0381433  0.0038452 
    1    65     1  1.2401045 -0.0347283 -0.0008012 
    1    65     2  1.2558045 -0.0299871 -0.0013155 
    1    65     3  1.2402829 -0.0353284  0.0046604 
    1    65     4  1.2563042 -0.0305134  0.0043297 
    1    66     1  1.2794677 -0.0267984 -0.0015729 
    1    66     2  1.2804073 -0.0276831  0.0036816 
    1    66     3  1.2653152 -0.0311717 -0.0005754 
    1    66     4  1.2658095 -0.0320984  0.0042779 
    1    67     1  1.2881645 -0.0276753  0.0000240 
    1    67     2  1.2994606 -0.0238361 -0.0016239 
    1    67     3  1.2886958 -0.0294361  0.0036828 
    1    67     4  1.3005236 -0.0257584  0.0026159 
    1    68     1  1.2960672 -0.0301452  0.0065904 
    1    68     2  1.2946256 -0.0261979  0.0044436 
    1    68     3  1.3053114 -0.0257509  0.0037091 
    1    68     4  1.3032913 -0.0214824  0.0014085 
    1    69     1  1.2844217 -0.0272529  0.0058250 
    1    69     2  1.2696135 -0.0327847  0.0088112 
    1    69     3  1.2815878 -0.0231528  0.0011126 
    1    69     4  1.2686040 -0.0288218  0.0045694 
    1    70     1  1.2910316 -0.0210093  0.0052245 
    1    70     2  1.2924704 -0.0280223  0.0057104 
    1    70     3  1.2829133 -0.0283774  0.0096177 
    1    70     4  1.2852948 -0.0339020  0.0094972 
    1    71     1  1.3042172 -0.0249115  0.0073401 
    1    71     2  1.3112277 -0.0192356  0.0039169 
    1    71     3  1.3057310 -0.0300498  0.0082794 
    1    71     4  1.3132389 -0.0244518  0.0047401 
    1    72     1  1.3185769 -0.0303001  0.0098961 
    1    72     2  1.3172812 -0.0234542  0.0094592 
    1    72     3  1.3260817 -0.0233833  0.0057908 
    1    72     4  1.3242313 -0.0175965  0.0057353 
    1    73     1  1.3053170 -0.0260438  0.0077033 
    1    73     2  1.2987409 -0.0315832  0.0110181 
    1    73     3  1.3039904 -0.0209339  0.0069431 
    1    73     4  1.2972049 -0.0261892  0.0102578 
    1    74     1  1.3429484 -0.0214681  0.0044105 
    1    74     2  1.3404781 -0.0278058  0.0068035 
    1    74     3  1.3444290 -0.0146433  0.0063318 
    1    74     4  1.3418585 -0.0216445  0.0083712 
    1    75     1  1.3275870 -0.0172422  0.0034902 
    1    75     2  1.3274901 -0.0224461  0.0023544 
    1    75     3  1.3244437 -0.0224814  0.0059151 
    1    75     4  1.3239855 -0.0281992  0.0050793 
    1    76     1  1.3437881 -0.0212909  0.0036166 
    1    76     2  1.3455329 -0.0149386  0.0016467 
    1    76     3  1.3416532 -0.0278779  0.0015359 
    1    76     4  1.3434403 -0.0214902 -0.0000313 
    1    77     1  1.3581835 -0.0258070  0.0044015 
    1    77     2  1.3594990 -0.0198698  0.0062703 
    1    77     3  1.3605148 -0.0196568  0.0020731 
    1    77     4  1.3616550 -0.0142474  0.0040329 
    1    78     1  1.3237487 -0.0276176 -0.0002992 
    1    78     2  1.3322708 -0.0224872  0.0029619 
    1    78     3  1.3232518 -0.0224518  0.0025990 
    1    78     4  1.3299678 -0.0200818  0.0042235 
    1    79     1  1.3202963 -0.0231685  0.0016676 
    1    79     2  1.3140119 -0.0275547  0.0045974 
    1    79     3  1.3180666 -0.0194176  0.0014230 
    1    79     4  1.3132081 -0.0236825  0.0038995 
    1    80     1  1.3157951 -0.0224236 -0.0014176 
    1    80     2  1.3153549 -0.0247110  0.0017801 
    1    80     3  1.3070681 -0.0255943  0.0001781 
    1    80     4  1.3074696 -0.0271973  0.0026671 
    1    81     1  1.3669635 -0.0199674  0.0020427 
    1    81     2  1.3698718 -0.0232855  0.0011320 
    1    81     3  1.3746239 -0.0155934  0.0049666 
    1    81     4  1.3751228 -0.0192792  0.0035455 
    1    82     1  1.3632127 -0.0148177 -0.0005961 
    1    82     2  1.3639663 -0.0199836  0.0026423 
    1    82     3  1.3539645 -0.0201341  0.0027990 
    1    82     4  1.3565670 -0.0225626  0.0043074 
    1    83     1  1.3713761 -0.0196743 -0.0015497 
    1    83     2  1.3801440 -0.0168299 -0.0005339 
    1    83     3  1.3717804 -0.0183813  0.0017010 
    1    83     4  1.3798425 -0.0159142  0.0022261 
    1    84     1  1.3629199 -0.0146597  0.0089805 
    1    84     2  1.3536830 -0.0204351  0.0053277 
    1    84     3  1.3634036 -0.0202957  0.0059409 
    1    84     4  1.3561905 -0.0232862  0.0039151 
    1    85     1  1.3668185 -0.0198332  0.0058358 
    1    85     2  1.3744816 -0.0150645  0.0026551 
    1    85     3  1.3697784 -0.0236131  0.0065180 
    1    85     4  1.3751095 -0.0192040  0.0039342 
    1    86     1  1.3708078 -0.0201960  0.0093632 
    1    86     2  1.3712049 -0.0187638  0.0054921 
    1    86     3  1.3813675 -0.0167406  0.0080372 
    1    86     4  1.3803360 -0.0159242  0.0047810 
    1    87     1  1.3983460 -0.0158017  0.0073720 
    1    87     2  1.3881246 -0.0193474  0.0089929 
    1    87     3  1.3973659 -0.0136660  0.0038609 
    1    87     4  1.3869371 -0.0172182  0.0054178 
    1    88     1  1.3943379 -0.0136317  0.0018581 
    1    88     2  1.3954058 -0.0155142  0.0064798 
    1    88     3  1.3810786 -0.0179711  0.0034585 
    1    88     4  1.3835115 -0.0192076  0.0074913 
    1    89     1  1.4025333 -0.0162489  0.0022795 
    1    89     2  1.4138673 -0.0127823  0.0016167 
    1    89     3  1.4032654 -0.0166594  0.0062722 
    1    89     4  1.4146209 -0.0132092  0.0057551 
    1    90     1  1.4055573 -0.0173068  0.0084065 
    1    90     2  1.4044245 -0.0157691  0.0046263 
    1    90     3  1.4164593 -0.0137943  0.0072023 
    1    90     4  1.4154950 -0.0121412  0.0032781 
    1    91     1  1.3942196 -0.0141431  0.0048769 
    1    91     2  1.3808294 -0.0182619  0.0040147 
    1    91     3  1.3943563 -0.0153536  0.0002454 
    1    91     4  1.3827888 -0.0188157 -0.0001439 
    1    92     1  1.3956719 -0.0156339 -0.0007830 
    1    92     2  1.3956172 -0.0145736  0.0026566 
    1    92     3  1.3859745 -0.0186457 -0.0015177 
    1    92     4  1.3854439 -0.0176556  0.0021337 
    1    93     1  1.4020057 -0.0168109 -0.0013383 
    1    93     2  1.4131359 -0.0134732 -0.0012844 
    1    93     3  1.4018572 -0.0166435  0.0026931 
    1    93     4  1.4132294 -0.0132322  0.0027666 
    1    94     1  1.4021117 -0.0168164  0.0047166 
    1    94     2  1.4020390 -0.0162315  0.0007117 
    1    94     3  1.4134914 -0.0133916  0.0044119 
    1    94     4  1.4133110 -0.0128223  0.0003001 
    1    95     1  1.4340739 -0.0120315  0.0066496 
    1    95     2  1.4235612 -0.0153486  0.0076126 
    1    95     3  1.4332318 -0.0108349  0.0028329 
    1    95     4  1.4226414 -0.0142269  0.0039373 
    1    96     1  1.4319428 -0.0112446  0.0014818 
    1    96     2  1.4325079 -0.0118835  0.0054458 
    1    96     3  1.4210217 -0.0145950  0.0021450 
    1    96     4  1.4216400 -0.0151961  0.0059998 
    1    97     1  1.4387253 -0.0132277  0.0019019 
    1    97     2  1.4493877 -0.0099802  0.0013701 
    1    97     3  1.4392398 -0.0137014  0.0056570 
    1    97     4  1.4497995 -0.0105003  0.0052211 
    1    98     1  1.4407895 -0.0137991  0.0070725 
    1    98     2  1.4400238 -0.0129417  0.0035067 
    1    98     3  1.4509418 -0.0106468  0.0063080 
    1    98     4  1.4503367 -0.0097023  0.0026070 
    1    99     1  1.4315502 -0.0118512  0.0041579 
    1    99     2  1.4205002 -0.0151795  0.0044441 
    1    99     3  1.4312723 -0.0114771  0.0001444 
    1    99     4  1.4202371 -0.0148097  0.0005078 
    1   100     1  1.4310473 -0.0117367 -0.0012624 
    1   100     2  1.4311123 -0.0118945  0.0027490 
    1   100     3  1.4200101 -0.0150509 -0.0011270 
    1   100     4  1.4200657 -0.0152092  0.0028334 
    1   101     1  1.4378045 -0.0136198 -0.0011898 
    1   101     2  1.4486887 -0.0103532 -0.0012808 
    1   101     3  1.4378898 -0.0136938  0.0027321 
    1   101     4  1.4487591 -0.0104328  0.0026805 
    1   102     1  1.4383221 -0.0136947  0.0042184 
    1   102     2  1.4380336 -0.0134571  0.0003524 
    1   102     3  1.4491035 -0.0104529  0.0040078 
    1   102     4  1.4488697 -0.0101938  0.0000811 
    1   103     1  1.4671890 -0.0092466  0.0061431 
    1   103     2  1.4573146 -0.0122503  0.0066163 
    1   103     3  1.4668801 -0.0086168  0.0025784 
    1   103     4  1.4567893 -0.0117114  0.0031860 
    1   104     1  1.4663558 -0.0089264  0.0013962 
    1   104     2  1.4666434 -0.0090583  0.0051369 
    1   104     3  1.4558958 -0.0120727  0.0016217 
    1   104     4  1.4563238 -0.0121579  0.0052841 
    1   105     1  1.4727349 -0.0113744  0.0012142 
    1   105     2  1.4833348 -0.0081661  0.0016327 
    1   105     3  1.4732051 -0.0105327  0.0049697 
    1   105     4  1.4836284 -0.0073804  0.0053675 
    1   106     1  1.4731794 -0.0106222  0.0059364 
    1   106     2  1.4729358 -0.0104591  0.0028217 
    1   106     3  1.4829136 -0.0077070  0.0059028 
    1   106     4  1.4828981 -0.0074583  0.0025592 
    1   107     1  1.4734598 -0.0099991  0.0043793 
    1   107     2  1.4829329 -0.0069727  0.0034105 
    1   107     3  1.4735030 -0.0110772  0.0073878 
    1   107     4  1.4826705 -0.0082200  0.0066479 
    1   108     1  1.4740305 -0.0118563  0.0084736 
    1   108     2  1.4742007 -0.0099806  0.0048542 
    1   108     3  1.4830694 -0.0088960  0.0073734 
    1   108     4  1.4835381 -0.0070189  0.0039082 
    1   109     1  1.4685923 -0.0095690  0.0079195 
    1   109     2  1.4601539 -0.0123038  0.0088817 
    1   109     3  1.4684211 -0.0081351  0.0047968 
    1   109     4  1.4594765 -0.0110048  0.0057551 
    1   110     1  1.4676605 -0.0082079  0.0037030 
    1   110     2  1.4678977 -0.0095312  0.0070323 
    1   110     3  1.4581923 -0.0112450  0.0047021 
    1   110     4  1.4587842 -0.0124195  0.0079100 
    1   111     1  1.4423385 -0.0124176  0.0053076 
    1   111     2  1.4518118 -0.0091818  0.0038983 
    1   111     3  1.4433575 -0.0138685  0.0084847 
    1   111     4  1.4525712 -0.0108188  0.0072943 
    1   112     1  1.4475774 -0.0138132  0.0096141 
    1   112     2  1.4463290 -0.0116736  0.0073817 
    1   112     3  1.4545352 -0.0111055  0.0080844 
    1   112     4  1.4539844 -0.0085822  0.0055914 
    1   113     1  1.4396754 -0.0117150  0.0085525 
    1   113     2  1.4313147 -0.0153707  0.0107978 
    1   113     3  1.4379478 -0.0082641  0.0057295 
    1   113     4  1.4299825 -0.0125150  0.0084688 
    1   114     1  1.4352469 -0.0103043  0.0040487 
    1   114     2  1.4365446 -0.0120411  0.0077069 
    1   114     3  1.4250011 -0.0138444  0.0056427 
    1   114     4  1.4263124 -0.0154814  0.0091308 
    1   115     1  1.4448263 -0.0080835  0.0089344 
    1   115     2  1.4430197 -0.0128317  0.0075522 
    1   115     3  1.4436872 -0.0130162  0.0097677 
    1   115     4  1.4426438 -0.0152322  0.0085067 
    1   116     1  1.4481735 -0.0120868  0.0077536 
    1   116     2  1.4560363 -0.0095152  0.0067266 
    1   116     3  1.4501767 -0.0132727  0.0101388 
    1   116     4  1.4564470 -0.0109851  0.0089793 
    1   117     1  1.4485249 -0.0120773  0.0097821 
    1   117     2  1.4501792 -0.0126860  0.0072294 
    1   117     3  1.4561935 -0.0097362  0.0103071 
    1   117     4  1.4564550 -0.0106195  0.0080195 
    1   118     1  1.4688057 -0.0091283  0.0103484 
    1   118     2  1.4606090 -0.0115878  0.0102971 
    1   118     3  1.4689184 -0.0091400  0.0074234 
    1   118     4  1.4608581 -0.0115608  0.0072254 
    1   119     1  1.4689622 -0.0090536  0.0061399 
    1   119     2  1.4692014 -0.0092873  0.0091300 
    1   119     3  1.4605610 -0.0115836  0.0063499 
    1   119     4  1.4610861 -0.0117499  0.0095164 
    1   120     1  1.4741251 -0.0113855  0.0055984 
    1   120     2  1.4829871 -0.0087021  0.0059443 
    1   120     3  1.4745263 -0.0107776  0.0093235 
    1   120     4  1.4831886 -0.0081948  0.0093556 
    1   121     1  1.4737631 -0.0101920  0.0096307 
    1   121     2  1.4736497 -0.0107786  0.0066629 
    1   121     3  1.4821944 -0.0076139  0.0101031 
    1   121     4  1.4820266 -0.0082324  0.0070507 
    1   122     1  1.4729778 -0.0104669  0.0077671 
    1   122     2  1.4816907 -0.0078566  0.0076782 
    1   122     3  1.4728152 -0.0104290  0.0107615 
    1   122     4  1.4816628 -0.0077724  0.0108762 
    1   123     1  1.4735787 -0.0109748  0.0122610 
    1   123     2  1.4734325 -0.0097067  0.0091623 
    1   123     3  1.4815627 -0.0084977  0.0116166 
    1   123     4  1.4818438 -0.0070745  0.0084300 
    1   124     1  1.4672508 -0.0081248  0.0124026 
    1   124     2  1.4562665 -0.0114321  0.0121347 
    1   124     3  1.4667430 -0.0086808  0.0082170 
    1   124     4  1.4569709 -0.0115705  0.0085230 
    1   125     1  1.4679388 -0.0093125  0.0082683 
    1   125     2  1.4678089 -0.0084863  0.0113462 
    1   125     3  1.4597696 -0.0118413  0.0076823 
    1   125     4  1.4591612 -0.0111542  0.0107583 
    1   126     1  1.4405076 -0.0107472  0.0093182 
    1   126     2  1.4389556 -0.0093253  0.0126293 
    1   126     3  1.4316125 -0.0137990  0.0079713 
    1   126     4  1.4310336 -0.0123483  0.0108763 
    1   127     1  1.4478757 -0.0130743  0.0077751 
    1   127     2  1.4545131 -0.0106710  0.0089837 
    1   127     3  1.4468496 -0.0114718  0.0100971 
    1   127     4  1.4540573 -0.0088390  0.0114386 
    1   128     1  1.4422515 -0.0125076  0.0118323 
    1   128     2  1.4438803 -0.0146453  0.0090555 
    1   128     3  1.4509736 -0.0091304  0.0136971 
    1   128     4  1.4513880 -0.0114056  0.0110363 
    1   129     1  1.4346203 -0.0111250  0.0137392 
    1   129     2  1.4293407 -0.0129587  0.0128971 
    1   129     3  1.4357306 -0.0120483  0.0120105 
    1   129     4  1.4293598 -0.0145751  0.0105370 
    1   130     1  1.4363405 -0.0162151  0.0122148 
    1   130     2  1.4396813 -0.0120022  0.0144296 
    1   130     3  1.4361720 -0.0118455  0.0119276 
    1   130     4  1.4392397 -0.0085639  0.0139838 
    1   131     1  1.4269549 -0.0123822  0.0125796 
    1   131     2  1.4273594 -0.0153648  0.0124514 
    1   131     3  1.4299816 -0.0091964  0.0143286 
    1   131     4  1.4310725 -0.0123030  0.0145071 
    1   132     1  1.4189881 -0.0092598  0.0146149 
    1   132     2  1.4159122 -0.0147079  0.0121769 
    1   132     3  1.4183637 -0.0148786  0.0154468 
    1   132     4  1.4159544 -0.0184652  0.0133370 
    1   133     1  1.4274616 -0.0134043  0.0146130 
    1   133     2  1.4281006 -0.0102959  0.0139877 
    1   133     3  1.4262552 -0.0162207  0.0135092 
    1   133     4  1.4266925 -0.0132006  0.0124132 
    1   134     1  1.4508523 -0.0111630  0.0143523 
    1   134     2  1.4529869 -0.0070617  0.0125872 
    1   134     3  1.4503959 -0.0154133  0.0134251 
    1   134     4  1.4524396 -0.0112410  0.0118302 
    1   135     1  1.4633034 -0.0142341  0.0148611 
    1   135     2  1.4627781 -0.0098640  0.0153500 
    1   135     3  1.4671588 -0.0094213  0.0123291 
    1   135     4  1.4660511 -0.0062456  0.0131870 
    1   136     1  1.4515093 -0.0097575  0.0151965 
    1   136     2  1.4422120 -0.0146994  0.0183520 
    1   136     3  1.4479556 -0.0068222  0.0130940 
    1   136     4  1.4403740 -0.0114430  0.0160725 
    1   137     1  1.4385530 -0.0089771  0.0129243 
    1   137     2  1.4401552 -0.0109238  0.0133576 
    1   137     3  1.4347166 -0.0114527  0.0145245 
    1   137     4  1.4353782 -0.0148094  0.0156468 
    1   138     1  1.4723501 -0.0107690  0.0124514 
    1   138     2  1.4752201 -0.0125460  0.0109437 
    1   138     3  1.4807018 -0.0069188  0.0148556 
    1   138     4  1.4804442 -0.0095300  0.0129050 
    1   139     1  1.4674818 -0.0062647  0.0100642 
    1   139     2  1.4690566 -0.0100073  0.0125243 
    1   139     3  1.4600997 -0.0107032  0.0129065 
    1   139     4  1.4627279 -0.0126939  0.0142297 
    1   140     1  1.4739974 -0.0110534  0.0097313 
    1   140     2  1.4818005 -0.0086666  0.0102216 
    1   140     3  1.4755136 -0.0101908  0.0129057 
    1   140     4  1.4821898 -0.0082008  0.0129233 
    1   141     1  1.4599274 -0.0054520  0.0169573 
    1   141     2  1.4558803 -0.0111677  0.0143314 
    1   141     3  1.4597776 -0.0110821  0.0169799 
    1   141     4  1.4567826 -0.0141245  0.0150104 
    1   142     1  1.4666321 -0.0110996  0.0142001 
    1   142     2  1.4789910 -0.0066242  0.0119444 
    1   142     3  1.4704469 -0.0127754  0.0173136 
    1   142     4  1.4789351 -0.0091064  0.0150226 
    1   143     1  1.4667364 -0.0111806  0.0170417 
    1   143     2  1.4690990 -0.0113569  0.0131858 
    1   143     3  1.4776379 -0.0079148  0.0173515 
    1   143     4  1.4779046 -0.0086021  0.0139545 
    1   144     1  1.4182625 -0.0158027  0.0192469 
    1   144     2  1.4185753 -0.0136954  0.0142687 
    1   144     3  1.4338667 -0.0109840  0.0180616 
    1   144     4  1.4310769 -0.0098863  0.0134459 
    1   145     1  1.4089496 -0.0123134  0.0210210 
    1   145     2  1.3953472 -0.0165051  0.0201125 
    1   145     3  1.4096309 -0.0131578  0.0162016 
    1   145     4  1.3965206 -0.0171755  0.0154290 
    1   146     1  1.4130413 -0.0126229  0.0144803 
    1   146     2  1.4113597 -0.0099995  0.0187736 
    1   146     3  1.4015103 -0.0166424  0.0126150 
    1   146     4  1.4003549 -0.0144644  0.0160990 
    1   147     1  1.4212722 -0.0138622  0.0129710 
    1   147     2  1.4284558 -0.0117144  0.0131704 
    1   147     3  1.4204044 -0.0135159  0.0154902 
    1   147     4  1.4298620 -0.0104881  0.0165926 
    1   148     1  1.4068343 -0.0128272  0.0177515 
    1   148     2  1.4057131 -0.0127777  0.0227162 
    1   148     3  1.3930673 -0.0169900  0.0171857 
    1   148     4  1.3914934 -0.0170745  0.0221677 
    1   149     1  1.4169697 -0.0155443  0.0159888 
    1   149     2  1.4328448 -0.0107084  0.0167897 
    1   149     3  1.4156283 -0.0150394  0.0216483 
    1   149     4  1.4307145 -0.0105122  0.0219807 
    1   150     1  1.4109928 -0.0145666  0.0231947 
    1   150     2  1.4125263 -0.0151172  0.0182362 
    1   150     3  1.4253398 -0.0101520  0.0241320 
    1   150     4  1.4268016 -0.0107419  0.0190830 
    1   151     1  1.4012251 -0.0123475  0.0253771 
    1   151     2  1.3869394 -0.0167292  0.0245159 
    1   151     3  1.4028367 -0.0129121  0.0203889 
    1   151     4  1.3886793 -0.0172614  0.0195023 
    1   152     1  1.4548504 -0.0088549  0.0163385 
    1   152     2  1.4529372 -0.0065508  0.0211606 
    1   152     3  1.4418182 -0.0132392  0.0145175 
    1   152     4  1.4403780 -0.0112444  0.0185969 
    1   153     1  1.4649348 -0.0114296  0.0140485 
    1   153     2  1.4755782 -0.0080151  0.0152215 
    1   153     3  1.4638357 -0.0097878  0.0176332 
    1   153     4  1.4757483 -0.0058133  0.0192302 
    1   154     1  1.4590630 -0.0114130  0.0205467 
    1   154     2  1.4600904 -0.0108402  0.0157910 
    1   154     3  1.4736547 -0.0070558  0.0207992 
    1   154     4  1.4740264 -0.0066649  0.0157836 
    1   155     1  1.4496605 -0.0085398  0.0228954 
    1   155     2  1.4349729 -0.0130121  0.0221154 
    1   155     3  1.4508435 -0.0088242  0.0177268 
    1   155     4  1.4364089 -0.0132013  0.0171075 
    1   156     1  1.4077620 -0.0150691  0.0205567 
    1   156     2  1.4224328 -0.0106325  0.0211099 
    1   156     3  1.4060127 -0.0150882  0.0256332 
    1   156     4  1.4209295 -0.0105711  0.0262574 
    1   157     1  1.4008374 -0.0154256  0.0280710 
    1   157     2  1.4027502 -0.0149979  0.0228759 
    1   157     3  1.4163730 -0.0107557  0.0284627 
    1   157     4  1.4179654 -0.0104259  0.0231997 
    1   158     1  1.3903791 -0.0129547  0.0302519 
    1   158     2  1.3754244 -0.0174727  0.0296780 
    1   158     3  1.3924438 -0.0127248  0.0250678 
    1   158     4  1.3777434 -0.0171607  0.0245740 
    1   159     1  1.3977642 -0.0128934  0.0227373 
    1   159     2  1.3959290 -0.0126417  0.0277827 
    1   159     3  1.3835248 -0.0172352  0.0219911 
    1   159     4  1.3814607 -0.0170605  0.0269788 
    1   160     1  1.4428735 -0.0087476  0.0265819 
    1   160     2  1.4267807 -0.0135725  0.0263837 
    1   160     3  1.4438663 -0.0083824  0.0212051 
    1   160     4  1.4281871 -0.0130836  0.0210295 
    1   161     1  1.4472475 -0.0085837  0.0193837 
    1   161     2  1.4462641 -0.0086664  0.0246433 
    1   161     3  1.4322710 -0.0130863  0.0190610 
    1   161     4  1.4309057 -0.0132868  0.0242388 
    1   162     1  1.4569275 -0.0115524  0.0175091 
    1   162     2  1.4722359 -0.0069607  0.0175597 
    1   162     3  1.4561788 -0.0118313  0.0229275 
    1   162     4  1.4720254 -0.0070777  0.0229366 
    1   163     1  1.4530898 -0.0119750  0.0245396 
    1   163     2  1.4539622 -0.0110594  0.0190435 
    1   163     3  1.4695707 -0.0070421  0.0243695 
    1   163     4  1.4699619 -0.0062711  0.0188834 
    1   164     1  1.3635254 -0.0188181  0.0253312 
    1   164     2  1.3654961 -0.0196160  0.0206115 
    1   164     3  1.3771401 -0.0145542  0.0264804 
    1   164     4  1.3788181 -0.0154436  0.0217361 
    1   165     1  1.3537651 -0.0165601  0.0275462 
    1   165     2  1.3409835 -0.0207578  0.0259723 
    1   165     3  1.3555901 -0.0181399  0.0231402 
    1   165     4  1.3431371 -0.0222364  0.0215927 
    1   166     1  1.3612719 -0.0177318  0.0206088 
    1   166     2  1.3596680 -0.0163390  0.0249477 
    1   166     3  1.3490296 -0.0217116  0.0191910 
    1   166     4  1.3471717 -0.0203890  0.0235296 
    1   167     1  1.3706508 -0.0194140  0.0182394 
    1   167     2  1.3836282 -0.0153506  0.0193315 
    1   167     3  1.3689572 -0.0185655  0.0228568 
    1   167     4  1.3822160 -0.0144168  0.0239625 
    1   168     1  1.3198128 -0.0225747  0.0263303 
    1   168     2  1.3219875 -0.0248105  0.0225130 
    1   168     3  1.3313072 -0.0184882  0.0283059 
    1   168     4  1.3331401 -0.0208014  0.0244914 
    1   169     1  1.3102966 -0.0206575  0.0286554 
    1   169     2  1.3004079 -0.0244881  0.0265278 
    1   169     3  1.3120514 -0.0233797  0.0254578 
    1   169     4  1.3022688 -0.0272469  0.0232714 
    1   170     1  1.3188088 -0.0227388  0.0224118 
    1   170     2  1.3171932 -0.0201705  0.0259448 
    1   170     3  1.3083800 -0.0266223  0.0203717 
    1   170     4  1.3064527 -0.0241202  0.0239043 
    1   171     1  1.3280963 -0.0240553  0.0200137 
    1   171     2  1.3396122 -0.0201248  0.0217199 
    1   171     3  1.3261481 -0.0223183  0.0240456 
    1   171     4  1.3378925 -0.0183440  0.0257240 
    1   172     1  1.3736779 -0.0178937  0.0205264 
    1   172     2  1.3749710 -0.0191621  0.0160067 
    1   172     3  1.3865923 -0.0138013  0.0217548 
    1   172     4  1.3877548 -0.0151200  0.0171981 
    1   173     1  1.3649196 -0.0159367  0.0223880 
    1   173     2  1.3525496 -0.0198906  0.0211107 
    1   173     3  1.3661544 -0.0174604  0.0181132 
    1   173     4  1.3539891 -0.0213917  0.0167587 
    1   174     1  1.3692787 -0.0170705  0.0151669 
    1   174     2  1.3687084 -0.0166571  0.0194770 
    1   174     3  1.3572777 -0.0207293  0.0145153 
    1   174     4  1.3560905 -0.0204720  0.0190288 
    1   175     1  1.3783452 -0.0192732  0.0138122 
    1   175     2  1.3933578 -0.0146567  0.0147672 
    1   175     3  1.3775153 -0.0182896  0.0192182 
    1   175     4  1.3914932 -0.0141028  0.0196159 
    1   176     1  1.3318633 -0.0222851  0.0215610 
    1   176     2  1.3334944 -0.0237537  0.0175301 
    1   176     3  1.3434872 -0.0184219  0.0230889 
    1   176     4  1.3449240 -0.0199584  0.0190254 
    1   177     1  1.3229835 -0.0209080  0.0237953 
    1   177     2  1.3115112 -0.0246888  0.0223529 
    1   177     3  1.3246920 -0.0222269  0.0198422 
    1   177     4  1.3133017 -0.0260449  0.0182681 
    1   178     1  1.3294673 -0.0217845  0.0170926 
    1   178     2  1.3276072 -0.0190977  0.0212853 
    1   178     3  1.3174752 -0.0260911  0.0149672 
    1   178     4  1.3166307 -0.0234503  0.0187862 
    1   179     1  1.3396482 -0.0235324  0.0149435 
    1   179     2  1.3490772 -0.0202200  0.0165212 
    1   179     3  1.3381918 -0.0213904  0.0181895 
    1   179     4  1.3483909 -0.0177993  0.0199069 
    1   180     1  1.3787809 -0.0201968  0.0171335 
    1   180     2  1.3780085 -0.0175668  0.0121379 
    1   180     3  1.3934665 -0.0153274  0.0152103 
    1   180     4  1.3909138 -0.0135271  0.0108707 
    1   181     1  1.3702927 -0.0174442  0.0171990 
    1   181     2  1.3582349 -0.0211116  0.0177835 
    1   181     3  1.3698841 -0.0169905  0.0131056 
    1   181     4  1.3581179 -0.0205208  0.0133312 
    1   182     1  1.3677079 -0.0162116  0.0104213 
    1   182     2  1.3689653 -0.0179501  0.0142387 
    1   182     3  1.3562587 -0.0199434  0.0117941 
    1   182     4  1.3576234 -0.0217805  0.0158453 
    1   183     1  1.3752415 -0.0180001  0.0111699 
    1   183     2  1.3864987 -0.0141492  0.0094836 
    1   183     3  1.3765116 -0.0200769  0.0150973 
    1   183     4  1.3879675 -0.0161855  0.0134262 
    1   184     1  1.3396844 -0.0216770  0.0141304 
    1   184     2  1.3496685 -0.0179720  0.0120689 
    1   184     3  1.3426881 -0.0241472  0.0167211 
    1   184     4  1.3505879 -0.0207119  0.0146388 
    1   185     1  1.3407241 -0.0220997  0.0170863 
    1   185     2  1.3427693 -0.0227000  0.0134206 
    1   185     3  1.3515895 -0.0188767  0.0174442 
    1   185     4  1.3516039 -0.0198992  0.0142688 
    1   186     1  1.3349941 -0.0168489  0.0160405 
    1   186     2  1.3318483 -0.0229774  0.0137465 
    1   186     3  1.3340152 -0.0233679  0.0166098 
    1   186     4  1.3318746 -0.0263442  0.0147168 
    1   187     1  1.3655816 -0.0187615  0.0125385 
    1   187     2  1.3546211 -0.0227064  0.0145051 
    1   187     3  1.3644196 -0.0159603  0.0086764 
    1   187     4  1.3528264 -0.0201355  0.0107599 
    1   188     1  1.3621484 -0.0159934  0.0067420 
    1   188     2  1.3627426 -0.0181762  0.0123780 
    1   188     3  1.3476216 -0.0206447  0.0082547 
    1   188     4  1.3492480 -0.0221078  0.0128485 
    1   189     1  1.3711915 -0.0187056  0.0067561 
    1   189     2  1.3819317 -0.0154276  0.0061460 
    1   189     3  1.3717064 -0.0190869  0.0107212 
    1   189     4  1.3830385 -0.0156508  0.0102448 
    1   190     1  1.3734088 -0.0202473  0.0133664 
    1   190     2  1.3721029 -0.0185915  0.0092998 
    1   190     3  1.3850965 -0.0164675  0.0120439 
    1   190     4  1.3838460 -0.0147234  0.0078286 
    1   191     1  1.3268372 -0.0232418  0.0104551 
    1   191     2  1.3394613 -0.0172416  0.0066765 
    1   191     3  1.3297216 -0.0276702  0.0137915 
    1   191     4  1.3405373 -0.0221766  0.0102987 
    1   192     1  1.3375951 -0.0255313  0.0156376 
    1   192     2  1.3355134 -0.0215792  0.0134179 
    1   192     3  1.3460766 -0.0213186  0.0129089 
    1   192     4  1.3449056 -0.0167706  0.0103130 
    1   193     1  1.3256609 -0.0227374  0.0139896 
    1   193     2  1.3167379 -0.0284719  0.0176638 
    1   193     3  1.3235919 -0.0168443  0.0119659 
    1   193     4  1.3150052 -0.0233237  0.0158843 
    1   194     1  1.3141462 -0.0193966  0.0089881 
    1   194     2  1.3159601 -0.0243726  0.0108389 
    1   194     3  1.3055290 -0.0245616  0.0123550 
    1   194     4  1.3072613 -0.0297661  0.0143134 
    1   195     1  1.4106354 -0.0138287  0.0135571 
    1   195     2  1.4013862 -0.0181163  0.0162650 
    1   195     3  1.4082417 -0.0098933  0.0107968 
    1   195     4  1.4000285 -0.0147586  0.0139272 
    1   196     1  1.4052243 -0.0125981  0.0083912 
    1   196     2  1.4066618 -0.0146282  0.0122989 
    1   196     3  1.3941886 -0.0164550  0.0101784 
    1   196     4  1.3956288 -0.0183844  0.0139226 
    1   197     1  1.4134235 -0.0154375  0.0092742 
    1   197     2  1.4257067 -0.0116639  0.0084447 
    1   197     3  1.4146909 -0.0156921  0.0133606 
    1   197     4  1.4249477 -0.0125395  0.0126581 
    1   198     1  1.4193191 -0.0155413  0.0142946 
    1   198     2  1.4180478 -0.0141280  0.0127700 
    1   198     3  1.4245513 -0.0135929  0.0132252 
    1   198     4  1.4244855 -0.0110690  0.0108286 
    1   199     1  1.4041207 -0.0144237  0.0110778 
    1   199     2  1.3928864 -0.0180290  0.0122680 
    1   199     3  1.4027992 -0.0132827  0.0070560 
    1   199     4  1.3915943 -0.0168973  0.0082931 
    1   200     1  1.4000985 -0.0132129  0.0053867 
    1   200     2  1.4014238 -0.0145655  0.0092184 
    1   200     3  1.3893456 -0.0167013  0.0066155 
    1   200     4  1.3903490 -0.0181690  0.0105080 
    1   201     1  1.4074302 -0.0150435  0.0063850 
    1   201     2  1.4178129 -0.0114587  0.0047756 
    1   201     3  1.4086455 -0.0169101  0.0099747 
    1   201     4  1.4191465 -0.0133502  0.0084557 
    1   202     1  1.4120999 -0.0169979  0.0115064 
    1   202     2  1.4106685 -0.0148244  0.0074655 
    1   202     3  1.4240049 -0.0128983  0.0096764 
    1   202     4  1.4216786 -0.0111579  0.0059727 
    1   203     1  1.4726743 -0.0114324 -0.0013673 
    1   203     2  1.4834942 -0.0081749 -0.0010844 
    1   203     3  1.4728990 -0.0108133  0.0027174 
    1   203     4  1.4836844 -0.0075747  0.0029365 
    1   204     1  1.4728816 -0.0110046  0.0036978 
    1   204     2  1.4727226 -0.0111344 -0.0001651 
    1   204     3  1.4833553 -0.0078602  0.0038391 
    1   204     4  1.4832933 -0.0079606 -7.58e-006 
    1   205     1  1.4663948 -0.0090678  0.0039546 
    1   205     2  1.4557530 -0.0122604  0.0039867 
    1   205     3  1.4662137 -0.0090645  0.0000678 
    1   205     4  1.4554878 -0.0122827  0.0001220 
    1   206     1  1.4660998 -0.0091376 -0.0012454 
    1   206     2  1.4661819 -0.0090523  0.0026943 
    1   206     3  1.4553425 -0.0123647 -0.0012652 
    1   206     4  1.4554502 -0.0122717  0.0026727 
    2     1     1  1.2176740 -0.0277381  0.0456509 
    2     1     2  1.2182083 -0.0296456  0.0518818 
    2     1     3  1.1997741 -0.0332964  0.0470134 
    2     1     4  1.1994198 -0.0353376  0.0528820 
    2     2     1  1.2282492 -0.0303577  0.0454131 
    2     2     2  1.2451008 -0.0248693  0.0434348 
    2     2     3  1.2290050 -0.0321201  0.0501863 
    2     2     4  1.2467016 -0.0266858  0.0489058 
    2     3     1  1.2314517 -0.0338306  0.0539881 
    2     3     2  1.2304626 -0.0282709  0.0483226 
    2     3     3  1.2545008 -0.0251707  0.0492559 
    2     3     4  1.2492648 -0.0211818  0.0444377 
    2     4     1  1.2177164 -0.0303282  0.0555700 
    2     4     2  1.1967530 -0.0369774  0.0575991 
    2     4     3  1.2174184 -0.0277165  0.0490473 
    2     4     4  1.1973259 -0.0341339  0.0510997 
    2     5     1  1.2134455 -0.0313916  0.0640659 
    2     5     2  1.1895258 -0.0396324  0.0679577 
    2     5     3  1.2149308 -0.0250442  0.0568707 
    2     5     4  1.1913543 -0.0331628  0.0607018 
    2     6     1  1.2163175 -0.0270880  0.0520471 
    2     6     2  1.2158784 -0.0310646  0.0586435 
    2     6     3  1.1955329 -0.0339684  0.0547633 
    2     6     4  1.1944903 -0.0381024  0.0613663 
    2     7     1  1.2316907 -0.0299648  0.0505017 
    2     7     2  1.2563003 -0.0220253  0.0477571 
    2     7     3  1.2309527 -0.0339701  0.0582393 
    2     7     4  1.2540018 -0.0262431  0.0550775 
    2     8     1  1.2275123 -0.0328847  0.0619900 
    2     8     2  1.2283678 -0.0289238  0.0554519 
    2     8     3  1.2487265 -0.0260390  0.0595375 
    2     8     4  1.2501094 -0.0217583  0.0526767 
    2     9     1  1.2819628 -0.0218562  0.0556727 
    2     9     2  1.2620274 -0.0279569  0.0569638 
    2     9     3  1.2846251 -0.0186631  0.0488557 
    2     9     4  1.2634848 -0.0251878  0.0503793 
    2    10     1  1.2921699 -0.0182083  0.0452314 
    2    10     2  1.2879481 -0.0201887  0.0529215 
    2    10     3  1.2693705 -0.0250445  0.0454814 
    2    10     4  1.2671392 -0.0263490  0.0523040 
    2    11     1  1.3083569 -0.0213079  0.0420740 
    2    11     2  1.3264175 -0.0158945  0.0422679 
    2    11     3  1.3047539 -0.0225051  0.0480683 
    2    11     4  1.3231753 -0.0169850  0.0483380 
    2    12     1  1.2956040 -0.0235346  0.0524709 
    2    12     2  1.2983411 -0.0220566  0.0459567 
    2    12     3  1.3146674 -0.0178396  0.0524466 
    2    12     4  1.3181890 -0.0161297  0.0459551 
    2    13     1  1.2987870 -0.0196217  0.0474648 
    2    13     2  1.2827842 -0.0250707  0.0451080 
    2    13     3  1.3028222 -0.0212122  0.0432267 
    2    13     4  1.2898148 -0.0255686  0.0414295 
    2    14     1  1.3168500 -0.0200592  0.0390204 
    2    14     2  1.3131728 -0.0209269  0.0427793 
    2    14     3  1.3052304 -0.0235868  0.0382511 
    2    14     4  1.3001955 -0.0248328  0.0424648 
    2    15     1  1.3295122 -0.0206969  0.0350071 
    2    15     2  1.3452130 -0.0160023  0.0351317 
    2    15     3  1.3245913 -0.0225176  0.0406948 
    2    15     4  1.3415014 -0.0174494  0.0406334 
    2    16     1  1.3128183 -0.0231332  0.0447472 
    2    16     2  1.3176807 -0.0209229  0.0384714 
    2    16     3  1.3318922 -0.0174569  0.0448129 
    2    16     4  1.3358819 -0.0155046  0.0385202 
    2    17     1  1.2819840 -0.0246256  0.0399113 
    2    17     2  1.2940462 -0.0213515  0.0404175 
    2    17     3  1.2787484 -0.0269452  0.0441308 
    2    17     4  1.2899127 -0.0236653  0.0438452 
    2    18     1  1.2730120 -0.0242596  0.0454859 
    2    18     2  1.2670921 -0.0295900  0.0488433 
    2    18     3  1.2700361 -0.0217170  0.0466696 
    2    18     4  1.2665127 -0.0263544  0.0488092 
    2    19     1  1.2695423 -0.0233934  0.0416189 
    2    19     2  1.2682261 -0.0251336  0.0460480 
    2    19     3  1.2551979 -0.0280709  0.0434271 
    2    19     4  1.2559819 -0.0288802  0.0467915 
    2    20     1  1.3473684 -0.0141363  0.0491685 
    2    20     2  1.3290514 -0.0196328  0.0489241 
    2    20     3  1.3503077 -0.0132945  0.0432305 
    2    20     4  1.3324102 -0.0186672  0.0426914 
    2    21     1  1.3598663 -0.0116533  0.0381715 
    2    21     2  1.3571355 -0.0140807  0.0449304 
    2    21     3  1.3403871 -0.0174730  0.0387025 
    2    21     4  1.3367723 -0.0201804  0.0455517 
    2    22     1  1.3721636 -0.0146501  0.0357368 
    2    22     2  1.3917011 -0.0085913  0.0342457 
    2    22     3  1.3697786 -0.0177762  0.0425363 
    2    22     4  1.3901724 -0.0115118  0.0411459 
    2    23     1  1.3628960 -0.0187207  0.0458131 
    2    23     2  1.3664314 -0.0142334  0.0373088 
    2    23     3  1.3892546 -0.0105986  0.0438403 
    2    23     4  1.3887875 -0.0075677  0.0361763 
    2    24     1  1.3638582 -0.0145433  0.0416068 
    2    24     2  1.3451809 -0.0201391  0.0421036 
    2    24     3  1.3667999 -0.0123328  0.0352476 
    2    24     4  1.3488009 -0.0177289  0.0357428 
    2    25     1  1.3740201 -0.0125681  0.0321236 
    2    25     2  1.3709458 -0.0144449  0.0382869 
    2    25     3  1.3570295 -0.0176605  0.0324516 
    2    25     4  1.3533226 -0.0197304  0.0386493 
    2    26     1  1.3854157 -0.0150310  0.0299772 
    2    26     2  1.4027795 -0.0098020  0.0294216 
    2    26     3  1.3826025 -0.0170724  0.0362243 
    2    26     4  1.4003494 -0.0117428  0.0357328 
    2    27     1  1.3760199 -0.0175048  0.0393378 
    2    27     2  1.3787050 -0.0148775  0.0328993 
    2    27     3  1.3948358 -0.0118088  0.0384334 
    2    27     4  1.3970173 -0.0093056  0.0319205 
    2    28     1  1.4222355 -0.0079874  0.0380943 
    2    28     2  1.4007914 -0.0160772  0.0424280 
    2    28     3  1.4193542 -0.0024521  0.0310015 
    2    28     4  1.3999126 -0.0111328  0.0364907 
    2    29     1  1.4225015 -0.0057541  0.0302674 
    2    29     2  1.4217852 -0.0093672  0.0370573 
    2    29     3  1.4033240 -0.0120258  0.0325831 
    2    29     4  1.4020869 -0.0156477  0.0391154 
    2    30     1  1.4332925 -0.0102907  0.0298054 
    2    30     2  1.4509388 -0.0044152  0.0274667 
    2    30     3  1.4328047 -0.0132822  0.0356166 
    2    30     4  1.4501223 -0.0077218  0.0337392 
    2    31     1  1.4367336 -0.0133212  0.0374103 
    2    31     2  1.4354592 -0.0091805  0.0337518 
    2    31     3  1.4493776 -0.0083199  0.0344915 
    2    31     4  1.4493090 -0.0031984  0.0301259 
    2    32     1  1.4246931 -0.0094742  0.0352314 
    2    32     2  1.4063975 -0.0150607  0.0363176 
    2    32     3  1.4265358 -0.0068939  0.0287564 
    2    32     4  1.4083198 -0.0125178  0.0300324 
    2    33     1  1.4317384 -0.0073556  0.0266328 
    2    33     2  1.4296335 -0.0094217  0.0329814 
    2    33     3  1.4140181 -0.0127131  0.0273581 
    2    33     4  1.4117729 -0.0147911  0.0335788 
    2    34     1  1.4429915 -0.0106976  0.0248292 
    2    34     2  1.4611775 -0.0052010  0.0241395 
    2    34     3  1.4407848 -0.0125156  0.0307419 
    2    34     4  1.4578316 -0.0073920  0.0302404 
    2    35     1  1.4356869 -0.0130775  0.0332936 
    2    35     2  1.4374214 -0.0104548  0.0272388 
    2    35     3  1.4530545 -0.0077520  0.0321473 
    2    35     4  1.4548277 -0.0050477  0.0258918 
    2    36     1  1.4719333 -0.0060235  0.0320914 
    2    36     2  1.4581389 -0.0104478  0.0335951 
    2    36     3  1.4732551 -0.0030128  0.0269638 
    2    36     4  1.4581502 -0.0078843  0.0286623 
    2    37     1  1.4773844 -0.0031367  0.0252955 
    2    37     2  1.4757568 -0.0061198  0.0309504 
    2    37     3  1.4613618 -0.0082003  0.0268276 
    2    37     4  1.4604050 -0.0109132  0.0322885 
    2    38     1  1.4871925 -0.0070967  0.0232990 
    2    38     2  1.5029004 -0.0023610  0.0226715 
    2    38     3  1.4855057 -0.0090047  0.0288821 
    2    38     4  1.5007121 -0.0044122  0.0282435 
    2    39     1  1.4808544 -0.0086035  0.0299240 
    2    39     2  1.4824064 -0.0073759  0.0246892 
    2    39     3  1.4946834 -0.0044521  0.0296322 
    2    39     4  1.4970535 -0.0030026  0.0245423 
    2    40     1  1.4800980 -0.0059326  0.0294305 
    2    40     2  1.4636424 -0.0109347  0.0302967 
    2    40     3  1.4820243 -0.0036309  0.0234167 
    2    40     4  1.4652727 -0.0087611  0.0244299 
    2    41     1  1.4863070 -0.0041518  0.0215656 
    2    41     2  1.4847410 -0.0059616  0.0274784 
    2    41     3  1.4721388 -0.0084310  0.0221269 
    2    41     4  1.4690283 -0.0106849  0.0280024 
    2    42     1  1.4960000 -0.0075709  0.0197932 
    2    42     2  1.5135647 -0.0022938  0.0194602 
    2    42     3  1.4949526 -0.0085413  0.0257312 
    2    42     4  1.5116745 -0.0035230  0.0254647 
    2    43     1  1.4904546 -0.0089858  0.0272223 
    2    43     2  1.4923046 -0.0071839  0.0215121 
    2    43     3  1.5062279 -0.0042332  0.0266614 
    2    43     4  1.5082414 -0.0023751  0.0209137 
    2    44     1  1.5182764 -0.0029575  0.0274139 
    2    44     2  1.5045242 -0.0070868  0.0270601 
    2    44     3  1.5209347 -0.0022157  0.0225135 
    2    44     4  1.5070856 -0.0063771  0.0218989 
    2    45     1  1.5283430 -0.0016107  0.0202275 
    2    45     2  1.5259230 -0.0029395  0.0257363 
    2    45     3  1.5129989 -0.0061887  0.0202268 
    2    45     4  1.5107665 -0.0074738  0.0258464 
    2    46     1  1.5388870 -0.0051580  0.0173122 
    2    46     2  1.5545148 -0.0004943  0.0174638 
    2    46     3  1.5363042 -0.0063826  0.0231153 
    2    46     4  1.5519736 -0.0016977  0.0231544 
    2    47     1  1.5288298 -0.0061559  0.0243318 
    2    47     2  1.5317760 -0.0055271  0.0188070 
    2    47     3  1.5438930 -0.0016181  0.0248372 
    2    47     4  1.5465385 -0.0010716  0.0194836 
    2    48     1  1.5324665 -0.0028410  0.0242686 
    2    48     2  1.5164207 -0.0076502  0.0245739 
    2    48     3  1.5347944 -0.0012505  0.0184568 
    2    48     4  1.5185013 -0.0061281  0.0187294 
    2    49     1  1.5410851 -0.0013279  0.0166195 
    2    49     2  1.5384300 -0.0039358  0.0225886 
    2    49     3  1.5244673 -0.0063092  0.0172956 
    2    49     4  1.5218880 -0.0088972  0.0232708 
    2    50     1  1.5518009 -0.0049038  0.0142057 
    2    50     2  1.5680807 -0.0000224  0.0141421 
    2    50     3  1.5495650 -0.0058713  0.0200328 
    2    50     4  1.5656530 -0.0010457  0.0199348 
    2    51     1  1.5428900 -0.0067791  0.0218196 
    2    51     2  1.5453857 -0.0050688  0.0159065 
    2    51     3  1.5589788 -0.0019662  0.0215475 
    2    51     4  1.5614882 -0.0002618  0.0156951 
    2    52     1  1.5713480 -0.0004700  0.0219222 
    2    52     2  1.5550122 -0.0053818  0.0214548 
    2    52     3  1.5737774  0.0000957  0.0160095 
    2    52     4  1.5578044 -0.0047097  0.0154566 
    2    53     1  1.5814454  0.0004368  0.0144037 
    2    53     2  1.5790236 -0.0006576  0.0203724 
    2    53     3  1.5653593 -0.0043684  0.0142069 
    2    53     4  1.5627391 -0.0055280  0.0202679 
    2    54     1  1.5924206 -0.0035960  0.0110580 
    2    54     2  1.6091036  0.0013905  0.0111301 
    2    54     3  1.5899568 -0.0048124  0.0174051 
    2    54     4  1.6068703  0.0002474  0.0174204 
    2    55     1  1.5826383 -0.0048337  0.0185237 
    2    55     2  1.5851493 -0.0038552  0.0121276 
    2    55     3  1.5998169  0.0003093  0.0187356 
    2    55     4  1.6019959  0.0011863  0.0123970 
    2    56     1  1.5861030 -0.0005519  0.0189352 
    2    56     2  1.5697080 -0.0054594  0.0190240 
    2    56     3  1.5884738  0.0007160  0.0129193 
    2    56     4  1.5721730 -0.0041572  0.0129420 
    2    57     1  1.5951056  0.0008924  0.0113572 
    2    57     2  1.5924774 -0.0014305  0.0175915 
    2    57     3  1.5787356 -0.0040002  0.0118329 
    2    57     4  1.5757584 -0.0064410  0.0181315 
    2    58     1  1.6056383 -0.0031634  0.0088605 
    2    58     2  1.6222395  0.0018136  0.0087971 
    2    58     3  1.6034836 -0.0041510  0.0150818 
    2    58     4  1.6200382  0.0008144  0.0149751 
    2    59     1  1.5967402 -0.0049831  0.0163578 
    2    59     2  1.5992203 -0.0033957  0.0100545 
    2    59     3  1.6135183  0.0000373  0.0161487 
    2    59     4  1.6158179  0.0015640  0.0098979 
    2    60     1  1.6287780  0.0010746  0.0154724 
    2    60     2  1.6111299 -0.0042071  0.0153445 
    2    60     3  1.6305601  0.0019442  0.0088520 
    2    60     4  1.6132200 -0.0032438  0.0086958 
    2    61     1  1.6370665  0.0019985  0.0078856 
    2    61     2  1.6351502  0.0009030  0.0144148 
    2    61     3  1.6200365 -0.0030934  0.0078569 
    2    61     4  1.6178619 -0.0042698  0.0144322 
    2    62     1  1.6479012 -0.0025963  0.0046594 
    2    62     2  1.6652132  0.0025856  0.0045266 
    2    62     3  1.6460501 -0.0038573  0.0114375 
    2    62     4  1.6636390  0.0014097  0.0112808 
    2    63     1  1.6399541 -0.0038621  0.0121649 
    2    63     2  1.6416646 -0.0027444  0.0052796 
    2    63     3  1.6580056  0.0015415  0.0120834 
    2    63     4  1.6594054  0.0025642  0.0052230 
    2    64     1  1.6414333  0.0010097  0.0134212 
    2    64     2  1.6243539 -0.0041058  0.0135357 
    2    64     3  1.6434601  0.0021931  0.0069694 
    2    64     4  1.6265382 -0.0028714  0.0070405 
    2    65     1  1.6497761  0.0023518  0.0058823 
    2    65     2  1.6474167  0.0001278  0.0124827 
    2    65     3  1.6328594 -0.0027094  0.0063509 
    2    65     4  1.6302033 -0.0050322  0.0130033 
    2    66     1  1.6603464 -0.0021936  0.0033085 
    2    66     2  1.6773758  0.0029135  0.0032185 
    2    66     3  1.6584163 -0.0031180  0.0098481 
    2    66     4  1.6752842  0.0019419  0.0097362 
    2    67     1  1.6520506 -0.0039978  0.0107720 
    2    67     2  1.6541250 -0.0024587  0.0040991 
    2    67     3  1.6692880  0.0011665  0.0105006 
    2    67     4  1.6711623  0.0026424  0.0038540 
    2    68     1  1.6932954  0.0028094  0.0012437 
    2    68     2  1.6922733  0.0018441  0.0081718 
    2    68     3  1.6758398 -0.0024178  0.0013696 
    2    68     4  1.6744692 -0.0034893  0.0083189 
    2    69     1  1.7037568 -0.0022767 -0.0018812 
    2    69     2  1.7215258  0.0030539 -0.0021240 
    2    69     3  1.7029671 -0.0032350  0.0052546 
    2    69     4  1.7211399  0.0022165  0.0050084 
    2    70     1  1.6983985 -0.0033457  0.0054810 
    2    70     2  1.6991137 -0.0023592 -0.0017749 
    2    70     3  1.7171473  0.0022787  0.0052125 
    2    70     4  1.7175249  0.0031635 -0.0020342 
    2    71     1  1.6874390  0.0020523  0.0087243 
    2    71     2  1.6691095 -0.0034376  0.0088008 
    2    71     3  1.6883018  0.0028541  0.0016802 
    2    71     4  1.6702931 -0.0025389  0.0017446 
    2    72     1  1.6970776  0.0016076  0.0075779 
    2    72     2  1.6799050 -0.0035388  0.0077963 
    2    72     3  1.6983883  0.0027728  0.0008093 
    2    72     4  1.6815690 -0.0022656  0.0010048 
    2    73     1  1.7047020  0.0029316  0.0003889 
    2    73     2  1.7023168  0.0009274  0.0072666 
    2    73     3  1.6878833 -0.0021081  0.0007862 
    2    73     4  1.6853578 -0.0041586  0.0076893 
    2    74     1  1.7142742 -0.0018402 -0.0022699 
    2    74     2  1.7284478  0.0024114 -0.0024072 
    2    74     3  1.7126793 -0.0028021  0.0042451 
    2    74     4  1.7279043  0.0017652  0.0040941 
    2    75     1  1.7073993 -0.0033709  0.0049884 
    2    75     2  1.7084446 -0.0021815 -0.0019951 
    2    75     3  1.7248122  0.0018520  0.0046997 
    2    75     4  1.7253039  0.0028758 -0.0022774 
    2    76     1  1.6352880 -0.0027931  0.0058208 
    2    76     2  1.6535431  0.0026697  0.0058003 
    2    76     3  1.6337002 -0.0038300  0.0129728 
    2    76     4  1.6522733  0.0017284  0.0129478 
    2    77     1  1.6273150 -0.0038161  0.0137113 
    2    77     2  1.6287686 -0.0027789  0.0063204 
    2    77     3  1.6465396  0.0019359  0.0136867 
    2    77     4  1.6476415  0.0028672  0.0063044 
    2    78     1  1.6155269  0.0015912  0.0177407 
    2    78     2  1.5966903 -0.0040488  0.0174294 
    2    78     3  1.6170651  0.0022537  0.0106211 
    2    78     4  1.5986080 -0.0032721  0.0102961 
    2    79     1  1.6239147  0.0019763  0.0097583 
    2    79     2  1.6222429  0.0012370  0.0166409 
    2    79     3  1.6061038 -0.0033550  0.0094991 
    2    79     4  1.6040665 -0.0042050  0.0164126 
    2    80     1  1.6773782  0.0023258  0.0097445 
    2    80     2  1.6580797 -0.0034535  0.0098145 
    2    80     3  1.6779915  0.0030904  0.0022357 
    2    80     4  1.6589578 -0.0026126  0.0023445 
    2    81     1  1.6832222  0.0029287  0.0019910 
    2    81     2  1.6824651  0.0021702  0.0092976 
    2    81     3  1.6646944 -0.0026194  0.0020344 
    2    81     4  1.6636373 -0.0034682  0.0093475 
    2    82     1  1.6942762 -0.0024444 -0.0017374 
    2    82     2  1.7131154  0.0032057 -0.0019841 
    2    82     3  1.6936408 -0.0034057  0.0057406 
    2    82     4  1.7127595  0.0023289  0.0054839 
    2    83     1  1.6887367 -0.0034189  0.0059398 
    2    83     2  1.6892801 -0.0023871 -0.0016411 
    2    83     3  1.7081987  0.0024184  0.0056497 
    2    83     4  1.7085551  0.0033963 -0.0019481 
    2    84     1  1.6841026 -0.0024637 -0.0015576 
    2    84     2  1.7037562  0.0034629 -0.0021297 
    2    84     3  1.6839191 -0.0034344  0.0062212 
    2    84     4  1.7034806  0.0024435  0.0058297 
    2    85     1  1.6821127 -0.0035776  0.0065619 
    2    85     2  1.6810487 -0.0015331 -0.0003238 
    2    85     3  1.6992837  0.0017052  0.0053917 
    2    85     4  1.6995633  0.0042775 -0.0019210 
    2    86     1  1.6696400  0.0035065  0.0095522 
    2    86     2  1.6464205 -0.0036447  0.0110935 
    2    86     3  1.6681195  0.0058424 -0.0000793 
    2    86     4  1.6465609 -0.0011818  0.0026863 
    2    87     1  1.6729467  0.0033652  0.0021377 
    2    87     2  1.6726912  0.0024283  0.0100796 
    2    87     3  1.6533397 -0.0025200  0.0024532 
    2    87     4  1.6527555 -0.0035469  0.0103212 
    2    88     1  1.6219545 -0.0026681  0.0063882 
    2    88     2  1.6418188  0.0032753  0.0063628 
    2    88     3  1.6206625 -0.0037023  0.0143319 
    2    88     4  1.6410028  0.0023828  0.0143144 
    2    89     1  1.6138649 -0.0038858  0.0144976 
    2    89     2  1.6159415 -0.0034165  0.0055416 
    2    89     3  1.6360211  0.0027726  0.0152251 
    2    89     4  1.6362515  0.0027050  0.0072594 
    2    90     1  1.5991831  0.0026460  0.0201998 
    2    90     2  1.5818358 -0.0026475  0.0192551 
    2    90     3  1.6008187  0.0021201  0.0135169 
    2    90     4  1.5828422 -0.0033759  0.0124692 
    2    91     1  1.6099690  0.0027101  0.0114459 
    2    91     2  1.6085953  0.0020912  0.0188456 
    2    91     3  1.5909119 -0.0029906  0.0109348 
    2    91     4  1.5891281 -0.0037356  0.0184478 
    2    92     1  1.5949677  0.0046368  0.0128626 
    2    92     2  1.5927587  0.0030940  0.0203188 
    2    92     3  1.5758248 -0.0012019  0.0139768 
    2    92     4  1.5763426 -0.0017908  0.0202441 
    2    93     1  1.6071687 -0.0043388  0.0097718 
    2    93     2  1.6164229  0.0020105  0.0137466 
    2    93     3  1.6060275  0.0012282  0.0128183 
    2    93     4  1.6135997  0.0049763  0.0152647 
    2    94     1  1.5977471  0.0054411  0.0156558 
    2    94     2  1.5795583 -0.0029754  0.0209239 
    2    94     3  1.5887545  0.0100805  0.0117573 
    2    94     4  1.5765376  0.0024243  0.0167759 
    2    95     1  1.6335727  0.0002948  0.0104464 
    2    95     2  1.6379427  0.0086693  0.0074565 
    2    95     3  1.6335820 -0.0064782  0.0091223 
    2    95     4  1.6377576  0.0017286  0.0063050 
    2    96     1  1.6572191 -0.0064590  0.0035751 
    2    96     2  1.6568011  0.0002816  0.0049982 
    2    96     3  1.6621847  0.0021910  0.0001458 
    2    96     4  1.6613038  0.0072580  0.0017568 
    2    97     1  1.6313838  0.0081311  0.0019679 
    2    97     2  1.6275995  0.0016753  0.0044486 
    2    97     3  1.6310802  0.0134348  0.0025745 
    2    97     4  1.6277093  0.0071025  0.0047434 
    2    98     1  1.6054329  0.0126231  0.0094189 
    2    98     2  1.6071713  0.0053267  0.0082081 
    2    98     3  1.5990529  0.0031249  0.0135168 
    2    98     4  1.6011318 -0.0031136  0.0120926 
    2    99     1  1.6749154 -0.0033357  0.0024855 
    2    99     2  1.6800031 -0.0051745 -0.0014195 
    2    99     3  1.6885914  0.0017409  0.0051321 
    2    99     4  1.6885119 -0.0011724  0.0013339 
    2   100     1  1.6674154  0.0080014  0.0008986 
    2   100     2  1.6709936  0.0004580  0.0058509 
    2   100     3  1.6532620 -0.0017175  0.0071368 
    2   100     4  1.6589442 -0.0054712  0.0096307 
    2   101     1  1.6798892 -0.0014598 -0.0014998 
    2   101     2  1.6971088  0.0037181 -0.0023772 
    2   101     3  1.6823730 -0.0031861  0.0051235 
    2   101     4  1.6970994  0.0014327  0.0038528 
    2   102     1  1.6450691  0.0149230 -0.0004404 
    2   102     2  1.6425418  0.0082333 -0.0034552 
    2   102     3  1.6408965 -0.0004257  0.0015496 
    2   102     4  1.6398190 -0.0020143 -0.0017809 
    2   103     1  1.6682091 -0.0025022 -0.0043044 
    2   103     2  1.6865532  0.0032650 -0.0067277 
    2   103     3  1.6763410 -0.0008039  0.0014942 
    2   103     4  1.6875290  0.0029060 -0.0015248 
    2   104     1  1.6592793 -0.0031689 -0.0003575 
    2   104     2  1.6742866  0.0122413 -0.0151543 
    2   104     3  1.7031080  0.0108671 -0.0061753 
    2   104     4  1.7091764  0.0228635 -0.0191200 
    2   105     1  1.5830022  0.0105004  0.0131278 
    2   105     2  1.5798235  0.0130661  0.0151849 
    2   105     3  1.5735987  0.0059894  0.0102860 
    2   105     4  1.5732587  0.0090490  0.0125608 
    2   106     1  1.5868573  0.0038171  0.0121578 
    2   106     2  1.5772177  0.0247916  0.0019582 
    2   106     3  1.6108066  0.0208870  0.0015975 
    2   106     4  1.6014331  0.0340832 -0.0045844 
    2   107     1  1.5730794  0.0163590  0.0231166 
    2   107     2  1.5583073  0.0122992  0.0228457 
    2   107     3  1.5693048  0.0171494  0.0181145 
    2   107     4  1.5572482  0.0136024  0.0185236 
    2   108     1  1.5422356 -0.0044673  0.0271461 
    2   108     2  1.5402134  0.0006322  0.0178617 
    2   108     3  1.5692986  0.0042858  0.0239296 
    2   108     4  1.5645906  0.0082513  0.0154037 
    2   109     1  1.5257206  0.0036802  0.0331735 
    2   109     2  1.4991532 -0.0043690  0.0343789 
    2   109     3  1.5246667  0.0057536  0.0236042 
    2   109     4  1.5001433 -0.0019081  0.0256483 
    2   110     1  1.5318568  0.0035369  0.0227435 
    2   110     2  1.5313759  0.0018012  0.0310022 
    2   110     3  1.5101973 -0.0029364  0.0231788 
    2   110     4  1.5085981 -0.0049772  0.0313090 
    2   111     1  1.5438317 -0.0016266  0.0179772 
    2   111     2  1.5650272  0.0049750  0.0163127 
    2   111     3  1.5437483 -0.0040556  0.0257588 
    2   111     4  1.5657942  0.0026104  0.0246758 
    2   112     1  1.5225987  0.0069240  0.0257932 
    2   112     2  1.5257513  0.0017290  0.0328556 
    2   112     3  1.4968711 -0.0021483  0.0302157 
    2   112     4  1.5047961 -0.0056147  0.0364028 
    2   113     1  1.5368478  0.0014910  0.0188290 
    2   113     2  1.5619998  0.0089806  0.0186280 
    2   113     3  1.5386176  0.0006461  0.0273094 
    2   113     4  1.5600342  0.0071012  0.0266565 
    2   114     1  1.5354253  0.0047307  0.0307706 
    2   114     2  1.5329775  0.0036517  0.0256983 
    2   114     3  1.5499286  0.0091008  0.0311855 
    2   114     4  1.5483257  0.0082619  0.0259248 
    2   115     1  1.5276427  0.0036411  0.0352777 
    2   115     2  1.5105203 -0.0015048  0.0362310 
    2   115     3  1.5243471  0.0027085  0.0296644 
    2   115     4  1.5055179 -0.0029430  0.0299755 
    2   116     1  1.4781461 -0.0036377  0.0365093 
    2   116     2  1.4862697  0.0022015  0.0328693 
    2   116     3  1.4837517 -0.0054622  0.0359791 
    2   116     4  1.4881137 -0.0007238  0.0334820 
    2   117     1  1.4853347 -0.0046562  0.0402286 
    2   117     2  1.4848439 -0.0034534  0.0351635 
    2   117     3  1.5010655  0.0004176  0.0383326 
    2   117     4  1.4984618  0.0006997  0.0344225 
    2   118     1  1.4723756 -0.0024895  0.0439378 
    2   118     2  1.4591246 -0.0071280  0.0417687 
    2   118     3  1.4730605 -0.0047113  0.0396674 
    2   118     4  1.4615101 -0.0083037  0.0385792 
    2   119     1  1.4750695 -0.0051538  0.0290835 
    2   119     2  1.4961472  0.0011481  0.0294015 
    2   119     3  1.4725835 -0.0062634  0.0368313 
    2   119     4  1.4943205  0.0002302  0.0372743 
    2   120     1  1.4628950 -0.0065024  0.0399001 
    2   120     2  1.4656623 -0.0064500  0.0317330 
    2   120     3  1.4856844  0.0004058  0.0409453 
    2   120     4  1.4867041 -3.94e-006  0.0334109 
    2   121     1  1.4457515 -0.0022910  0.0467145 
    2   121     2  1.4267481 -0.0080864  0.0457015 
    2   121     3  1.4482959 -0.0025554  0.0399300 
    2   121     4  1.4286875 -0.0085321  0.0389066 
    2   122     1  1.4600824 -0.0016456  0.0356951 
    2   122     2  1.4575819 -0.0020092  0.0431314 
    2   122     3  1.4396334 -0.0078167  0.0348474 
    2   122     4  1.4368641 -0.0082642  0.0422185 
    2   123     1  1.4531805 -0.0070399  0.0373583 
    2   123     2  1.4682573 -0.0014033  0.0403987 
    2   123     3  1.4509973 -0.0035131  0.0413990 
    2   123     4  1.4631458  0.0010061  0.0438256 
    2   124     1  1.4369326 -0.0058881  0.0458442 
    2   124     2  1.4393954 -0.0052945  0.0424677 
    2   124     3  1.4468595 -0.0028822  0.0465520 
    2   124     4  1.4504335 -0.0019746  0.0427311 
    2   125     1  1.4249381 -0.0044755  0.0521017 
    2   125     2  1.4100318 -0.0089894  0.0515199 
    2   125     3  1.4281204 -0.0043459  0.0461044 
    2   125     4  1.4114672 -0.0093556  0.0456971 
    2   126     1  1.4393104 -0.0025038  0.0427840 
    2   126     2  1.4361708 -0.0031685  0.0495304 
    2   126     3  1.4198069 -0.0083761  0.0421531 
    2   126     4  1.4179127 -0.0086686  0.0488745 
    2   127     1  1.3903429 -0.0118543  0.0520842 
    2   127     2  1.3918283 -0.0103385  0.0444009 
    2   127     3  1.4118727 -0.0054431  0.0520196 
    2   127     4  1.4142752 -0.0036209  0.0440954 
    2   128     1  1.3739147 -0.0070878  0.0578928 
    2   128     2  1.3481401 -0.0147909  0.0578949 
    2   128     3  1.3757102 -0.0056647  0.0482445 
    2   128     4  1.3506192 -0.0132714  0.0494202 
    2   129     1  1.3861388 -0.0074663  0.0466451 
    2   129     2  1.3830343 -0.0071560  0.0544459 
    2   129     3  1.3641423 -0.0141824  0.0454347 
    2   129     4  1.3608413 -0.0139644  0.0530208 
    2   130     1  1.4024073 -0.0109054  0.0403548 
    2   130     2  1.4237503 -0.0044612  0.0410997 
    2   130     3  1.3994114 -0.0112006  0.0478013 
    2   130     4  1.4207640 -0.0047318  0.0488167 
    2   131     1  1.3711058 -0.0049676  0.0511277 
    2   131     2  1.3721581 -0.0107675  0.0588345 
    2   131     3  1.3448236 -0.0141507  0.0554844 
    2   131     4  1.3513282 -0.0178594  0.0620495 
    2   132     1  1.3849673 -0.0112773  0.0469034 
    2   132     2  1.4062030 -0.0048976  0.0465798 
    2   132     3  1.3851300 -0.0116645  0.0541809 
    2   132     4  1.4049047 -0.0057311  0.0540025 
    2   133     1  1.3810357 -0.0122951  0.0572619 
    2   133     2  1.3807277 -0.0088802  0.0499375 
    2   133     3  1.3992680 -0.0067572  0.0559583 
    2   133     4  1.4010703 -0.0027548  0.0485950 
    2   134     1  1.3716678 -0.0091406  0.0600143 
    2   134     2  1.3557243 -0.0141949  0.0615641 
    2   134     3  1.3701170 -0.0079420  0.0544527 
    2   134     4  1.3526489 -0.0132669  0.0554318 
    2   135     1  1.3255787 -0.0151953  0.0610892 
    2   135     2  1.3338822 -0.0089157  0.0572231 
    2   135     3  1.3308092 -0.0176128  0.0605921 
    2   135     4  1.3353844 -0.0124292  0.0579377 
    2   136     1  1.3319015 -0.0163780  0.0653518 
    2   136     2  1.3321579 -0.0142789  0.0602082 
    2   136     3  1.3467115 -0.0114227  0.0632713 
    2   136     4  1.3449980 -0.0103263  0.0592760 
    2   137     1  1.3192781 -0.0134049  0.0687268 
    2   137     2  1.3054018 -0.0182710  0.0664085 
    2   137     3  1.3202019 -0.0156997  0.0637754 
    2   137     4  1.3078398 -0.0195491  0.0626570 
    2   138     1  1.3252406 -0.0177425  0.0503107 
    2   138     2  1.3468997 -0.0110042  0.0519891 
    2   138     3  1.3217047 -0.0168660  0.0574912 
    2   138     4  1.3436685 -0.0099815  0.0593876 
    2   139     1  1.3086959 -0.0185061  0.0632277 
    2   139     2  1.3113944 -0.0197169  0.0547178 
    2   139     3  1.3327011 -0.0110277  0.0651640 
    2   139     4  1.3346408 -0.0123249  0.0572308 
    2   140     1  1.2899205 -0.0150633  0.0706400 
    2   140     2  1.2671644 -0.0219838  0.0695563 
    2   140     3  1.2921676 -0.0155670  0.0628758 
    2   140     4  1.2676455 -0.0230389  0.0616131 
    2   141     1  1.3041087 -0.0137615  0.0575037 
    2   141     2  1.3000675 -0.0137220  0.0665430 
    2   141     3  1.2766609 -0.0221410  0.0559387 
    2   141     4  1.2749251 -0.0215047  0.0643297 
    2   142     1  1.2983579 -0.0197860  0.0608282 
    2   142     2  1.3152374 -0.0133000  0.0644412 
    2   142     3  1.2966079 -0.0153747  0.0654454 
    2   142     4  1.3098086 -0.0103187  0.0682549 
    2   143     1  1.2835695 -0.0168719  0.0702580 
    2   143     2  1.2856215 -0.0161411  0.0663413 
    2   143     3  1.2939518 -0.0137794  0.0709677 
    2   143     4  1.2974560 -0.0125981  0.0665391 
    2   144     1  1.2728186 -0.0156015  0.0767896 
    2   144     2  1.2576645 -0.0202319  0.0759568 
    2   144     3  1.2742624 -0.0166958  0.0700706 
    2   144     4  1.2565996 -0.0220252  0.0693991 
    2   145     1  1.2840148 -0.0151008  0.0663410 
    2   145     2  1.2820619 -0.0151290  0.0738148 
    2   145     3  1.2617095 -0.0218429  0.0654366 
    2   145     4  1.2620004 -0.0211955  0.0729663 
    2   146     1  1.2283388 -0.0286842  0.0633815 
    2   146     2  1.2598323 -0.0191112  0.0618295 
    2   146     3  1.2288486 -0.0309606  0.0731829 
    2   146     4  1.2582217 -0.0217414  0.0705602 
    2   147     1  1.2269503 -0.0274345  0.0765791 
    2   147     2  1.2249773 -0.0260510  0.0685396 
    2   147     3  1.2517146 -0.0200091  0.0757840 
    2   147     4  1.2518224 -0.0180103  0.0677132 
    2   148     1  1.2099920 -0.0258603  0.0815391 
    2   148     2  1.1756620 -0.0362468  0.0828388 
    2   148     3  1.2076828 -0.0251526  0.0733345 
    2   148     4  1.1753233 -0.0348674  0.0741147 
    2   149     1  1.2088184 -0.0247587  0.0679562 
    2   149     2  1.2093334 -0.0274071  0.0754186 
    2   149     3  1.1813038 -0.0332658  0.0700098 
    2   149     4  1.1807552 -0.0363703  0.0778913 
    2   150     1  1.2289929 -0.0328184  0.0692243 
    2   150     2  1.2271508 -0.0256221  0.0618528 
    2   150     3  1.2587951 -0.0213140  0.0627941 
    2   150     4  1.2519152 -0.0164377  0.0568783 
    2   151     1  1.2113384 -0.0272551  0.0716698 
    2   151     2  1.1845112 -0.0359650  0.0747522 
    2   151     3  1.2107629 -0.0241597  0.0644939 
    2   151     4  1.1851613 -0.0323545  0.0671770 
    2   152     1  1.2121587 -0.0227802  0.0603728 
    2   152     2  1.2121331 -0.0281478  0.0674185 
    2   152     3  1.1883451 -0.0309453  0.0640946 
    2   152     4  1.1870337 -0.0367095  0.0712831 
    2   153     1  1.2256468 -0.0277467  0.0598917 
    2   153     2  1.2471263 -0.0197512  0.0556859 
    2   153     3  1.2261528 -0.0327567  0.0659610 
    2   153     4  1.2485319 -0.0248440  0.0620747 
    2   154     1  1.2826665 -0.0197828  0.0570535 
    2   154     2  1.2740558 -0.0276350  0.0618252 
    2   154     3  1.2782357 -0.0160226  0.0585455 
    2   154     4  1.2730087 -0.0228460  0.0616962 
    2   155     1  1.2780312 -0.0182386  0.0521187 
    2   155     2  1.2764456 -0.0219846  0.0582873 
    2   155     3  1.2594466 -0.0248475  0.0553665 
    2   155     4  1.2604963 -0.0271516  0.0601401 
    2   156     1  1.2927335 -0.0214698  0.0492465 
    2   156     2  1.3082841 -0.0169386  0.0506735 
    2   156     3  1.2897157 -0.0228520  0.0549876 
    2   156     4  1.3038302 -0.0186574  0.0553036 
    2   157     1  1.3151861 -0.0130324  0.0593961 
    2   157     2  1.2963305 -0.0202688  0.0553955 
    2   157     3  1.3193025 -0.0169695  0.0546287 
    2   157     4  1.3036909 -0.0228366  0.0514435 
    2   158     1  1.3385492 -0.0155376  0.0485858 
    2   158     2  1.3349084 -0.0147491  0.0534506 
    2   158     3  1.3233001 -0.0205799  0.0465706 
    2   158     4  1.3184069 -0.0199944  0.0518362 
    2   159     1  1.3570704 -0.0178474  0.0414809 
    2   159     2  1.3783064 -0.0111051  0.0435483 
    2   159     3  1.3517350 -0.0170420  0.0486218 
    2   159     4  1.3727974 -0.0105703  0.0500119 
    2   160     1  1.3345218 -0.0169247  0.0529688 
    2   160     2  1.3394807 -0.0173528  0.0460608 
    2   160     3  1.3558981 -0.0101448  0.0551023 
    2   160     4  1.3604663 -0.0107365  0.0480086 
    2   161     1  1.4129000 -0.0101338  0.0430196 
    2   161     2  1.4165023 -0.0106496  0.0363666 
    2   161     3  1.4322427 -0.0040625  0.0447713 
    2   161     4  1.4356595 -0.0046954  0.0378517 
    2   162     1  1.3951262 -0.0075388  0.0504952 
    2   162     2  1.3741517 -0.0140199  0.0488905 
    2   162     3  1.3994416 -0.0074729  0.0432104 
    2   162     4  1.3786651 -0.0138733  0.0417387 
    2   163     1  1.4128095 -0.0076475  0.0392857 
    2   163     2  1.4084814 -0.0049490  0.0453009 
    2   163     3  1.3963298 -0.0133800  0.0366603 
    2   163     4  1.3923239 -0.0112166  0.0416948 
    2   164     1  1.4323849 -0.0109614  0.0328367 
    2   164     2  1.4499426 -0.0054464  0.0343895 
    2   164     3  1.4276483 -0.0105475  0.0394233 
    2   164     4  1.4463817 -0.0048309  0.0404619 
    2   165     1  1.4342340 -0.0128596  0.0376339 
    2   165     2  1.4386379 -0.0079189  0.0307763 
    2   165     3  1.4563300 -0.0054178  0.0345402 
    2   165     4  1.4534555 -0.0034185  0.0295862 
    2   166     1  1.4267983 -0.0016586  0.0368437 
    2   166     2  1.4254891 -0.0097081  0.0348258 
    2   166     3  1.4228772 -0.0116481  0.0395195 
    2   166     4  1.4228323 -0.0150817  0.0375004 
    2   167     1  1.4362329 -0.0092247  0.0344777 
    2   167     2  1.4495211 -0.0035786  0.0310765 
    2   167     3  1.4396908 -0.0123700  0.0375016 
    2   167     4  1.4509577 -0.0073841  0.0344496 
    2   168     1  1.4681654 -0.0019776  0.0397742 
    2   168     2  1.4482471 -0.0080876  0.0384415 
    2   168     3  1.4712027 -0.0020855  0.0326071 
    2   168     4  1.4516257 -0.0080705  0.0314411 
    2   169     1  1.4826547 -0.0022420  0.0300992 
    2   169     2  1.4788513 -0.0006957  0.0368677 
    2   169     3  1.4642492 -0.0082162  0.0279762 
    2   169     4  1.4610208 -0.0067393  0.0341475 
    2   170     1  1.4988983 -0.0062642  0.0242212 
    2   170     2  1.5157729 -0.0010034  0.0255952 
    2   170     3  1.4954234 -0.0058309  0.0303140 
    2   170     4  1.5130407 -0.0003042  0.0318929 
    2   171     1  1.4831403 -0.0063038  0.0336937 
    2   171     2  1.4860478 -0.0057306  0.0265317 
    2   171     3  1.5032833 -0.0002251  0.0346713 
    2   171     4  1.5057358  0.0002022  0.0272803 
    2   172     1  1.4930349 -0.0016726  0.0326514 
    2   172     2  1.4809526 -0.0068419  0.0295243 
    2   172     3  1.4955823 -0.0051238  0.0295155 
    2   172     4  1.4858554 -0.0092768  0.0270052 
    2   173     1  1.5102116 -0.0042618  0.0261131 
    2   173     2  1.5078135 -0.0029032  0.0295206 
    2   173     3  1.5000926 -0.0078874  0.0243166 
    2   173     4  1.4970165 -0.0065350  0.0280129 
    2   174     1  1.5228029 -0.0064678  0.0204610 
    2   174     2  1.5369806 -0.0019941  0.0217978 
    2   174     3  1.5192121 -0.0061234  0.0257080 
    2   174     4  1.5342511 -0.0014208  0.0269639 
    2   175     1  1.5064527 -0.0063072  0.0280681 
    2   175     2  1.5104778 -0.0064700  0.0222800 
    2   175     3  1.5232376 -0.0010299  0.0296344 
    2   175     4  1.5264157 -0.0014625  0.0237521 
    2   176     1  1.4786600 -0.0076622  0.0257362 
    2   176     2  1.4900363 -0.0041524  0.0271976 
    2   176     3  1.4766626 -0.0079308  0.0303227 
    2   176     4  1.4869123 -0.0048288  0.0308005 
    2   177     1  1.4721321 -0.0053432  0.0312330 
    2   177     2  1.4645422 -0.0113322  0.0348815 
    2   177     3  1.4681626 -0.0027824  0.0315814 
    2   177     4  1.4636854 -0.0076991  0.0341128 
    2   178     1  1.4688822 -0.0037943  0.0281779 
    2   178     2  1.4680022 -0.0059777  0.0326873 
    2   178     3  1.4562744 -0.0081826  0.0303105 
    2   178     4  1.4573222 -0.0094579  0.0339430 
    2   179     1  1.5374575  0.0010544  0.0294105 
    2   179     2  1.5172485 -0.0049935  0.0289002 
    2   179     3  1.5390687  0.0017260  0.0219246 
    2   179     4  1.5194035 -0.0041642  0.0216253 
    2   180     1  1.5473618  0.0007173  0.0208823 
    2   180     2  1.5451246  0.0005943  0.0277816 
    2   180     3  1.5291685 -0.0047901  0.0200620 
    2   180     4  1.5264377 -0.0050710  0.0268331 
    2   181     1  1.5599881 -0.0037271  0.0158678 
    2   181     2  1.5783389  0.0017810  0.0163402 
    2   181     3  1.5578750 -0.0043140  0.0228497 
    2   181     4  1.5765071  0.0012788  0.0233584 
    2   182     1  1.5500574 -0.0040568  0.0243296 
    2   182     2  1.5514550 -0.0032128  0.0170719 
    2   182     3  1.5696342  0.0017933  0.0245645 
    2   182     4  1.5710159  0.0026461  0.0170736 
    2   183     1  1.5538801 -0.0000280  0.0258007 
    2   183     2  1.5365115 -0.0053105  0.0248475 
    2   183     3  1.5563525  0.0000801  0.0195036 
    2   183     4  1.5395734 -0.0050240  0.0185723 
    2   184     1  1.5653842 -0.0001904  0.0176949 
    2   184     2  1.5629060 -0.0003457  0.0237646 
    2   184     3  1.5491885 -0.0051107  0.0168448 
    2   184     4  1.5461742 -0.0054213  0.0229651 
    2   185     1  1.5772972 -0.0039655  0.0132511 
    2   185     2  1.5945011  0.0011920  0.0136653 
    2   185     3  1.5747393 -0.0047858  0.0198442 
    2   185     4  1.5923527  0.0004949  0.0202284 
    2   186     1  1.5662787 -0.0046487  0.0213098 
    2   186     2  1.5687941 -0.0038041  0.0145104 
    2   186     3  1.5845327  0.0008210  0.0217552 
    2   186     4  1.5866172  0.0015363  0.0149559 
    2   187     1  1.2054464 -0.0207801  0.0761144 
    2   187     2  1.2140514 -0.0215834  0.0844832 
    2   187     3  1.1775059 -0.0296080  0.0787104 
    2   187     4  1.1928006 -0.0279988  0.0856799 
    2   188     1  1.2206003 -0.0272121  0.0698266 
    2   188     2  1.2469022 -0.0193160  0.0701928 
    2   188     3  1.2257151 -0.0249548  0.0784440 
    2   188     4  1.2492073 -0.0179023  0.0787698 
    2   189     1  1.2301731 -0.0231776  0.0815478 
    2   189     2  1.2250028 -0.0208389  0.0736944 
    2   189     3  1.2483725 -0.0177363  0.0804332 
    2   189     4  1.2466002 -0.0143667  0.0723404 
    2   190     1  1.2218036 -0.0213507  0.0844876 
    2   190     2  1.2078534 -0.0258409  0.0859969 
    2   190     3  1.2164310 -0.0204113  0.0786824 
    2   190     4  1.2004202 -0.0253146  0.0798160 
    2   191     1  1.1714441 -0.0271856  0.0841864 
    2   191     2  1.1710548 -0.0219257  0.0827165 
    2   191     3  1.1637982 -0.0394671  0.0784551 
    2   191     4  1.1660020 -0.0310195  0.0791245 
    2   192     1  1.1851261 -0.0269240  0.0905698 
    2   192     2  1.1775894 -0.0303552  0.0828934 
    2   192     3  1.2011407 -0.0223653  0.0893274 
    2   192     4  1.1928940 -0.0258147  0.0828871 
    2   193     1  1.1749603 -0.0181247  0.0913184 
    2   193     2  1.1607536 -0.0260267  0.0862594 
    2   193     3  1.1680262 -0.0301003  0.0841130 
    2   193     4  1.1579578 -0.0337425  0.0816699 
    3     1     1  0.5763726 -0.2637066  0.3239650 
    3     1     2  0.3427555 -0.9717725  0.2176483 
    3     1     3  0.7543336 -0.2148612  0.5115926 
    3     1     4  0.5388572 -0.9143898  0.4236272 
    3     2     1  0.4931250 -0.5174232  0.5119790 
    3     2     2  0.3475379 -0.5268810  0.3977679 
    3     2     3  0.3397285 -0.9487675  0.4240906 
    3     2     4  0.1784064 -0.9873164  0.2996976 
    3     3     1  0.3962053 -0.2295231  0.1879794 
    3     3     2  0.4561824 -0.1388532  0.2712298 
    3     3     3  0.1833887 -0.2848082  0.1704769 
    3     3     4  0.2837186 -0.1853054  0.2553251 
    3     4     1  0.6111309 -0.0401411 -0.0870231 
    3     4     2  1.0792703  0.1001467 -0.0937022 
    3     4     3  0.6389826 -0.0541158  0.0906813 
    3     4     4  1.0818543  0.0776781  0.0917184 
    3     5     1  0.2135196 -0.6602697  0.3829684 
    3     5     2  0.1174666 -0.9799433  0.3434580 
    3     5     3  0.2764019 -0.7241192  0.4614885 
    3     5     4  0.1904393 -0.9741417  0.4191750 
    3     6     1  0.1384184 -0.6809614  0.4383698 
    3     6     2  0.1090952 -0.7603332  0.3647059 
    3     6     3  0.0573888 -0.9543917  0.4488118 
    3     6     4  0.0476060 -0.9706436  0.3837796 
    3     7     1  0.0773342 -0.5103465  0.3568390 
    3     7     2  0.2075267 -0.3929520  0.2899709 
    3     7     3  0.1466318 -0.5689245  0.3521221 
    3     7     4  0.2251353 -0.4652229  0.3034076 
    3     8     1  0.0415574 -0.5287743  0.3271351 
    3     8     2  0.0353871 -0.4823050  0.4117996 
    3     8     3  0.1244257 -0.2691989  0.2976042 
    3     8     4  0.1187063 -0.2338237  0.3664331 
    3     9     1  0.0592715 -0.7032767  0.3615523 
    3     9     2 -0.0143425 -0.9251417  0.3910092 
    3     9     3  0.0418360 -0.6804530  0.4206194 
    3     9     4 -0.0414290 -0.9243500  0.4588140 
    3    10     1  0.0106768 -0.6451784  0.4500076 
    3    10     2  0.0080138 -0.6563637  0.3893791 
    3    10     3 -0.0647079 -0.8958775  0.4656293 
    3    10     4 -0.0650061 -0.8994796  0.3971195 
    3    11     1 -0.0130468 -0.5153131  0.4216515 
    3    11     2  0.0432749 -0.3261205  0.4131679 
    3    11     3 -0.0197218 -0.5289238  0.3643552 
    3    11     4  0.0373222 -0.3379037  0.3597258 
    3    12     1  0.1217465 -0.1323654  0.3373263 
    3    12     2  0.0835319 -0.1496861  0.3037541 
    3    12     3  0.0936888 -0.2338159  0.3257831 
    3    12     4  0.0537660 -0.2519813  0.2907207 
    3    13     1  0.2169019 -0.0775184  0.2431415 
    3    13     2  0.2272989 -0.0374753  0.2666632 
    3    13     3  0.1513147 -0.0993091  0.2282729 
    3    13     4  0.1622931 -0.0582905  0.2523789 
    3    14     1  0.2958877 -0.0461184  0.1149312 
    3    14     2  0.4130527 -0.0101968  0.1223926 
    3    14     3  0.2972367 -0.0315252  0.1589308 
    3    14     4  0.4149100  0.0046127  0.1666117 
    3    15     1  0.1990811 -0.1004988  0.2172618 
    3    15     2  0.1703518 -0.2101786  0.1947233 
    3    15     3  0.2683354 -0.0713643  0.2554733 
    3    15     4  0.2389373 -0.1742075  0.2330535 
    3    16     1  0.0525522 -0.1425207  0.3155640 
    3    16     2  0.0988269 -0.1288866  0.3323802 
    3    16     3  0.0670598 -0.0928961  0.3321208 
    3    16     4  0.1131118 -0.0788999  0.3489626 
    3    17     1  0.0148587 -0.2020940  0.3704225 
    3    17     2 -0.0136660 -0.2951831  0.3586192 
    3    17     3  0.0445394 -0.1942632  0.4009840 
    3    17     4  0.0164164 -0.2882227  0.3897948 
    3    18     1 -0.0052270 -0.2305396  0.4452487 
    3    18     2 -0.0289248 -0.2376789  0.4108066 
    3    18     3 -0.0398020 -0.3445499  0.4350588 
    3    18     4 -0.0590284 -0.3393341  0.4028585 
    3    19     1  0.0184323 -0.1692405  0.4002959 
    3    19     2  0.0371176 -0.1064891  0.4104228 
    3    19     3 -0.0101905 -0.1806429  0.3789911 
    3    19     4  0.0084302 -0.1182946  0.3890958 
    3    20     1 -0.0707700 -0.5733721  0.4488272 
    3    20     2 -0.0233834 -0.4302811  0.4677394 
    3    20     3 -0.0938042 -0.5569794  0.4048022 
    3    20     4 -0.0423865 -0.4190506  0.4323483 
    3    21     1 -0.0639443 -0.5410357  0.3911692 
    3    21     2 -0.0503702 -0.5438653  0.4416042 
    3    21     3 -0.0144773 -0.3786625  0.4000291 
    3    21     4 -0.0014754 -0.3789791  0.4459129 
    3    22     1 -0.0201211 -0.6555248  0.4064264 
    3    22     2 -0.0862182 -0.8733412  0.3970009 
    3    22     3 -0.0121051 -0.6598001  0.4589734 
    3    22     4 -0.0755214 -0.8723691  0.4559377 
    3    23     1 -0.0196960 -0.6875702  0.4558150 
    3    23     2 -0.0326420 -0.6733421  0.4140739 
    3    23     3 -0.0694652 -0.8460211  0.4417244 
    3    23     4 -0.0879032 -0.8461661  0.3962912 
    3    24     1 -0.0789859 -0.5912811  0.4247093 
    3    24     2 -0.0646174 -0.6088880  0.4289098 
    3    24     3 -0.0518008 -0.5607459  0.4404896 
    3    24     4 -0.0484795 -0.5822928  0.4393164 
    3    25     1 -0.0234471 -0.6552300  0.3949413 
    3    25     2 -0.0701060 -0.8108814  0.3908679 
    3    25     3 -0.0270985 -0.6961915  0.4362735 
    3    25     4 -0.0644147 -0.8170703  0.4277973 
    3    26     1 -0.0327153 -0.6576994  0.4048203 
    3    26     2 -0.0340467 -0.6842325  0.3795242 
    3    26     3 -0.0645699 -0.7599095  0.4129993 
    3    26     4 -0.0596981 -0.7634450  0.3896736 
    3    27     1 -0.0489560 -0.2518400  0.4346508 
    3    27     2 -0.0813651 -0.3605233  0.4361892 
    3    27     3 -0.0433086 -0.2413348  0.4682221 
    3    27     4 -0.0732484 -0.3414641  0.4685457 
    3    28     1 -0.0602400 -0.2309437  0.4709010 
    3    28     2 -0.0737325 -0.2421321  0.4459766 
    3    28     3 -0.0835854 -0.3113232  0.4682646 
    3    28     4 -0.0979025 -0.3235368  0.4420436 
    3    29     1 -0.0697942 -0.1903461  0.4621958 
    3    29     2 -0.0509088 -0.1262282  0.4685049 
    3    29     3 -0.0890438 -0.2019172  0.4413344 
    3    29     4 -0.0700967 -0.1378090  0.4477229 
    3    30     1 -0.0552062 -0.1978016  0.4171864 
    3    30     2 -0.0297628 -0.1859950  0.4390440 
    3    30     3 -0.0363588 -0.1336264  0.4257287 
    3    30     4 -0.0100366 -0.1197180  0.4481074 
    3    31     1 -0.0852786 -0.5238632  0.4319253 
    3    31     2 -0.0861270 -0.5035226  0.4632910 
    3    31     3 -0.0539209 -0.4248057  0.4214899 
    3    31     4 -0.0548518 -0.4092685  0.4467488 
    3    32     1 -0.0411138 -0.6253259  0.3736670 
    3    32     2 -0.0637470 -0.6981349  0.3804586 
    3    32     3 -0.0408836 -0.6150906  0.3926691 
    3    32     4 -0.0662062 -0.6956174  0.4021430 
    3    33     1 -0.0343918 -0.5330807  0.3904287 
    3    33     2 -0.0443886 -0.5411212  0.3675405 
    3    33     3 -0.0623293 -0.6322673  0.3913566 
    3    33     4 -0.0723583 -0.6369945  0.3655705 
    3    34     1 -0.0846355 -0.4657142  0.4529129 
    3    34     2 -0.0557859 -0.3677060  0.4502270 
    3    34     3 -0.0911281 -0.4755352  0.4247988 
    3    34     4 -0.0620340 -0.3775373  0.4240644 
    3    35     1 -0.0863314 -0.2266244  0.4432051 
    3    35     2 -0.1085015 -0.2996444  0.4384537 
    3    35     3 -0.0759024 -0.2235346  0.4658322 
    3    35     4 -0.0980283 -0.2971793  0.4615927 
    3    36     1 -0.0886243 -0.2094858  0.4483438 
    3    36     2 -0.1033736 -0.2126890  0.4259965 
    3    36     3 -0.1125185 -0.2880421  0.4413273 
    3    36     4 -0.1242954 -0.2829814  0.4204527 
    3    37     1 -0.1248932 -0.1752938  0.4590618 
    3    37     2 -0.1095756 -0.1241296  0.4662390 
    3    37     3 -0.1431149 -0.1818966  0.4433627 
    3    37     4 -0.1277074 -0.1305348  0.4505955 
    3    38     1 -0.1180043 -0.1933469  0.4479417 
    3    38     2 -0.0984668 -0.1869081  0.4658504 
    3    38     3 -0.1009501 -0.1361784  0.4554498 
    3    38     4 -0.0811946 -0.1285145  0.4733767 
    3    39     1 -0.0941417 -0.4138250  0.4054290 
    3    39     2 -0.0629122 -0.3126925  0.4129455 
    3    39     3 -0.0944525 -0.3973373  0.3751819 
    3    39     4 -0.0633137 -0.3000861  0.3888640 
    3    40     1 -0.0988710 -0.4354862  0.4070320 
    3    40     2 -0.0884192 -0.4357420  0.4343505 
    3    40     3 -0.0695954 -0.3401542  0.4136978 
    3    40     4 -0.0595738 -0.3386469  0.4386174 
    3    41     1 -0.0413934 -0.4762172  0.3530428 
    3    41     2 -0.0725731 -0.5774636  0.3459016 
    3    41     3 -0.0332646 -0.4765740  0.3756854 
    3    41     4 -0.0627554 -0.5754537  0.3713526 
    3    42     1 -0.0341979 -0.4452275  0.3548924 
    3    42     2 -0.0406066 -0.4387112  0.3362535 
    3    42     3 -0.0584943 -0.5221523  0.3476058 
    3    42     4 -0.0674937 -0.5223435  0.3272576 
    3    43     1 -0.0627952 -0.3626054  0.3436654 
    3    43     2 -0.0884477 -0.4081478  0.3639899 
    3    43     3 -0.0629057 -0.3255653  0.3547397 
    3    43     4 -0.0820665 -0.3697796  0.3669121 
    3    44     1 -0.0357704 -0.3894817  0.3112106 
    3    44     2 -0.0597131 -0.4690250  0.3072847 
    3    44     3 -0.0350564 -0.4100829  0.3301179 
    3    44     4 -0.0544241 -0.4715650  0.3246012 
    3    45     1 -0.0414415 -0.3839335  0.3010792 
    3    45     2 -0.0505730 -0.3935378  0.2934221 
    3    45     3 -0.0485795 -0.4110722  0.2987134 
    3    45     4 -0.0551197 -0.4143445  0.2925641 
    3    46     1 -0.1212561 -0.1916013  0.4040116 
    3    46     2 -0.1374802 -0.2492393  0.3984329 
    3    46     3 -0.1046275 -0.1851938  0.4210689 
    3    46     4 -0.1200086 -0.2380950  0.4154051 
    3    47     1 -0.1214477 -0.1556512  0.3883977 
    3    47     2 -0.1385377 -0.1622756  0.3756612 
    3    47     3 -0.1330047 -0.1976405  0.3823534 
    3    47     4 -0.1511630 -0.2053489  0.3688666 
    3    48     1 -0.1705325 -0.1414342  0.4112842 
    3    48     2 -0.1584613 -0.1002329  0.4182536 
    3    48     3 -0.1890807 -0.1480694  0.3982823 
    3    48     4 -0.1767676 -0.1061543  0.4053959 
    3    49     1 -0.1672873 -0.1693540  0.4257552 
    3    49     2 -0.1497254 -0.1644043  0.4407355 
    3    49     3 -0.1528018 -0.1202985  0.4326133 
    3    49     4 -0.1350255 -0.1152216  0.4477684 
    3    50     1 -0.0979511 -0.3056178  0.3496545 
    3    50     2 -0.0752108 -0.2941934  0.3593155 
    3    50     3 -0.0949288 -0.2807451  0.3563459 
    3    50     4 -0.0765980 -0.2720689  0.3640102 
    3    51     1 -0.0606859 -0.3494720  0.2847816 
    3    51     2 -0.0605847 -0.3604925  0.2787040 
    3    51     3 -0.0459892 -0.3435396  0.2887972 
    3    51     4 -0.0445111 -0.3551868  0.2824432 
    3    52     1 -0.0463920 -0.2764562  0.2722532 
    3    52     2 -0.0619817 -0.2821884  0.2656786 
    3    52     3 -0.0514705 -0.3034753  0.2652113 
    3    52     4 -0.0688385 -0.3090448  0.2580459 
    3    53     1 -0.0944326 -0.2558107  0.3367842 
    3    53     2 -0.0848357 -0.2174509  0.3417204 
    3    53     3 -0.1099673 -0.2626915  0.3254733 
    3    53     4 -0.0992898 -0.2237795  0.3311919 
    3    54     1 -0.1462447 -0.1294957  0.3379971 
    3    54     2 -0.1590978 -0.1713757  0.3337052 
    3    54     3 -0.1370505 -0.1279015  0.3505407 
    3    54     4 -0.1496851 -0.1697731  0.3465569 
    3    55     1 -0.1476273 -0.1001554  0.3037304 
    3    55     2 -0.1591305 -0.1022539  0.2915414 
    3    55     3 -0.1609543 -0.1435227  0.2982487 
    3    55     4 -0.1707530 -0.1412450  0.2870078 
    3    56     1 -0.2106063 -0.0933675  0.3294526 
    3    56     2 -0.2014667 -0.0629407  0.3357765 
    3    56     3 -0.2263494 -0.0982408  0.3201588 
    3    56     4 -0.2171845 -0.0677961  0.3264980 
    3    57     1 -0.2090093 -0.1241607  0.3623498 
    3    57     2 -0.1921545 -0.1199635  0.3736668 
    3    57     3 -0.1979528 -0.0871588  0.3690812 
    3    57     4 -0.1810817 -0.0824462  0.3803987 
    3    58     1 -0.1159899 -0.1935474  0.2621537 
    3    58     2 -0.1001747 -0.1369202  0.2624012 
    3    58     3 -0.1056044 -0.1805677  0.2443032 
    3    58     4 -0.0919861 -0.1268175  0.2482288 
    3    59     1 -0.1184480 -0.2230049  0.2912232 
    3    59     2 -0.1057395 -0.2212275  0.3033671 
    3    59     3 -0.1043561 -0.1791500  0.2979168 
    3    59     4 -0.0926090 -0.1768885  0.3090420 
    3    60     1 -0.0578041 -0.2230211  0.2374566 
    3    60     2 -0.0697055 -0.2598829  0.2321385 
    3    60     3 -0.0502964 -0.2220009  0.2454147 
    3    60     4 -0.0609854 -0.2576789  0.2411707 
    3    61     1 -0.0551748 -0.1873351  0.2158733 
    3    61     2 -0.0562057 -0.1843595  0.2088814 
    3    61     3 -0.0640960 -0.2160326  0.2136790 
    3    61     4 -0.0660410 -0.2156370  0.2060761 
    3    62     1 -0.0715538 -0.1350603  0.1981739 
    3    62     2 -0.1106995 -0.1754817  0.2197458 
    3    62     3 -0.0907358 -0.1128761  0.2005081 
    3    62     4 -0.1147757 -0.1491565  0.2160029 
    3    63     1 -0.0563082 -0.1434958  0.1816136 
    3    63     2 -0.0661568 -0.1760016  0.1795784 
    3    63     3 -0.0554565 -0.1517721  0.1891918 
    3    63     4 -0.0634856 -0.1768915  0.1866106 
    3    64     1 -0.0593259 -0.1360979  0.1604470 
    3    64     2 -0.0700978 -0.1395827  0.1587359 
    3    64     3 -0.0581161 -0.1366582  0.1551515 
    3    64     4 -0.0676066 -0.1395538  0.1546512 
    3    65     1 -0.1739500 -0.0742419  0.2431090 
    3    65     2 -0.1810064 -0.0994577  0.2360514 
    3    65     3 -0.1561823 -0.0684872  0.2507561 
    3    65     4 -0.1627395 -0.0913998  0.2442888 
    3    66     1 -0.1694968 -0.0405470  0.1938210 
    3    66     2 -0.1768178 -0.0431818  0.1870841 
    3    66     3 -0.1754675 -0.0607551  0.1912487 
    3    66     4 -0.1832880 -0.0639328  0.1841109 
    3    67     1 -0.2362139 -0.0459441  0.2177825 
    3    67     2 -0.2300660 -0.0240818  0.2223439 
    3    67     3 -0.2496623 -0.0501944  0.2102425 
    3    67     4 -0.2434704 -0.0279299  0.2148503 
    3    68     1 -0.2408574 -0.0772063  0.2703356 
    3    68     2 -0.2286477 -0.0739934  0.2797817 
    3    68     3 -0.2322084 -0.0473914  0.2748395 
    3    68     4 -0.2197078 -0.0439994  0.2845026 
    3    69     1 -0.1221237 -0.1052653  0.1875468 
    3    69     2 -0.0912557 -0.0960348  0.1897669 
    3    69     3 -0.1290731 -0.1075102  0.1997317 
    3    69     4 -0.1036836 -0.0999146  0.2013046 
    3    70     1 -0.0785620 -0.1145135  0.1420361 
    3    70     2 -0.0735281 -0.1093171  0.1333744 
    3    70     3 -0.0611164 -0.1097694  0.1421211 
    3    70     4 -0.0536231 -0.1035060  0.1325678 
    3    71     1 -0.0638812 -0.0694707  0.1125405 
    3    71     2 -0.0724823 -0.0722804  0.1107809 
    3    71     3 -0.0647808 -0.0760828  0.1081984 
    3    71     4 -0.0747846 -0.0791678  0.1062722 
    3    72     1 -0.1163412 -0.0712236  0.1541853 
    3    72     2 -0.1136642 -0.0579021  0.1584408 
    3    72     3 -0.1286071 -0.0756059  0.1496644 
    3    72     4 -0.1248574 -0.0618263  0.1543350 
    3    73     1 -0.2430351 -0.0259874  0.1395245 
    3    73     2 -0.2416021 -0.0262258  0.1471017 
    3    73     3 -0.2372691 -0.0066933  0.1399267 
    3    73     4 -0.2359231 -0.0071459  0.1473837 
    3    74     1 -0.1618957 -0.0134319  0.1194336 
    3    74     2 -0.1671194 -0.0343526  0.1228442 
    3    74     3 -0.1748827 -0.0179550  0.1276127 
    3    74     4 -0.1805033 -0.0390113  0.1312733 
    3    75     1 -0.1609664 -0.0028221  0.0458153 
    3    75     2 -0.1210326  0.0097796  0.0383618 
    3    75     3 -0.1629038 -0.0173307  0.0560249 
    3    75     4 -0.1249566 -0.0055044  0.0490474 
    3    76     1 -0.2314012 -0.0147237  0.0604035 
    3    76     2 -0.2261497  0.0023595  0.0543303 
    3    76     3 -0.2101625 -0.0075659  0.0528289 
    3    76     4 -0.2049468  0.0097034  0.0467142 
    3    77     1 -0.3094207  0.0041939  0.0603453 
    3    77     2 -0.2966524  0.0093287  0.0522054 
    3    77     3 -0.3147709 -0.0141600  0.0637733 
    3    77     4 -0.3021694 -0.0092021  0.0557398 
    3    78     1 -0.3997929 -0.0108001  0.0646955 
    3    78     2 -0.3942603  0.0079667  0.0656251 
    3    78     3 -0.4033225 -0.0103731  0.0567115 
    3    78     4 -0.3976347  0.0086761  0.0578127 
    3    79     1 -0.4041872 -0.0152925  0.1587145 
    3    79     2 -0.3892350 -0.0118809  0.1654993 
    3    79     3 -0.3992747  0.0027976  0.1632768 
    3    79     4 -0.3843495  0.0060807  0.1700325 
    3    80     1 -0.3103232  0.0005880  0.1523606 
    3    80     2 -0.3161740 -0.0190261  0.1526901 
    3    80     3 -0.3123490 -0.0011318  0.1602992 
    3    80     4 -0.3181494 -0.0206245  0.1605522 
    3    81     1 -0.2997170 -0.0104743  0.2400099 
    3    81     2 -0.3067729 -0.0120616  0.2323012 
    3    81     3 -0.3065579 -0.0326741  0.2372737 
    3    81     4 -0.3137303 -0.0344404  0.2294729 
    3    82     1 -0.3697637 -0.0178178  0.2447379 
    3    82     2 -0.3644040  0.0016106  0.2512221 
    3    82     3 -0.3883076 -0.0228690  0.2381989 
    3    82     4 -0.3831234 -0.0034673  0.2446266 
    3    83     1 -0.3638165 -0.0315795  0.3011943 
    3    83     2 -0.3428407 -0.0255697  0.3081590 
    3    83     3 -0.3577787 -0.0101210  0.3089194 
    3    83     4 -0.3365427 -0.0039913  0.3159837 
    3    84     1 -0.2936990 -0.0255747  0.2956932 
    3    84     2 -0.3013105 -0.0499882  0.2899514 
    3    84     3 -0.2788166 -0.0214330  0.3036243 
    3    84     4 -0.2862245 -0.0457458  0.2979943 
    3    85     1 -0.4221674  0.0001105  0.3173789 
    3    85     2 -0.4272026 -0.0175212  0.3075389 
    3    85     3 -0.3957530  0.0077249  0.3230004 
    3    85     4 -0.4008748 -0.0098380  0.3131929 
    3    86     1 -0.4335310  0.0091617  0.2569893 
    3    86     2 -0.4540349  0.0036074  0.2513154 
    3    86     3 -0.4384867 -0.0076657  0.2498378 
    3    86     4 -0.4593820 -0.0134149  0.2440224 
    3    87     1 -0.4991491  0.0015926  0.2512737 
    3    87     2 -0.4982589  0.0157134  0.2642238 
    3    87     3 -0.5381518 -0.0095166  0.2464174 
    3    87     4 -0.5368118  0.0047829  0.2594703 
    3    88     1 -0.4914048 -0.0099781  0.3123809 
    3    88     2 -0.4515319  0.0017904  0.3158733 
    3    88     3 -0.4919655  0.0007396  0.3275199 
    3    88     4 -0.4513166  0.0128230  0.3312000 
    3    89     1 -0.5760641 -0.0095061  0.1617282 
    3    89     2 -0.5437033 -0.0010170  0.1664833 
    3    89     3 -0.5734580  0.0043073  0.1715197 
    3    89     4 -0.5415622  0.0125498  0.1761172 
    3    90     1 -0.4779278  0.0069760  0.1664408 
    3    90     2 -0.4831641 -0.0097439  0.1627873 
    3    90     3 -0.4668934  0.0089601  0.1727926 
    3    90     4 -0.4720545 -0.0076203  0.1691874 
    3    91     1 -0.4901668  0.0081298  0.0669791 
    3    91     2 -0.4970500  0.0078510  0.0596050 
    3    91     3 -0.4955306 -0.0093847  0.0647543 
    3    91     4 -0.5023431 -0.0096945  0.0574629 
    3    92     1 -0.5808657 -0.0048512  0.0613980 
    3    92     2 -0.5769627  0.0107543  0.0683051 
    3    92     3 -0.6058833 -0.0106425  0.0552837 
    3    92     4 -0.6013148  0.0052992  0.0624272 
    3    93     1 -0.6714552  0.0096925  0.0676301 
    3    93     2 -0.6980311  0.0035107  0.0624570 
    3    93     3 -0.6754782 -0.0041905  0.0602194 
    3    93     4 -0.7021746 -0.0104283  0.0550085 
    3    94     1 -0.7578327 -0.0009374  0.0578363 
    3    94     2 -0.7557309  0.0123523  0.0682059 
    3    94     3 -0.7980232 -0.0110299  0.0529927 
    3    94     4 -0.7943795  0.0028573  0.0637148 
    3    95     1 -0.7524999 -0.0110577  0.1672052 
    3    95     2 -0.6974619  0.0041973  0.1703435 
    3    95     3 -0.7531034 -0.0004254  0.1829383 
    3    95     4 -0.6987277  0.0145945  0.1859638 
    3    96     1 -0.6548504  0.0051373  0.1742427 
    3    96     2 -0.6581852 -0.0077042  0.1642732 
    3    96     3 -0.6209989  0.0139546  0.1785396 
    3    96     4 -0.6235164  0.0013365  0.1686823 
    3    97     1 -0.5695157  0.0152022  0.2696609 
    3    97     2 -0.6116510  0.0030967  0.2663676 
    3    97     3 -0.5711187  0.0047754  0.2558221 
    3    97     4 -0.6127637 -0.0072204  0.2525241 
    3    98     1 -0.6295146  0.0058079  0.2606191 
    3    98     2 -0.6338959  0.0095136  0.2814707 
    3    98     3 -0.6890847 -0.0118061  0.2597818 
    3    98     4 -0.6938996 -0.0082334  0.2806074 
    3    99     1 -0.6127072 -0.0182725  0.3300414 
    3    99     2 -0.5478527  0.0011669  0.3296822 
    3    99     3 -0.6187761 -0.0194346  0.3532834 
    3    99     4 -0.5533700  0.0001736  0.3530414 
    3   100     1 -0.5510864 -0.0038743  0.3384522 
    3   100     2 -0.5500670 -0.0097332  0.3199940 
    3   100     3 -0.5020677  0.0106915  0.3402200 
    3   100     4 -0.4982270  0.0057428  0.3220792 
    3   101     1 -0.6768585 -0.0436174  0.3693171 
    3   101     2 -0.6768866 -0.0375474  0.3451678 
    3   101     3 -0.6088293 -0.0230247  0.3662887 
    3   101     4 -0.6084301 -0.0168747  0.3423165 
    3   102     1 -0.7108664 -0.0049527  0.2903001 
    3   102     2 -0.7595195 -0.0193801  0.2902307 
    3   102     3 -0.7136639 -0.0085184  0.2738088 
    3   102     4 -0.7634736 -0.0233085  0.2736196 
    3   103     1 -0.7796521 -0.0236677  0.2860763 
    3   103     2 -0.7850637 -0.0323677  0.3145090 
    3   103     3 -0.8629070 -0.0491068  0.2907210 
    3   103     4 -0.8680403 -0.0577518  0.3192583 
    3   104     1 -0.7472345 -0.0720137  0.3664057 
    3   104     2 -0.6615976 -0.0457610  0.3581754 
    3   104     3 -0.7563835 -0.0954839  0.3990313 
    3   104     4 -0.6671036 -0.0683677  0.3908399 
    3   105     1 -0.9403260 -0.0232813  0.1804695 
    3   105     2 -0.8867133 -0.0081983  0.1814636 
    3   105     3 -0.9390437 -0.0159015  0.1960923 
    3   105     4 -0.8857759 -0.0010003  0.1968917 
    3   106     1 -0.8261101 -0.0000835  0.1832840 
    3   106     2 -0.8307444 -0.0111284  0.1749096 
    3   106     3 -0.7972623  0.0072053  0.1868084 
    3   106     4 -0.8020354 -0.0037804  0.1784916 
    3   107     1 -0.8578712  0.0097878  0.0658365 
    3   107     2 -0.8785991  0.0058719  0.0601660 
    3   107     3 -0.8627725 -0.0043284  0.0601245 
    3   107     4 -0.8829808 -0.0081395  0.0545984 
    3   108     1 -0.9533395 -0.0040081  0.0584577 
    3   108     2 -0.9496237  0.0091387  0.0638919 
    3   108     3 -0.9734075 -0.0078450  0.0533444 
    3   108     4 -0.9694503  0.0055565  0.0589155 
    3   109     1 -1.0608752  0.0031914  0.0648486 
    3   109     2 -1.0542236  0.0084099  0.0566992 
    3   109     3 -1.0657910 -0.0135717  0.0661415 
    3   109     4 -1.0592636 -0.0084917  0.0581291 
    3   110     1 -1.1895882 -0.0272413  0.0833121 
    3   110     2 -1.1813723 -0.0022298  0.0754611 
    3   110     3 -1.1596250 -0.0133296  0.0702524 
    3   110     4 -1.1518301  0.0119860  0.0624842 
    3   111     1 -1.2030251 -0.0881290  0.2556378 
    3   111     2 -1.1008227 -0.0558581  0.2462340 
    3   111     3 -1.2101559 -0.1001896  0.2865201 
    3   111     4 -1.1075123 -0.0677161  0.2768806 
    3   112     1 -1.0445872 -0.0342363  0.2178750 
    3   112     2 -1.0482813 -0.0418075  0.2055345 
    3   112     3 -1.0011054 -0.0223014  0.2188942 
    3   112     4 -1.0054531 -0.0300268  0.2065855 
    3   113     1 -0.8736457 -0.0827055  0.3483320 
    3   113     2 -0.9578397 -0.1093398  0.3577493 
    3   113     3 -0.8739865 -0.0653097  0.3218066 
    3   113     4 -0.9577486 -0.0917623  0.3311071 
    3   114     1 -0.9247753 -0.1237257  0.3645871 
    3   114     2 -0.9473656 -0.1908972  0.4152846 
    3   114     3 -1.0697494 -0.1715995  0.3914481 
    3   114     4 -1.0943247 -0.2392757  0.4423959 
    3   115     1 -0.8682429 -0.2333151  0.4519197 
    3   115     2 -0.7301530 -0.1889378  0.4213804 
    3   115     3 -0.8955980 -0.3204581  0.5030740 
    3   115     4 -0.7559562 -0.2761742  0.4725324 
    3   116     1 -0.8183215 -0.1777587  0.4393319 
    3   116     2 -0.8123888 -0.1352098  0.4028111 
    3   116     3 -0.7176635 -0.1461840  0.4234421 
    3   116     4 -0.7086640 -0.1033669  0.3870439 
    3   117     1 -0.9271121 -0.5619453  0.5763934 
    3   117     2 -0.8857697 -0.4010222  0.5164454 
    3   117     3 -0.7568809 -0.5092663  0.5213375 
    3   117     4 -0.7107730 -0.3450481  0.4592757 
    3   118     1 -1.0005601 -0.3771065  0.5083039 
    3   118     2 -1.1831231 -0.4414481  0.5562659 
    3   118     3 -0.9739506 -0.2601280  0.4486157 
    3   118     4 -1.1569232 -0.3232246  0.4960050 
    3   119     1 -0.8941625 -0.5104102  0.5217219 
    3   119     2 -1.0181437 -0.9041009  0.6393513 
    3   119     3 -1.1911753 -0.6129905  0.6482234 
    3   119     4 -1.2923083 -0.9602872  0.7490074 
    3   120     1 -0.7807928 -0.6385535  0.5296416 
    3   120     2 -0.6473115 -0.5976733  0.4579805 
    3   120     3 -0.8494195 -0.8582552  0.5812109 
    3   120     4 -0.7115483 -0.8173655  0.5072921 
    3   121     1 -1.6210979 -0.4435413  0.5835132 
    3   121     2 -1.2862348 -0.3078477  0.4918731 
    3   121     3 -1.6598770 -0.6276872  0.6874384 
    3   121     4 -1.3286236 -0.4741410  0.5860856 
    3   122     1 -1.3786698 -0.2429494  0.4075110 
    3   122     2 -1.3705210 -0.1904085  0.3708647 
    3   122     3 -1.2453613 -0.1939157  0.3775789 
    3   122     4 -1.2357514 -0.1409782  0.3407035 
    3   123     1 -1.3828158 -0.0211438  0.1049192 
    3   123     2 -1.2588641  0.0293919  0.0720343 
    3   123     3 -1.3923570 -0.0705562  0.1351120 
    3   123     4 -1.2730933 -0.0229783  0.1041067 
    3   124     1 -1.6682622 -0.1443833  0.2262207 
    3   124     2 -1.6582225 -0.0826520  0.1699116 
    3   124     3 -1.4638035 -0.0666925  0.1828607 
    3   124     4 -1.4463301 -0.0004339  0.1233822 
    3   125     1 -2.1098841 -0.1057360  0.4534871 
    3   125     2 -1.8260454  0.0705985  0.3138635 
    3   125     3 -2.1512344 -0.3645894  0.5112575 
    3   125     4 -1.9023618 -0.2189164  0.3902696 
    3   126     1 -2.4695986 -0.8746810  1.0112417 
    3   126     2 -2.5615216 -2.2387749  1.3335095 
    3   126     3 -3.6305610 -1.5297627  1.5320307 
    3   126     4 -3.9556707 -2.8224436  1.9154192 
    3   127     1 -1.5606026 -2.4159507  1.1283972 
    3   127     2 -1.0886996 -1.7024446  0.6788735 
    3   127     3 -1.8159067 -3.5981090  1.0834658 
    3   127     4 -1.3119483 -2.7159293  0.6469197 
    3   128     1 -1.9481847 -1.7421152  1.1215400 
    3   128     2 -1.9097586 -1.1670427  1.0394052 
    3   128     3 -1.3752250 -1.2957156  0.8093899 
    3   128     4 -1.4474408 -0.8396515  0.7912148 
    3   129     1 -0.8596919 -1.3471310  0.5216306 
    3   129     2 -0.9323997 -1.3307666  0.5976372 
    3   129     3 -0.7768337 -1.0952888  0.4819519 
    3   129     4 -0.8391489 -1.0894240  0.5456784 
    3   130     1 -0.6650811 -1.5836326  0.1898346 
    3   130     2 -0.6564750 -1.5517595  0.1951484 
    3   130     3 -0.6808915 -1.5923322  0.1794968 
    3   130     4 -0.6721781 -1.5576316  0.1848489 
    3   131     1 -0.5457973 -1.2384942  0.1684355 
    3   131     2 -0.5173611 -1.2321129  0.1488616 
    3   131     3 -0.5696625 -1.3155428  0.1827137 
    3   131     4 -0.5378904 -1.3067063  0.1608947 
    3   132     1 -0.7359640 -1.1552547  0.4670451 
    3   132     2 -0.6734686 -0.9481377  0.4232424 
    3   132     3 -0.6260715 -1.1291243  0.4033646 
    3   132     4 -0.5687282 -0.9189489  0.3623783 
    3   133     1 -0.7995198 -1.8230042  0.2134345 
    3   133     2 -0.7677273 -1.8365264  0.1863808 
    3   133     3 -0.8272985 -1.9251950  0.2270010 
    3   133     4 -0.7952497 -1.9200519  0.2013878 
    3   134     1 -0.9887898 -1.6625688  0.5388689 
    3   134     2 -1.0968650 -1.8908739  0.6252274 
    3   134     3 -0.9955014 -1.5158501  0.6160930 
    3   134     4 -1.0761000 -1.7276672  0.6619365 
    3   135     1 -0.8652181 -1.7980697  0.3114006 
    3   135     2 -1.0800246 -2.5838665  0.2991406 
    3   135     3 -1.0261707 -2.0906202  0.5134712 
    3   135     4 -1.1734999 -2.6619178  0.4819949 
    3   136     1 -0.4533845 -0.5713480  0.3883696 
    3   136     2 -0.4970302 -0.7383595  0.4303195 
    3   136     3 -0.5675673 -0.6112852  0.4415169 
    3   136     4 -0.6138022 -0.7783175  0.4845458 
    3   137     1 -0.3733678 -0.5675700  0.3700431 
    3   137     2 -0.2744595 -0.5328541  0.3235271 
    3   137     3 -0.4138131 -0.7158195  0.4075434 
    3   137     4 -0.3168252 -0.6689069  0.3601565 
    3   138     1 -0.4729572 -0.5067905  0.4717702 
    3   138     2 -0.4428405 -0.4032715  0.4300146 
    3   138     3 -0.3680812 -0.4756914  0.4401877 
    3   138     4 -0.3376016 -0.3720338  0.3983120 
    3   139     1 -0.5496875 -0.5147775  0.4782193 
    3   139     2 -0.6710185 -0.5551491  0.5220138 
    3   139     3 -0.5105066 -0.3801759  0.4317363 
    3   139     4 -0.6310748 -0.4177252  0.4745722 
    3   140     1 -0.3706258 -0.8859829  0.2832982 
    3   140     2 -0.3321259 -0.7034579  0.2650590 
    3   140     3 -0.2763833 -0.8257633  0.2159920 
    3   140     4 -0.2550171 -0.6539593  0.2100025 
    3   141     1 -0.4496253 -0.9680719  0.3138673 
    3   141     2 -0.5237532 -0.9982468  0.3635518 
    3   141     3 -0.4109824 -0.8078566  0.2910846 
    3   141     4 -0.4809867 -0.8337710  0.3380610 
    3   142     1 -0.3868699 -0.9973501  0.1010513 
    3   142     2 -0.4100588 -1.1013915  0.1157397 
    3   142     3 -0.4308528 -1.0146909  0.1292875 
    3   142     4 -0.4563875 -1.1165660  0.1454882 
    3   143     1 -0.3216976 -0.8778176  0.0978119 
    3   143     2 -0.2831482 -0.8573009  0.0739406 
    3   143     3 -0.3365884 -0.9505859  0.1080530 
    3   143     4 -0.2985066 -0.9366441  0.0845708 
    3   144     1 -0.1746220 -0.7128911  0.1351773 
    3   144     2 -0.2255435 -0.8286611  0.1889021 
    3   144     3 -0.1584188 -0.6094713  0.1750121 
    3   144     4 -0.2011011 -0.7248539  0.2043591 
    3   145     1 -0.1790002 -0.7224926  0.0422453 
    3   145     2 -0.2026466 -0.8021960  0.0587432 
    3   145     3 -0.2260417 -0.7579813  0.0706046 
    3   145     4 -0.2383435 -0.8169483  0.0798219 
    3   146     1 -0.1353251 -0.7107880  0.0329828 
    3   146     2 -0.0898126 -0.6886206  0.0476077 
    3   146     3 -0.1335781 -0.6799095  0.0496413 
    3   146     4 -0.0956788 -0.6670004  0.0588445 
    3   147     1 -0.1239279 -0.4666226  0.2845468 
    3   147     2 -0.1548042 -0.5414602  0.3212911 
    3   147     3 -0.2089031 -0.4903974  0.3056187 
    3   147     4 -0.2331087 -0.5577410  0.3382359 
    3   148     1 -0.0536059 -0.4181799  0.2657880 
    3   148     2  0.0133462 -0.3995782  0.2544309 
    3   148     3 -0.0742064 -0.4624111  0.2950430 
    3   148     4 -0.0050010 -0.4438461  0.2837471 
    3   149     1 -0.1336108 -0.3938135  0.3781705 
    3   149     2 -0.1114036 -0.3292247  0.3444114 
    3   149     3 -0.0508119 -0.3706098  0.3594256 
    3   149     4 -0.0284573 -0.3049876  0.3251446 
    3   150     1 -0.2053396 -0.4385670  0.3968624 
    3   150     2 -0.2992214 -0.4674357  0.4262656 
    3   150     3 -0.1743080 -0.3434250  0.3588265 
    3   150     4 -0.2704810 -0.3727893  0.3888783 
    3   151     1 -0.0736247 -0.5694184  0.1996543 
    3   151     2 -0.1289075 -0.5920482  0.1843250 
    3   151     3 -0.0677236 -0.6000621  0.1831923 
    3   151     4 -0.1140932 -0.6184524  0.1706581 
    3   152     1 -0.0018803 -0.6083531  0.0582214 
    3   152     2 -0.0028229 -0.5709991  0.0687632 
    3   152     3 -0.0397240 -0.6250334  0.0439355 
    3   152     4 -0.0431923 -0.5847167  0.0547000 
    3   153     1  0.0622552 -0.5158752  0.0448117 
    3   153     2  0.1102101 -0.5007796  0.0503875 
    3   153     3  0.0497129 -0.5033585  0.0659185 
    3   153     4  0.1012938 -0.4876675  0.0711677 
    3   154     1 -0.0108770 -0.5061076  0.1903145 
    3   154     2  0.0091436 -0.4861535  0.1642847 
    3   154     3  0.0469345 -0.4896060  0.1874290 
    3   154     4  0.0648093 -0.4702583  0.1614957 
    3   155     1  0.1604140 -0.3199845  0.2192734 
    3   155     2  0.1423149 -0.3716360  0.2503480 
    3   155     3  0.0807655 -0.3440894  0.2356516 
    3   155     4  0.0610617 -0.3964254  0.2671739 
    3   156     1  0.2234867 -0.2871510  0.2053639 
    3   156     2  0.3011426 -0.2631524  0.1937812 
    3   156     3  0.2084758 -0.3231101  0.2360617 
    3   156     4  0.2803033 -0.3002444  0.2247411 
    3   157     1  0.1664623 -0.2768932  0.3040622 
    3   157     2  0.1814709 -0.2280749  0.2697189 
    3   157     3  0.2583293 -0.2491246  0.2879229 
    3   157     4  0.2632448 -0.2041463  0.2559178 
    3   158     1  0.0979921 -0.3073256  0.3243705 
    3   158     2  0.0168118 -0.3317950  0.3399875 
    3   158     3  0.1160955 -0.2576925  0.2926170 
    3   158     4  0.0342780 -0.2823006  0.3083225 
    3   159     1  0.1761307 -0.4098204  0.1659399 
    3   159     2  0.1088648 -0.4303595  0.1751051 
    3   159     3  0.1931265 -0.3786687  0.1380659 
    3   159     4  0.1295707 -0.3980046  0.1466565 
    3   160     1  0.2263036 -0.4012972  0.0381107 
    3   160     2  0.2147619 -0.4130952  0.0644171 
    3   160     3  0.1713839 -0.4178583  0.0407515 
    3   160     4  0.1552446 -0.4309773  0.0670764 
    3   161     1  0.2791087 -0.3450082  0.0356130 
    3   161     2  0.3360087 -0.3271909  0.0301042 
    3   161     3  0.2683775 -0.3620148  0.0615343 
    3   161     4  0.3270822 -0.3441875  0.0568628 
    3   162     1  0.2397040 -0.3636119  0.1544213 
    3   162     2  0.2593704 -0.3118639  0.1220792 
    3   162     3  0.3211315 -0.3359103  0.1364076 
    3   162     4  0.3303892 -0.2882756  0.1067236 
    3   163     1  0.3924587 -0.2088141  0.2498689 
    3   163     2  0.3091800 -0.2412010  0.2744363 
    3   163     3  0.4025180 -0.1410024  0.2186464 
    3   163     4  0.3157603 -0.1898090  0.2509022 
    3   164     1  0.4182394 -0.2133776  0.1808782 
    3   164     2  0.4108703 -0.2091134  0.2075854 
    3   164     3  0.3550393 -0.2326656  0.1774736 
    3   164     4  0.3480408 -0.2298236  0.1978119 
    3   165     1  0.4794376 -0.1836413  0.1678078 
    3   165     2  0.5380572 -0.1659164  0.1647913 
    3   165     3  0.4722884 -0.1922425  0.1876596 
    3   165     4  0.5342079 -0.1740239  0.1859986 
    3   166     1  0.4546246 -0.1880067  0.2308704 
    3   166     2  0.4593009 -0.1583354  0.2132221 
    3   166     3  0.5112994 -0.1689393  0.2180550 
    3   166     4  0.5199799 -0.1356029  0.1981326 
    3   167     1  0.4097305 -0.1131715  0.2618322 
    3   167     2  0.4037722 -0.1735987  0.2534309 
    3   167     3  0.3784625 -0.1781290  0.2831828 
    3   167     4  0.3827690 -0.2048709  0.2709803 
    3   168     1  0.4404177 -0.1500028  0.2358481 
    3   168     2  0.5056935 -0.1302637  0.2269195 
    3   168     3  0.4515336 -0.1679934  0.2547528 
    3   168     4  0.5031702 -0.1500651  0.2454764 
    3   169     1  0.4288572 -0.1365493  0.2670302 
    3   169     2  0.4412297 -0.1355752  0.2509543 
    3   169     3  0.4798487 -0.1208696  0.2704620 
    3   169     4  0.4816762 -0.1227840  0.2557915 
    3   170     1  0.1400317 -0.1826373  0.3213468 
    3   170     2  0.2274918 -0.1578873  0.3127590 
    3   170     3  0.1279992 -0.2147007  0.3543684 
    3   170     4  0.2078960 -0.1914853  0.3458503 
    3   171     1  0.0877157 -0.1590774  0.3891135 
    3   171     2  0.0970904 -0.1250540  0.3587524 
    3   171     3  0.1665800 -0.1366534  0.3793957 
    3   171     4  0.1774811 -0.1003963  0.3471703 
    3   172     1  0.0323866 -0.1661012  0.4080545 
    3   172     2 -0.0546467 -0.1919357  0.4216022 
    3   172     3  0.0437700 -0.1230334  0.3745787 
    3   172     4 -0.0441673 -0.1492237  0.3883370 
    3   173     1  0.0796087 -0.1861521  0.3401549 
    3   173     2  0.0640140 -0.2394780  0.3737805 
    3   173     3 -0.0086143 -0.2123280  0.3571095 
    3   173     4 -0.0241553 -0.2658855  0.3908805 
    3   174     1  0.3414984 -0.1282486  0.2953704 
    3   174     2  0.3317085 -0.1240437  0.3190553 
    3   174     3  0.2820336 -0.1473454  0.2887664 
    3   174     4  0.2755837 -0.1436232  0.3075790 
    3   175     1  0.4039889 -0.1158002  0.2682488 
    3   175     2  0.4548037 -0.0990801  0.2745785 
    3   175     3  0.3993987 -0.1090990  0.2843770 
    3   175     4  0.4554313 -0.0896829  0.2933477 
    3   176     1  0.3513242 -0.1031595  0.3194618 
    3   176     2  0.3584312 -0.0832847  0.2978925 
    3   176     3  0.4226697 -0.0834962  0.3135479 
    3   176     4  0.4300000 -0.0604705  0.2883422 
    3   177     1  0.2975754 -0.1127358  0.3497159 
    3   177     2  0.2191705 -0.1344534  0.3572381 
    3   177     3  0.3083810 -0.0820015  0.3188403 
    3   177     4  0.2280970 -0.1067081  0.3291980 
    3   178     1  0.0175247 -0.0658723  0.3926499 
    3   178     2  0.0097437 -0.1045722  0.4253721 
    3   178     3 -0.0684355 -0.0923364  0.4058585 
    3   178     4 -0.0750996 -0.1300978  0.4378927 
    3   179     1  0.0667231 -0.0842318  0.3808357 
    3   179     2  0.1481597 -0.0569345  0.3664242 
    3   179     3  0.0596512 -0.1201624  0.4113547 
    3   179     4  0.1423283 -0.0936091  0.3977351 
    3   180     1  0.0356594 -0.0825172  0.4231717 
    3   180     2  0.0442110 -0.0395594  0.3872267 
    3   180     3  0.1377122 -0.0486892  0.4052743 
    3   180     4  0.1335302 -0.0118364  0.3731800 
    3   181     1 -0.0185501 -0.0583581  0.4378810 
    3   181     2 -0.0946007 -0.0817784  0.4475217 
    3   181     3 -0.0095463 -0.0293274  0.4078063 
    3   181     4 -0.0853272 -0.0525697  0.4173082 
    3   182     1  0.2682480 -0.0402403  0.3642667 
    3   182     2  0.1802025 -0.0864247  0.3944259 
    3   182     3  0.2556184  0.0074992  0.3400255 
    3   182     4  0.1771588 -0.0464653  0.3736317 
    3   183     1  0.2799743 -0.0335803  0.3325276 
    3   183     2  0.2736077 -0.0771998  0.3630787 
    3   183     3  0.1959285 -0.0677042  0.3536293 
    3   183     4  0.1894860 -0.1065657  0.3808205 
    3   184     1  0.3265537 -0.0619203  0.3226046 
    3   184     2  0.4082320 -0.0259095  0.2997334 
    3   184     3  0.3205985 -0.0958734  0.3448037 
    3   184     4  0.3974934 -0.0667594  0.3264099 
    3   185     1  0.3314803 -0.0796604  0.3512523 
    3   185     2  0.3264913 -0.0517149  0.3384201 
    3   185     3  0.3786619 -0.0547148  0.3346951 
    3   185     4  0.3857049 -0.0161035  0.3155881 
    3   186     1  0.2847310  0.0056418  0.3529297 
    3   186     2  0.2839635 -0.0153607  0.3434035 
    3   186     3  0.2698396 -0.0315305  0.3628266 
    3   186     4  0.2703262 -0.0449248  0.3548213 
    3   187     1  0.3764616 -0.0414907  0.3341556 
    3   187     2  0.3814169 -0.0351881  0.3311800 
    3   187     3  0.3795083 -0.0431440  0.3335233 
    3   187     4  0.3887079 -0.0344388  0.3286477 
    3   188     1  0.4540446 -0.0226835  0.2953927 
    3   188     2  0.4772131 -0.0163496  0.2964052 
    3   188     3  0.4312699 -0.0339030  0.3104284 
    3   188     4  0.4629405 -0.0246684  0.3099617 
    3   189     1  0.3337915 -0.0139184  0.3308602 
    3   189     2  0.3511587 -0.0146777  0.3159977 
    3   189     3  0.3725124 -0.0007752  0.3368512 
    3   189     4  0.3851484 -0.0030227  0.3215673 
    3   190     1  0.1996593  0.0058399  0.3733910 
    3   190     2  0.1873815  0.0108331  0.3929743 
    3   190     3  0.1495092 -0.0113443  0.3655251 
    3   190     4  0.1402303 -0.0065699  0.3826649 
    3   191     1  0.2680522 -0.0024780  0.3300777 
    3   191     2  0.3112532  0.0122190  0.3366334 
    3   191     3  0.2584216  0.0017296  0.3464021 
    3   191     4  0.3047047  0.0177531  0.3540859 
    3   192     1  0.1832646  0.0075787  0.3647175 
    3   192     2  0.1906285  0.0053118  0.3441681 
    3   192     3  0.2371073  0.0247564  0.3710311 
    3   192     4  0.2437573  0.0221505  0.3498823 
    3   193     1  0.1284926  0.0150752  0.4111808 
    3   193     2  0.0705744 -0.0030425  0.4052879 
    3   193     3  0.1366709  0.0140846  0.3897834 
    3   193     4  0.0783433 -0.0042128  0.3835255 
    3   194     1  0.3630467  0.0259965  0.3226523 
    3   194     2  0.2912381  0.0049730  0.3230904 
    3   194     3  0.3726255  0.0357008  0.2956296 
    3   194     4  0.3027176  0.0153114  0.2957530 
    3   195     1  0.4439513  0.0311087  0.2845261 
    3   195     2  0.4320376  0.0142664  0.3125708 
    3   195     3  0.3704174  0.0099617  0.2874156 
    3   195     4  0.3553551 -0.0078872  0.3157918 
    3   196     1  0.5058155  0.0082052  0.2349944 
    3   196     2  0.5934887  0.0342380  0.2295743 
    3   196     3  0.4911381 -0.0147478  0.2723845 
    3   196     4  0.5804537  0.0137891  0.2629070 
    3   197     1  0.4182053  0.0035699  0.2701323 
    3   197     2  0.4295471  0.0185560  0.2390111 
    3   197     3  0.4982978  0.0269624  0.2677441 
    3   197     4  0.5093654  0.0420159  0.2362420 
    3   198     1  0.4934999 -0.0031451  0.3033253 
    3   198     2  0.4258252 -0.0231819  0.3083912 
    3   198     3  0.5071256  0.0173351  0.2754983 
    3   198     4  0.4499003  0.0008044  0.2791098 
    3   199     1  0.5763239  0.0085367  0.2569462 
    3   199     2  0.5606016 -0.0143362  0.2859769 
    3   199     3  0.5294695 -0.0054919  0.2609669 
    3   199     4  0.5035748 -0.0314330  0.2909049 
    3   200     1  0.6053452 -0.0077980  0.2386005 
    3   200     2  0.6557891  0.0084774  0.2330503 
    3   200     3  0.5971811 -0.0221349  0.2672679 
    3   200     4  0.6530140 -0.0050049  0.2632225 
    3   201     1  0.5448674 -0.0310203  0.2735555 
    3   201     2  0.5559203  0.0123308  0.2329158 
    3   201     3  0.6485724  0.0063687  0.2537535 
    3   201     4  0.6341611  0.0400741  0.2184313 
    3   202     1  0.6552798  0.0223502  0.2083984 
    3   202     2  0.5584308 -0.0070341  0.2154948 
    3   202     3  0.6661370  0.0429992  0.1728235 
    3   202     4  0.5715230  0.0145012  0.1793388 
    3   203     1  0.7412225  0.0397218  0.1717927 
    3   203     2  0.7289593  0.0195773  0.2109503 
    3   203     3  0.6493899  0.0124127  0.1764818 
    3   203     4  0.6369136 -0.0061539  0.2118171 
    3   204     1  0.8020036  0.0018153  0.1213647 
    3   204     2  0.8946634  0.0304751  0.1140903 
    3   204     3  0.7929001 -0.0159871  0.1574988 
    3   204     4  0.8898988  0.0137214  0.1505770 
    3   205     1  0.7239062 -0.0176712  0.1531410 
    3   205     2  0.7325231  0.0085379  0.1081103 
    3   205     3  0.8452786  0.0197995  0.1425663 
    3   205     4  0.8419101  0.0412188  0.1006285 
    3   206     1  0.8036531  0.0136508  0.2012532 
    3   206     2  0.7447270 -0.0050795  0.1947940 
    3   206     3  0.8133191  0.0109107  0.1764831 
    3   206     4  0.7679151 -0.0033892  0.1720937 
    3   207     1  0.8967500  0.0016680  0.1658811 
    3   207     2  0.8895831 -0.0019785  0.1874438 
    3   207     3  0.8593148 -0.0093767  0.1635646 
    3   207     4  0.8464943 -0.0148419  0.1869408 
    3   208     1  0.9344552 -0.0053949  0.1247791 
    3   208     2  0.9923193  0.0118769  0.1234083 
    3   208     3  0.9279944 -0.0153417  0.1604169 
    3   208     4  0.9985517  0.0057904  0.1584292 
    3   209     1  0.8535501 -0.0171898  0.1634114 
    3   209     2  0.8639099  0.0003193  0.1238417 
    3   209     3  0.9467194  0.0106617  0.1590828 
    3   209     4  0.9459841  0.0252001  0.1190902 
    3   210     1  0.7803458 -0.0103907  0.1836762 
    3   210     2  0.8213813  0.0005101  0.1888008 
    3   210     3  0.7703521 -0.0188447  0.2085452 
    3   210     4  0.8090473 -0.0075347  0.2087349 
    3   211     1  0.7315941  0.0094888  0.2174042 
    3   211     2  0.6833896 -0.0332067  0.2417869 
    3   211     3  0.7068948  0.0291121  0.2146451 
    3   211     4  0.6778801 -0.0078598  0.2334645 
    3   212     1  0.7434743  0.0273687  0.2041258 
    3   212     2  0.7274622 -0.0137314  0.2361974 
    3   212     3  0.6844900 -0.0003533  0.2214641 
    3   212     4  0.6768404 -0.0310916  0.2458355 
    3   213     1  1.0111071  0.0153038  0.0808578 
    3   213     2  0.8914331 -0.0300516  0.1055578 
    3   213     3  1.0008468  0.0445005  0.0335549 
    3   213     4  0.8853204 -0.0044552  0.0651247 
    3   214     1  1.0427996  0.0408092  0.0554277 
    3   214     2  1.0445151  0.0087574  0.0922776 
    3   214     3  0.9473738  0.0046819  0.0748891 
    3   214     4  0.9413879 -0.0297549  0.1127060 
    3   215     1  1.0949279 -0.0040584  0.0257122 
    3   215     2  1.2182167  0.0413989  0.0019260 
    3   215     3  1.0995422 -0.0264405  0.0636918 
    3   215     4  1.2134707  0.0145946  0.0432788 
    3   216     1  1.0692109 -0.0380303  0.0531988 
    3   216     2  1.0688024 -0.0049010  0.0228153 
    3   216     3  1.1514863 -0.0032910  0.0324742 
    3   216     4  1.1598012  0.0338275 -0.0003867 
    3   217     1  0.9827126  0.0340841  0.0362361 
    3   217     2  0.9990499  0.0039142  0.0449115 
    3   217     3  0.9434816 -0.0112863  0.0601507 
    3   217     4  0.9665652 -0.0212313  0.0599955 
    3   218     1  1.0283552 -0.0073702  0.0073565 
    3   218     2  1.1113905  0.0187224 -0.0020996 
    3   218     3  1.0445046 -0.0260137  0.0387827 
    3   218     4  1.1091475 -0.0020406  0.0262877 
    3   219     1  1.0031825 -0.0077164  0.0176570 
    3   219     2  1.0120274 -0.0256829 -0.0019991 
    3   219     3  1.0591374  0.0124187  0.0282039 
    3   219     4  1.0560421 -0.0062650  0.0099061 
    3   220     1  0.6594237  0.0024527  0.1033859 
    3   220     2  0.7631044  0.0331745  0.1065940 
    3   220     3  0.6515843 -0.0032645  0.1423789 
    3   220     4  0.7481570  0.0255667  0.1428760 
    3   221     1  0.5700862  0.0027507  0.1323058 
    3   221     2  0.5753154  0.0069882  0.0981635 
    3   221     3  0.6668182  0.0313950  0.1360757 
    3   221     4  0.6732512  0.0360680  0.1009723 
    3   222     1  0.5084523  0.0339038  0.2057195 
    3   222     2  0.4135527  0.0057965  0.2067454 
    3   222     3  0.5143803  0.0428770  0.1718583 
    3   222     4  0.4183895  0.0143957  0.1731337 
    3   223     1  0.5958530  0.0443818  0.1709894 
    3   223     2  0.5889098  0.0300726  0.2066397 
    3   223     3  0.4941038  0.0143693  0.1742252 
    3   223     4  0.4875859 -0.0002107  0.2110069 
    3   224     1  0.8945161  0.0121724  0.0553229 
    3   224     2  0.8883114  0.0303163  0.0808055 
    3   224     3  0.8290071 -0.0139698  0.0402636 
    3   224     4  0.8240929  0.0016136  0.0620294 
    3   225     1  0.9595323 -0.0312813 -0.0079453 
    3   225     2  1.0134813 -0.0050117  0.0086602 
    3   225     3  0.9603617 -0.0047111  0.0111819 
    3   225     4  1.0206645  0.0259046  0.0306461 
    3   226     1  0.8988827 -0.0075373  0.0161128 
    3   226     2  0.8945228 -0.0346153 -0.0163390 
    3   226     3  0.9969430  0.0325600  0.0397145 
    3   226     4  0.9892177  0.0031936  0.0053202 
    3   227     1  0.8346849  0.0303081  0.0822900 
    3   227     2  0.7340844 -0.0040831  0.0662156 
    3   227     3  0.8358652  0.0170597  0.0472913 
    3   227     4  0.7354680 -0.0170316  0.0318433 
    3   228     1  0.4282024  0.0299807  0.1765754 
    3   228     2  0.4261038  0.0269229  0.2104558 
    3   228     3  0.3342715  0.0019179  0.1758606 
    3   228     4  0.3330037 -0.0009053  0.2099362 
    3   229     1  0.4905311  0.0003264  0.0911737 
    3   229     2  0.5996364  0.0330126  0.0949286 
    3   229     3  0.4886070 -0.0007228  0.1322155 
    3   229     4  0.5981874  0.0321062  0.1359404 
    3   230     1  0.3996355 -0.0074062  0.1346376 
    3   230     2  0.3979255 -0.0115537  0.0932663 
    3   230     3  0.5201630  0.0291038  0.1400680 
    3   230     4  0.5178042  0.0246786  0.0977443 
    3   231     1  0.3364373  0.0109453  0.2262317 
    3   231     2  0.2465683 -0.0163319  0.2221585 
    3   231     3  0.3339255  0.0032854  0.1941636 
    3   231     4  0.2440816 -0.0238981  0.1904905 
    3   232     1  0.7815848  0.0229404  0.0314309 
    3   232     2  0.7851872  0.0405006  0.0768525 
    3   232     3  0.6610035 -0.0168414  0.0156475 
    3   232     4  0.6649028  0.0002439  0.0595350 
    3   233     1  0.8476789 -0.0358581 -0.0292421 
    3   233     2  0.9758413  0.0108871 -0.0055171 
    3   233     3  0.8555921 -0.0048047  0.0143634 
    3   233     4  0.9853684  0.0440382  0.0406450 
    3   234     1  0.8220613 -0.0080830  0.0130147 
    3   234     2  0.8115051 -0.0434158 -0.0436719 
    3   234     3  0.9901922  0.0508179  0.0405580 
    3   234     4  0.9792677  0.0143559 -0.0179265 
    3   235     1  0.7377283  0.0438081  0.0736595 
    3   235     2  0.5956558 -0.0033177  0.0549156 
    3   235     3  0.7306096  0.0210008  0.0232585 
    3   235     4  0.5875840 -0.0263745  0.0045500 
    3   236     1  0.1356404 -0.0314502  0.3025214 
    3   236     2  0.1294681 -0.0521997  0.2804769 
    3   236     3  0.1978295 -0.0120798  0.3105016 
    3   236     4  0.1913530 -0.0333397  0.2879488 
    3   237     1  0.1001399 -0.0326891  0.3783606 
    3   237     2  0.0556250 -0.0481265  0.3657323 
    3   237     3  0.0897008 -0.0676653  0.3621312 
    3   237     4  0.0451670 -0.0829500  0.3495650 
    3   238     1  0.1623482 -0.0082496  0.3347076 
    3   238     2  0.1667077  0.0066568  0.3550072 
    3   238     3  0.1045210 -0.0265755  0.3280642 
    3   238     4  0.1089419 -0.0116984  0.3482996 
    3   239     1  0.2069394 -0.0094232  0.2586180 
    3   239     2  0.2813379  0.0130468  0.2610877 
    3   239     3  0.2079569 -0.0054794  0.2852820 
    3   239     4  0.2823900  0.0169598  0.2874506 
    3   240     1  0.3542761  0.0176567  0.2427092 
    3   240     2  0.4363504  0.0418639  0.2410666 
    3   240     3  0.3487002  0.0076633  0.2723668 
    3   240     4  0.4316405  0.0321873  0.2704897 
    3   241     1  0.2787058  0.0074560  0.2767340 
    3   241     2  0.2818488  0.0124826  0.2477709 
    3   241     3  0.3586578  0.0312511  0.2765615 
    3   241     4  0.3618588  0.0363576  0.2471555 
    3   242     1  0.2327298  0.0264653  0.3407369 
    3   242     2  0.1679440  0.0066161  0.3369179 
    3   242     3  0.2326919  0.0217649  0.3166688 
    3   242     4  0.1679432  0.0019799  0.3131232 
    3   243     1  0.3013796  0.0338434  0.3058554 
    3   243     2  0.2982515  0.0308806  0.3307672 
    3   243     3  0.2295177  0.0124860  0.3041713 
    3   243     4  0.2268902  0.0096709  0.3291076 
    3   244     1  0.0779270  0.0032351  0.3843967 
    3   244     2  0.0742813 -0.0133613  0.3651216 
    3   244     3  0.1308138  0.0216891  0.3932288 
    3   244     4  0.1270887  0.0053740  0.3743168 
    3   245     1  0.0430942  0.0151802  0.4302553 
    3   245     2 -0.0071178 -0.0021212  0.4221547 
    3   245     3  0.0396585 -0.0002944  0.4121620 
    3   245     4 -0.0107718 -0.0174393  0.4043106 
    3   246     1  0.0816148  0.0155765  0.4003599 
    3   246     2  0.0825560  0.0271589  0.4211047 
    3   246     3  0.0265077 -0.0028768  0.3928426 
    3   246     4  0.0272501  0.0081503  0.4126661 
    3   247     1  0.1229671  0.0037304  0.3542794 
    3   247     2  0.1839944  0.0232734  0.3607353 
    3   247     3  0.1227242  0.0107410  0.3760425 
    3   247     4  0.1845057  0.0307091  0.3831427 
    3   248     1 -0.0015947 -0.0365020  0.4266057 
    3   248     2  0.0066736 -0.0086845  0.4423318 
    3   248     3 -0.0431763 -0.0518158  0.4160361 
    3   248     4 -0.0349299 -0.0242649  0.4316145 
    3   249     1  0.0244494 -0.0429733  0.3792944 
    3   249     2  0.0699241 -0.0258584  0.3908123 
    3   249     3  0.0325746 -0.0156128  0.3952911 
    3   249     4  0.0784768  0.0027649  0.4075492 
    3   250     1 -0.0058271 -0.0610067  0.4110375 
    3   250     2 -0.0185794 -0.1035436  0.3981523 
    3   250     3  0.0304178 -0.0455597  0.4266048 
    3   250     4  0.0175861 -0.0882729  0.4136572 
    3   251     1 -0.0256934 -0.0545066  0.4556605 
    3   251     2 -0.0575942 -0.0682588  0.4407779 
    3   251     3 -0.0381940 -0.0962301  0.4442139 
    3   251     4 -0.0700404 -0.1098020  0.4293810 
    3   252     1 -0.1039356 -0.0559430  0.4389142 
    3   252     2 -0.0663575 -0.0434298  0.4474778 
    3   252     3 -0.0965894 -0.0312325  0.4534023 
    3   252     4 -0.0589664 -0.0187371  0.4619572 
    3   253     1 -0.1026587 -0.0721925  0.4568878 
    3   253     2 -0.1140649 -0.1103718  0.4467325 
    3   253     3 -0.0749864 -0.0619894  0.4698761 
    3   253     4 -0.0865114 -0.1004862  0.4596263 
    3   254     1 -0.1178647 -0.0639704  0.4703716 
    3   254     2 -0.1438867 -0.0727846  0.4582293 
    3   254     3 -0.1289912 -0.1012121  0.4604991 
    3   254     4 -0.1549625 -0.1097804  0.4484124 
    3   255     1 -0.1255012 -0.0477061  0.4550116 
    3   255     2 -0.1180667 -0.0227067  0.4683936 
    3   255     3 -0.1600441 -0.0588337  0.4467171 
    3   255     4 -0.1526060 -0.0339454  0.4600423 
    3   256     1 -0.0840035 -0.0088201  0.4474859 
    3   256     2 -0.0863780 -0.0210697  0.4304196 
    3   256     3 -0.0380833  0.0058428  0.4529288 
    3   256     4 -0.0408902 -0.0067278  0.4355439 
    3   257     1 -0.1123446  0.0004486  0.4637496 
    3   257     2 -0.1559315 -0.0132290  0.4586141 
    3   257     3 -0.1151166 -0.0126821  0.4472594 
    3   257     4 -0.1593153 -0.0264819  0.4421437 
    3   258     1 -0.0965000  0.0050911  0.4386013 
    3   258     2 -0.0991826  0.0072967  0.4589043 
    3   258     3 -0.1500051 -0.0111153  0.4364901 
    3   258     4 -0.1527549 -0.0089323  0.4567750 
    3   259     1 -0.0613225 -0.0061450  0.4214128 
    3   259     2 -0.0087645  0.0098476  0.4240126 
    3   259     3 -0.0639832 -0.0039882  0.4425331 
    3   259     4 -0.0109838  0.0121295  0.4450885 
    3   260     1 -0.2211739 -0.0153192  0.4563772 
    3   260     2 -0.2238897 -0.0280599  0.4407930 
    3   260     3 -0.1808707 -0.0031927  0.4605418 
    3   260     4 -0.1841924 -0.0161557  0.4448436 
    3   261     1 -0.2426089 -0.0025608  0.4448411 
    3   261     2 -0.2803833 -0.0139060  0.4400683 
    3   261     3 -0.2459853 -0.0172351  0.4303878 
    3   261     4 -0.2843186 -0.0287557  0.4255366 
    3   262     1 -0.2576380 -0.0004110  0.4285010 
    3   262     2 -0.2593649  0.0040459  0.4470177 
    3   262     3 -0.3067245 -0.0151407  0.4267233 
    3   262     4 -0.3085283 -0.0107067  0.4452382 
    3   263     1 -0.2301538 -0.0130581  0.4390206 
    3   263     2 -0.1810846  0.0016701  0.4398825 
    3   263     3 -0.2329123 -0.0115052  0.4586052 
    3   263     4 -0.1839019  0.0031988  0.4594119 
    3   264     1 -0.2103652 -0.0584940  0.4411151 
    3   264     2 -0.1788510 -0.0489406  0.4487423 
    3   264     3 -0.2031428 -0.0342938  0.4534374 
    3   264     4 -0.1716419 -0.0248435  0.4610138 
    3   265     1 -0.1809354 -0.0690385  0.4468604 
    3   265     2 -0.1912938 -0.1036876  0.4376802 
    3   265     3 -0.1570756 -0.0617611  0.4578906 
    3   265     4 -0.1675212 -0.0966463  0.4486409 
    3   266     1 -0.1920490 -0.0551395  0.4340898 
    3   266     2 -0.2144948 -0.0619215  0.4235879 
    3   266     3 -0.2020067 -0.0884452  0.4253788 
    3   266     4 -0.2244980 -0.0953235  0.4148446 
    3   267     1 -0.2270435 -0.0465322  0.4301393 
    3   267     2 -0.2198459 -0.0224230  0.4414925 
    3   267     3 -0.2562522 -0.0553130  0.4225362 
    3   267     4 -0.2490431 -0.0312140  0.4338865 
    3   268     1 -0.3342190 -0.0101567  0.4110945 
    3   268     2 -0.3381147 -0.0262424  0.3977655 
    3   268     3 -0.2997682  0.0001753  0.4162233 
    3   268     4 -0.3041654 -0.0160653  0.4028158 
    3   269     1 -0.3494388  0.0038964  0.3760828 
    3   269     2 -0.3809431 -0.0055442  0.3706405 
    3   269     3 -0.3536987 -0.0129972  0.3640852 
    3   269     4 -0.3857500 -0.0226174  0.3585370 
    3   270     1 -0.3937604 -0.0000205  0.3668206 
    3   270     2 -0.3933603  0.0103639  0.3827162 
    3   270     3 -0.4363008 -0.0127748  0.3631934 
    3   270     4 -0.4360679 -0.0024488  0.3790620 
    3   271     1 -0.3743322 -0.0140824  0.4016784 
    3   271     2 -0.3300214 -0.0007901  0.4040074 
    3   271     3 -0.3752724 -0.0074599  0.4191740 
    3   271     4 -0.3310159  0.0058154  0.4214982 
    3   272     1 -0.2972257 -0.0491657  0.3923288 
    3   272     2 -0.2705740 -0.0411671  0.3998677 
    3   272     3 -0.2900811 -0.0252051  0.4026996 
    3   272     4 -0.2634097 -0.0172131  0.4102393 
    3   273     1 -0.2450144 -0.0515647  0.3901073 
    3   273     2 -0.2540767 -0.0818389  0.3819578 
    3   273     3 -0.2240101 -0.0452853  0.3996530 
    3   273     4 -0.2331084 -0.0756566  0.3914745 
    3   274     1 -0.2529248 -0.0334848  0.3563639 
    3   274     2 -0.2723547 -0.0393225  0.3475817 
    3   274     3 -0.2612784 -0.0613365  0.3488151 
    3   274     4 -0.2807950 -0.0672889  0.3399805 
    3   275     1 -0.3092103 -0.0336067  0.3592537 
    3   275     2 -0.3024909 -0.0110118  0.3684550 
    3   275     3 -0.3329122 -0.0407051  0.3521370 
    3   275     4 -0.3262388 -0.0181430  0.3613178 
    3   276     1 -0.2686476 -0.0037828  0.4499651 
    3   276     2 -0.3292246 -0.0219528  0.4517145 
    3   276     3 -0.2600954  0.0038228  0.4264741 
    3   276     4 -0.3186375 -0.0137367  0.4281645 
    3   277     1 -0.2585290 -0.0081290  0.4261299 
    3   277     2 -0.2689083 -0.0258395  0.4534356 
    3   277     3 -0.3255932 -0.0282392  0.4310122 
    3   277     4 -0.3357332 -0.0458778  0.4583001 
    3   278     1 -0.2200150 -0.0275636  0.4339023 
    3   278     2 -0.1479251 -0.0059858  0.4277346 
    3   278     3 -0.2317638 -0.0487268  0.4618346 
    3   278     4 -0.1601059 -0.0272345  0.4556371 
    3   279     1 -0.2371158 -0.0228652  0.4606745 
    3   279     2 -0.2277508 -0.0120450  0.4368931 
    3   279     3 -0.1774928 -0.0050000  0.4579990 
    3   279     4 -0.1666474  0.0062838  0.4340925 
    3   280     1 -0.4302397 -0.0276452  0.4133778 
    3   280     2 -0.3605081 -0.0067240  0.4096825 
    3   280     3 -0.4388889 -0.0405602  0.4398987 
    3   280     4 -0.3690575 -0.0196071  0.4361932 
    3   281     1 -0.4109351 -0.0175911  0.4291489 
    3   281     2 -0.4038123 -0.0140231  0.4065472 
    3   281     3 -0.3536174 -0.0003955  0.4286564 
    3   281     4 -0.3445094  0.0037682  0.4060346 
    3   282     1 -0.4332303  0.0060234  0.3919115 
    3   282     2 -0.4900078 -0.0110087  0.3909172 
    3   282     3 -0.4279509  0.0047508  0.3702818 
    3   282     4 -0.4833366 -0.0118654  0.3692996 
    3   283     1 -0.4604055 -0.0031671  0.3784534 
    3   283     2 -0.4676344 -0.0113551  0.4037547 
    3   283     3 -0.5230775 -0.0219714  0.3804845 
    3   283     4 -0.5308067 -0.0303058  0.4057862 
    3   284     1 -0.4631026 -0.0787712  0.4510801 
    3   284     2 -0.4570620 -0.0568927  0.4218605 
    3   284     3 -0.3859285 -0.0556125  0.4439497 
    3   284     4 -0.3814774 -0.0342096  0.4148750 
    3   285     1 -0.5015253 -0.0430258  0.4168370 
    3   285     2 -0.5720732 -0.0642103  0.4216000 
    3   285     3 -0.4972569 -0.0277389  0.3887003 
    3   285     4 -0.5687749 -0.0491955  0.3934906 
    3   286     1 -0.5287412 -0.0667656  0.4009685 
    3   286     2 -0.5362202 -0.0981629  0.4338523 
    3   286     3 -0.6137095 -0.0922981  0.4110775 
    3   286     4 -0.6206697 -0.1234986  0.4438546 
    3   287     1 -0.4804101 -0.1041634  0.4322045 
    3   287     2 -0.3931245 -0.0779663  0.4202503 
    3   287     3 -0.4898570 -0.1415596  0.4659392 
    3   287     4 -0.4027043 -0.1153987  0.4539998 
    3   288     1 -0.2564468 -0.0820655  0.4236256 
    3   288     2 -0.2663444 -0.1211022  0.4568258 
    3   288     3 -0.3430442 -0.1080439  0.4361794 
    3   288     4 -0.3531288 -0.1471375  0.4694074 
    3   289     1 -0.2051940 -0.1036291  0.4264296 
    3   289     2 -0.1205771 -0.0782538  0.4140104 
    3   289     3 -0.2142407 -0.1421285  0.4588246 
    3   289     4 -0.1276235 -0.1161468  0.4461062 
    3   290     1 -0.2220772 -0.0867393  0.4616988 
    3   290     2 -0.2135220 -0.0588745  0.4311407 
    3   290     3 -0.1411434 -0.0624627  0.4526765 
    3   290     4 -0.1322601 -0.0344854  0.4220653 
    3   291     1 -0.2670364 -0.0635881  0.4556197 
    3   291     2 -0.3421353 -0.0861140  0.4637101 
    3   291     3 -0.2596775 -0.0374916  0.4258423 
    3   291     4 -0.3364450 -0.0605095  0.4341020 
    3   292     1 -0.2583983 -0.2029888  0.4523748 
    3   292     2 -0.3518977 -0.2310319  0.4704408 
    3   292     3 -0.2436671 -0.1465506  0.4166102 
    3   292     4 -0.3370669 -0.1745691  0.4346603 
    3   293     1 -0.2182256 -0.2344720  0.3993088 
    3   293     2 -0.2386994 -0.3073419  0.4362265 
    3   293     3 -0.3144236 -0.2633938  0.4225141 
    3   293     4 -0.3349467 -0.3364789  0.4595397 
    3   294     1 -0.1585067 -0.2418315  0.3918032 
    3   294     2 -0.0689744 -0.2150388  0.3719396 
    3   294     3 -0.1763026 -0.3049836  0.4265378 
    3   294     4 -0.0872717 -0.2785050  0.4068727 
    3   295     1 -0.2009994 -0.2159139  0.4491393 
    3   295     2 -0.1879615 -0.1649148  0.4148539 
    3   295     3 -0.1123144 -0.1893127  0.4329604 
    3   295     4 -0.0996361 -0.1384192  0.3987390 
    3   296     1 -0.4809583 -0.2733360  0.4483143 
    3   296     2 -0.3759572 -0.2418525  0.4214948 
    3   296     3 -0.5045280 -0.3578599  0.4886207 
    3   296     4 -0.3997871 -0.3266409  0.4619503 
    3   297     1 -0.5072041 -0.2331107  0.4812613 
    3   297     2 -0.4917239 -0.1744373  0.4433545 
    3   297     3 -0.4088035 -0.2035567  0.4625774 
    3   297     4 -0.3933846 -0.1449077  0.4246862 
    3   298     1 -0.5624265 -0.1855149  0.4568855 
    3   298     2 -0.6666020 -0.2168284  0.4744135 
    3   298     3 -0.5484734 -0.1310281  0.4169792 
    3   298     4 -0.6531779 -0.1624379  0.4345495 
    3   299     1 -0.5444118 -0.2291392  0.4339267 
    3   299     2 -0.5705325 -0.3224535  0.4805018 
    3   299     3 -0.6654579 -0.2656273  0.4635935 
    3   299     4 -0.6924085 -0.3592836  0.5104151 
    3   300     1 -0.0773167 -0.0006720  0.4533322 
    3   300     2 -0.1396598 -0.0191392  0.4547281 
    3   300     3 -0.0674015  0.0087182  0.4292920 
    3   300     4 -0.1288864 -0.0094212  0.4303973 
    3   301     1 -0.0322478 -0.0019895  0.4165843 
    3   301     2 -0.0442747 -0.0257739  0.4458510 
    3   301     3 -0.1039669 -0.0230867  0.4227738 
    3   301     4 -0.1174588 -0.0478804  0.4529733 
    3   302     1  0.0165846 -0.0209292  0.3996170 
    3   302     2  0.0948299  0.0014592  0.3980741 
    3   302     3  0.0038593 -0.0371090  0.4308857 
    3   302     4  0.0754479 -0.0157908  0.4274096 
    3   303     1 -0.0354233 -0.0092503  0.4348979 
    3   303     2 -0.0268164 -0.0033328  0.4122307 
    3   303     3  0.0217437  0.0075337  0.4362278 
    3   303     4  0.0316264  0.0139150  0.4129880 
    3   304     1  0.6618418  0.0078463  0.0229147 
    3   304     2  0.6726246  0.0458433  0.0861186 
    3   304     3  0.4992895 -0.0456925  0.0023194 
    3   304     4  0.5073860 -0.0100384  0.0625652 
    3   305     1  0.7714403 -0.0482840 -0.0623548 
    3   305     2  0.9990287  0.0244993 -0.0388790 
    3   305     3  0.7822532 -0.0128953  0.0159444 
    3   305     4  1.0102877  0.0618420  0.0438448 
    3   306     1  0.7396091 -0.0314283  0.0338617 
    3   306     2  0.7092809 -0.0774014 -0.0803042 
    3   306     3  1.0515615  0.0660022  0.0592899 
    3   306     4  1.0339973  0.0230147 -0.0568986 
    3   307     1  0.5871354  0.0215207  0.1302067 
    3   307     2  0.3628416 -0.0480643  0.1132455 
    3   307     3  0.5651870 -0.0141377  0.0434511 
    3   307     4  0.3535691 -0.0765759  0.0369295 
    3   308     1 -0.0613970 -0.0371818  0.0744404 
    3   308     2 -0.0632645 -0.0506333  0.0768480 
    3   308     3 -0.0681342 -0.0394309  0.0777447 
    3   308     4 -0.0712742 -0.0531232  0.0807551 
    3   309     1 -0.0697964 -0.0235697  0.0453820 
    3   309     2 -0.0497869 -0.0160567  0.0409153 
    3   309     3 -0.0650975 -0.0343659  0.0538148 
    3   309     4 -0.0421165 -0.0269641  0.0496110 
    3   310     1 -0.1056188 -0.0314302  0.0591569 
    3   310     2 -0.1184752 -0.0129046  0.0423727 
    3   310     3 -0.0492979 -0.0111710  0.0477952 
    3   310     4 -0.0756562  0.0007337  0.0352114 
    3   311     1 -0.1103613 -0.0435517  0.1036959 
    3   311     2 -0.1205037 -0.0470964  0.1098922 
    3   311     3 -0.1069959 -0.0266848  0.1013322 
    3   311     4 -0.1157258 -0.0297160  0.1066652 
    3   312     1 -0.0310607 -0.0039398  0.0192336 
    3   312     2 -0.0246146 -0.0109696  0.0291636 
    3   312     3 -0.0520929 -0.0122330  0.0239026 
    3   312     4 -0.0442151 -0.0172572  0.0318042 
    3   313     1 -0.0261670 -0.0146575 -0.0004723 
    3   313     2 -0.0033848 -0.0059302  0.0052816 
    3   313     3 -0.0181511 -0.0070790  0.0121836 
    3   313     4 -0.0012848 -0.0016973  0.0138976 
    3   314     1 -0.0291590  0.0002258  0.0179820 
    3   314     2 -0.0515568 -0.0184374  0.0292935 
    3   314     3 -0.0596812  0.0123444  0.0136140 
    3   314     4 -0.0683776 -0.0072006  0.0244850 
    3   315     1 -1.8903624 -5.3108771  0.7026188 
    3   315     2 -1.8737671 -5.8269733  0.7387604 
    3   315     3 -1.3462416 -5.2462952  1.0954970 
    3   315     4 -1.4527824 -5.7160235  1.0398838 
    3   316     1 -1.8314584 -4.5775737  0.6327585 
    3   316     2 -1.6859557 -3.8824403  0.8793969 
    3   316     3 -1.3190596 -3.2286503  0.1315540 
    3   316     4 -1.3820131 -3.1054381  0.5532336 
    3   317     1 -2.2217495 -4.6493312  1.3502195 
    3   317     2 -3.4334267 -5.2958953  2.4192019 
    3   317     3 -2.0155359 -3.1507061  1.3854834 
    3   317     4 -2.9922305 -3.5717444  2.2628359 
    3   318     1  0.4439917 -0.2774079  0.1005846 
    3   318     2  0.3714350 -0.3193346  0.1326924 
    3   318     3  0.4576386 -0.1975000  0.0778995 
    3   318     4  0.3844507 -0.2547950  0.1137543 
    3   319     1  0.4531539 -0.2563249  0.0172855 
    3   319     2  0.4461269 -0.2817073  0.0442573 
    3   319     3  0.3882672 -0.2790406  0.0284545 
    3   319     4  0.3791444 -0.3027550  0.0530878 
    3   320     1  0.5050768 -0.2266164  0.0230489 
    3   320     2  0.5700518 -0.2035799  0.0116310 
    3   320     3  0.5008574 -0.2442711  0.0425352 
    3   320     4  0.5642101 -0.2243418  0.0343397 
    3   321     1  0.5050121 -0.2601307  0.0971044 
    3   321     2  0.5139704 -0.2100769  0.0820682 
    3   321     3  0.5617488 -0.2295237  0.0730173 
    3   321     4  0.5773281 -0.1710073  0.0539554 
    3   322     1  0.4814521 -0.1752957  0.1350171 
    3   322     2  0.4627533 -0.2469475  0.1184122 
    3   322     3  0.4522436 -0.2627413  0.1560791 
    3   322     4  0.4462345 -0.2920400  0.1386998 
    3   323     1  0.5117808 -0.2079317  0.1100757 
    3   323     2  0.5693735 -0.1827281  0.0919669 
    3   323     3  0.5149954 -0.2400052  0.1241254 
    3   323     4  0.5621909 -0.2152189  0.1074268 
    3   324     1  0.4947390 -0.2144379  0.1534838 
    3   324     2  0.5137052 -0.1989673  0.1335957 
    3   324     3  0.5505465 -0.1968338  0.1479366 
    3   324     4  0.5566571 -0.1864170  0.1312212 
    3   325     1  1.1376501 -0.0238535  0.0728013 
    3   325     2  1.1057834 -0.0049902  0.0379329 
    3   325     3  1.2477459  0.0178188  0.0504213 
    3   325     4  1.1863536  0.0248544  0.0224265 
    3   326     1  1.0900822  0.0115454  0.1104441 
    3   326     2  0.9933803 -0.0205497  0.1230761 
    3   326     3  1.0707922  0.0277735  0.0700373 
    3   326     4  0.9862826 -0.0010605  0.0825666 
    3   327     1  1.0836423  0.0179419  0.0850330 
    3   327     2  1.1105159  0.0103408  0.1244522 
    3   327     3  1.0176111 -0.0029860  0.0913378 
    3   327     4  1.0315442 -0.0137662  0.1295904 
    3   328     1  1.1059467 -0.0101241  0.0629997 
    3   328     2  1.1685226  0.0102429  0.0548750 
    3   328     3  1.1352706 -0.0103667  0.0949564 
    3   328     4  1.2103755  0.0127062  0.0902186 
    3   329     1  1.2896255  0.0015593  0.0165548 
    3   329     2  1.2749053 -0.0182485  0.0255291 
    3   329     3  1.2770728  0.0212986  0.0205445 
    3   329     4  1.2686742 -0.0016341  0.0268280 
    3   330     1  1.2581182  0.0084404  0.0233089 
    3   330     2  1.2907508  0.0130309  0.0591676 
    3   330     3  1.1917098 -0.0128465  0.0341587 
    3   330     4  1.2262716 -0.0065894  0.0623474 
    3   331     1  1.2892072 -0.0298294 -0.0031410 
    3   331     2  1.3448616 -0.0079969  0.0105542 
    3   331     3  1.3096626 -0.0092918  0.0258265 
    3   331     4  1.3505144  0.0038260  0.0303175 
    4     1     1  1.7539249 -0.0003826 -0.0004388 
    4     1     2  1.7562779  0.0003303 -0.0003441 
    4     1     3  1.7535253 -0.0003922  0.0003601 
    4     1     4  1.7562068  0.0004146  0.0004272 
    4     2     1  1.7528236 -0.0004933  0.0003498 
    4     2     2  1.7531466 -0.0004632 -0.0004933 
    4     2     3  1.7560348  0.0004766  0.0004664 
    4     2     4  1.7561065  0.0004302 -0.0003929 
    4     3     1  1.7508271  0.0004011  0.0005043 
    4     3     2  1.7478704 -0.0005462  0.0001903 
    4     3     3  1.7513607  0.0003317 -0.0001713 
    4     3     4  1.7490174 -0.0004146 -0.0004064 
    4     4     1  1.7524940  0.0003711 -0.0001975 
    4     4     2  1.7520829  0.0003348  0.0003445 
    4     4     3  1.7505507 -0.0002281 -0.0003415 
    4     4     4  1.7498860 -0.0003294  0.0002649 
    4     5     1  1.7527921 -0.0004710 -0.0004971 
    4     5     2  1.7559523  0.0004795 -0.0004292 
    4     5     3  1.7526032 -0.0004417  0.0003254 
    4     5     4  1.7559187  0.0005592  0.0004324 
    4     6     1  1.7522889 -0.0005904  0.0004888 
    4     6     2  1.7523483 -0.0005317 -0.0004614 
    4     6     3  1.7558945  0.0004908  0.0004782 
    4     6     4  1.7559206  0.0005400 -0.0004808 
    4     7     1  1.7502202  0.0005411  0.0005185 
    4     7     2  1.7465964 -0.0005460  0.0005145 
    4     7     3  1.7502746  0.0005572 -0.0004491 
    4     7     4  1.7466382 -0.0005337 -0.0004455 
    4     8     1  1.7505432  0.0006191 -0.0004199 
    4     8     2  1.7502551  0.0005439  0.0006668 
    4     8     3  1.7466627 -0.0005455 -0.0004782 
    4     8     4  1.7465419 -0.0005718  0.0004963 
    4     9     1  1.7522685 -0.0005318 -0.0004606 
    4     9     2  1.7558799  0.0005516 -0.0004717 
    4     9     3  1.7522520 -0.0005481  0.0004968 
    4     9     4  1.7558727  0.0005381  0.0004882 
    4    10     1  1.7522197 -0.0005569  0.0005023 
    4    10     2  1.7522306 -0.0005350 -0.0004533 
    4    10     3  1.7558481  0.0005317  0.0004863 
    4    10     4  1.7558555  0.0005526 -0.0004696 
    4    11     1  1.7501253  0.0005181  0.0005098 
    4    11     2  1.7465068 -0.0005678  0.0005379 
    4    11     3  1.7501419  0.0005542 -0.0004456 
    4    11     4  1.7465246 -0.0005314 -0.0004153 
    4    12     1  1.7501853  0.0005521 -0.0004547 
    4    12     2  1.7501577  0.0005113  0.0005072 
    4    12     3  1.7465674 -0.0005336 -0.0004278 
    4    12     4  1.7465383 -0.0005747  0.0005312 
    4    13     1  1.7408252 -0.0006085 -0.0004027 
    4    13     2  1.7447550  0.0005733 -0.0004883 
    4    13     3  1.7409653 -0.0006174  0.0006750 
    4    13     4  1.7447122  0.0005143  0.0004898 
    4    14     1  1.7408563 -0.0006160  0.0005637 
    4    14     2  1.7408874 -0.0005420 -0.0004058 
    4    14     3  1.7444947  0.0004766  0.0005134 
    4    14     4  1.7445464  0.0005570 -0.0004581 
    4    15     1  1.7387999  0.0005053  0.0005135 
    4    15     2  1.7351988 -0.0005758  0.0005603 
    4    15     3  1.7388130  0.0005308 -0.0004379 
    4    15     4  1.7352225 -0.0005469 -0.0004001 
    4    16     1  1.7385060  0.0005023 -0.0004958 
    4    16     2  1.7386150  0.0004155  0.0003863 
    4    16     3  1.7351869 -0.0004986 -0.0003969 
    4    16     4  1.7351699 -0.0006245  0.0004964 
    4    17     1  1.7408688 -0.0005328 -0.0003965 
    4    17     2  1.7444851  0.0005531 -0.0004420 
    4    17     3  1.7408397 -0.0005852  0.0005628 
    4    17     4  1.7444528  0.0004997  0.0005199 
    4    18     1  1.7408010 -0.0005991  0.0005823 
    4    18     2  1.7408276 -0.0005314 -0.0003719 
    4    18     3  1.7444136  0.0004862  0.0005265 
    4    18     4  1.7444411  0.0005544 -0.0004307 
    4    19     1  1.7387111  0.0004594  0.0005537 
    4    19     2  1.7351002 -0.0006262  0.0006223 
    4    19     3  1.7387405  0.0005406 -0.0004082 
    4    19     4  1.7351270 -0.0005461 -0.0003352 
    4    20     1  1.7387788  0.0005352 -0.0004264 
    4    20     2  1.7387442  0.0004596  0.0005402 
    4    20     3  1.7351621 -0.0005518 -0.0003645 
    4    20     4  1.7351286 -0.0006267  0.0005982 
    4    21     1  1.7407955 -0.0005265 -0.0003530 
    4    21     2  1.7444069  0.0005594 -0.0004229 
    4    21     3  1.7407774 -0.0006008  0.0006048 
    4    21     4  1.7443859  0.0004839  0.0005390 
    4    22     1  1.7407642 -0.0006072  0.0006229 
    4    22     2  1.7407791 -0.0005242 -0.0003306 
    4    22     3  1.7443683  0.0004771  0.0005459 
    4    22     4  1.7443860  0.0005610 -0.0004100 
    4    23     1  1.7386783  0.0004472  0.0005808 
    4    23     2  1.7350812 -0.0006364  0.0006741 
    4    23     3  1.7386960  0.0005480 -0.0003784 
    4    23     4  1.7350942 -0.0005374 -0.0002809 
    4    24     1  1.7387127  0.0005427 -0.0003959 
    4    24     2  1.7386915  0.0004516  0.0005693 
    4    24     3  1.7351039 -0.0005436 -0.0003108 
    4    24     4  1.7350854 -0.0006336  0.0006511 
    4    25     1  1.7500722  0.0005137  0.0005228 
    4    25     2  1.7464578 -0.0005713  0.0005609 
    4    25     3  1.7500818  0.0005574 -0.0004320 
    4    25     4  1.7464649 -0.0005284 -0.0003914 
    4    26     1  1.7501118  0.0005535 -0.0004410 
    4    26     2  1.7501001  0.0005140  0.0005183 
    4    26     3  1.7464930 -0.0005327 -0.0004065 
    4    26     4  1.7464817 -0.0005721  0.0005521 
    4    27     1  1.7521985 -0.0005349 -0.0004526 
    4    27     2  1.7558242  0.0005530 -0.0004699 
    4    27     3  1.7521922 -0.0005560  0.0005078 
    4    27     4  1.7558179  0.0005318  0.0004910 
    4    28     1  1.7521650 -0.0005558  0.0005089 
    4    28     2  1.7521701 -0.0005317 -0.0004443 
    4    28     3  1.7557911  0.0005322  0.0004892 
    4    28     4  1.7557979  0.0005568 -0.0004653 
    4    29     1  1.7521403 -0.0005281 -0.0004431 
    4    29     2  1.7557602  0.0005582 -0.0004695 
    4    29     3  1.7521378 -0.0005567  0.0005186 
    4    29     4  1.7557528  0.0005281  0.0004940 
    4    30     1  1.7521130 -0.0005594  0.0005208 
    4    30     2  1.7521151 -0.0005284 -0.0004365 
    4    30     3  1.7557192  0.0005228  0.0004926 
    4    30     4  1.7557271  0.0005555 -0.0004643 
    4    31     1  1.7500315  0.0005060  0.0005355 
    4    31     2  1.7464375 -0.0005734  0.0005839 
    4    31     3  1.7500353  0.0005570 -0.0004196 
    4    31     4  1.7464342 -0.0005245 -0.0003698 
    4    32     1  1.7500581  0.0005570 -0.0004304 
    4    32     2  1.7500534  0.0005097  0.0005328 
    4    32     3  1.7464463 -0.0005275 -0.0003849 
    4    32     4  1.7464465 -0.0005733  0.0005770 
    4    33     1  1.7407686 -0.0005206 -0.0003161 
    4    33     2  1.7443680  0.0005631 -0.0004035 
    4    33     3  1.7407672 -0.0006068  0.0006449 
    4    33     4  1.7443594  0.0004745  0.0005606 
    4    34     1  1.7407791 -0.0006086  0.0006597 
    4    34     2  1.7407777 -0.0005153 -0.0002933 
    4    34     3  1.7443581  0.0004696  0.0005664 
    4    34     4  1.7443640  0.0005654 -0.0003893 
    4    35     1  1.7387063  0.0004387  0.0006102 
    4    35     2  1.7351375 -0.0006387  0.0007242 
    4    35     3  1.7387052  0.0005527 -0.0003483 
    4    35     4  1.7351265 -0.0005282 -0.0002297 
    4    36     1  1.7386915  0.0005478 -0.0003666 
    4    36     2  1.7386888  0.0004425  0.0005991 
    4    36     3  1.7350994 -0.0005357 -0.0002598 
    4    36     4  1.7351025 -0.0006389  0.0007029 
    4    37     1  1.7407949 -0.0005101 -0.0002808 
    4    37     2  1.7443641  0.0005662 -0.0003846 
    4    37     3  1.7408172 -0.0006042  0.0006815 
    4    37     4  1.7443721  0.0004675  0.0005814 
    4    38     1  1.7408650 -0.0006044  0.0006938 
    4    38     2  1.7408407 -0.0005054 -0.0002616 
    4    38     3  1.7443964  0.0004610  0.0005867 
    4    38     4  1.7443857  0.0005642 -0.0003698 
    4    39     1  1.7388176  0.0004321  0.0006394 
    4    39     2  1.7353061 -0.0006303  0.0007700 
    4    39     3  1.7387885  0.0005525 -0.0003163 
    4    39     4  1.7352577 -0.0005163 -0.0001815 
    4    40     1  1.7387326  0.0005490 -0.0003368 
    4    40     2  1.7387580  0.0004353  0.0006290 
    4    40     3  1.7351746 -0.0005266 -0.0002110 
    4    40     4  1.7352123 -0.0006363  0.0007519 
    4    41     1  1.7500078  0.0005036  0.0005507 
    4    41     2  1.7464504 -0.0005650  0.0006023 
    4    41     3  1.7500018  0.0005553 -0.0004086 
    4    41     4  1.7464318 -0.0005171 -0.0003552 
    4    42     1  1.7500169  0.0005531 -0.0004182 
    4    42     2  1.7500224  0.0005041  0.0005478 
    4    42     3  1.7464285 -0.0005246 -0.0003683 
    4    42     4  1.7464441 -0.0005707  0.0005978 
    4    43     1  1.7520857 -0.0005275 -0.0004406 
    4    43     2  1.7556807  0.0005514 -0.0004671 
    4    43     3  1.7520906 -0.0005558  0.0005281 
    4    43     4  1.7556749  0.0005199  0.0005012 
    4    44     1  1.7520670 -0.0005507  0.0005265 
    4    44     2  1.7520623 -0.0005211 -0.0004327 
    4    44     3  1.7556389  0.0005212  0.0004991 
    4    44     4  1.7556451  0.0005541 -0.0004613 
    4    45     1  1.7520371 -0.0005170 -0.0004367 
    4    45     2  1.7555951  0.0005509 -0.0004682 
    4    45     3  1.7520463 -0.0005486  0.0005355 
    4    45     4  1.7555893  0.0005147  0.0005050 
    4    46     1  1.7520220 -0.0005487  0.0005349 
    4    46     2  1.7520166 -0.0005164 -0.0004333 
    4    46     3  1.7555478  0.0005095  0.0005040 
    4    46     4  1.7555546  0.0005454 -0.0004629 
    4    47     1  1.7499936  0.0004950  0.0005627 
    4    47     2  1.7464897 -0.0005576  0.0006146 
    4    47     3  1.7499841  0.0005446 -0.0003985 
    4    47     4  1.7464637 -0.0005128 -0.0003478 
    4    48     1  1.7499918  0.0005502 -0.0004101 
    4    48     2  1.7500061  0.0005007  0.0005611 
    4    48     3  1.7464432 -0.0005158 -0.0003567 
    4    48     4  1.7464742 -0.0005603  0.0006144 
    4    49     1  1.7408905 -0.0005027 -0.0002570 
    4    49     2  1.7444081  0.0005585 -0.0003636 
    4    49     3  1.7409421 -0.0005922  0.0007084 
    4    49     4  1.7444366  0.0004620  0.0006027 
    4    50     1  1.7410111 -0.0005866  0.0007112 
    4    50     2  1.7409677 -0.0004975 -0.0002439 
    4    50     3  1.7444720  0.0004574  0.0006077 
    4    50     4  1.7444492  0.0005525 -0.0003464 
    4    51     1  1.7390122  0.0004288  0.0006662 
    4    51     2  1.7355959 -0.0006058  0.0008000 
    4    51     3  1.7389586  0.0005426 -0.0002800 
    4    51     4  1.7355084 -0.0005022 -0.0001452 
    4    52     1  1.7388570  0.0005446 -0.0003023 
    4    52     2  1.7389170  0.0004317  0.0006579 
    4    52     3  1.7353652 -0.0005127 -0.0001663 
    4    52     4  1.7354496 -0.0006182  0.0007923 
    4    53     1  1.7410319 -0.0005026 -0.0002482 
    4    53     2  1.7444778  0.0005354 -0.0003372 
    4    53     3  1.7410927 -0.0005742  0.0007181 
    4    53     4  1.7445115  0.0004560  0.0006258 
    4    54     1  1.7411267 -0.0005743  0.0007173 
    4    54     2  1.7411001 -0.0005075 -0.0002451 
    4    54     3  1.7445198  0.0004468  0.0006411 
    4    54     4  1.7445076  0.0005172 -0.0003137 
    4    55     1  1.7391891  0.0004153  0.0007017 
    4    55     2  1.7358738 -0.0005843  0.0007972 
    4    55     3  1.7391516  0.0004911 -0.0002320 
    4    55     4  1.7358041 -0.0005172 -0.0001463 
    4    56     1  1.7390526  0.0005161 -0.0002629 
    4    56     2  1.7391267  0.0004266  0.0006841 
    4    56     3  1.7356555 -0.0005103 -0.0001476 
    4    56     4  1.7357649 -0.0005898  0.0008044 
    4    57     1  1.7499553  0.0004918  0.0005878 
    4    57     2  1.7464969 -0.0005463  0.0006218 
    4    57     3  1.7499496  0.0005263 -0.0003821 
    4    57     4  1.7464806 -0.0005149 -0.0003513 
    4    58     1  1.7499695  0.0005320 -0.0003963 
    4    58     2  1.7499876  0.0004944  0.0005778 
    4    58     3  1.7464747 -0.0005173 -0.0003563 
    4    58     4  1.7465088 -0.0005502  0.0006211 
    4    59     1  1.7519858 -0.0005172 -0.0004433 
    4    59     2  1.7554985  0.0005369 -0.0004670 
    4    59     3  1.7519972 -0.0005429  0.0005398 
    4    59     4  1.7554945  0.0005066  0.0005143 
    4    60     1  1.7519560 -0.0005378  0.0005387 
    4    60     2  1.7519538 -0.0005119 -0.0004406 
    4    60     3  1.7554460  0.0005094  0.0005173 
    4    60     4  1.7554518  0.0005376 -0.0004615 
    4    61     1  1.7519030 -0.0005118 -0.0004497 
    4    61     2  1.7553841  0.0005326 -0.0004678 
    4    61     3  1.7519024 -0.0005373  0.0005484 
    4    61     4  1.7553779  0.0005055  0.0005291 
    4    62     1  1.7518240 -0.0005394  0.0005537 
    4    62     2  1.7518377 -0.0005130 -0.0004512 
    4    62     3  1.7553065  0.0005054  0.0005385 
    4    62     4  1.7553155  0.0005304 -0.0004642 
    4    63     1  1.7498297  0.0004914  0.0006301 
    4    63     2  1.7463844 -0.0005422  0.0006393 
    4    63     3  1.7498439  0.0005109 -0.0003603 
    4    63     4  1.7464021 -0.0005216 -0.0003563 
    4    64     1  1.7499075  0.0005152 -0.0003767 
    4    64     2  1.7499119  0.0004925  0.0006105 
    4    64     3  1.7464547 -0.0005207 -0.0003596 
    4    64     4  1.7464662 -0.0005414  0.0006322 
    4    65     1  1.7411072 -0.0005208 -0.0002547 
    4    65     2  1.7444910  0.0004952 -0.0002940 
    4    65     3  1.7411285 -0.0005635  0.0007240 
    4    65     4  1.7445008  0.0004495  0.0006752 
    4    66     1  1.7410399 -0.0005606  0.0007303 
    4    66     2  1.7410737 -0.0005218 -0.0002520 
    4    66     3  1.7444164  0.0004526  0.0007076 
    4    66     4  1.7444422  0.0004887 -0.0002651 
    4    67     1  1.7391187  0.0004152  0.0007900 
    4    67     2  1.7358265 -0.0005725  0.0008048 
    4    67     3  1.7391536  0.0004448 -0.0001560 
    4    67     4  1.7358692 -0.0005403 -0.0001564 
    4    68     1  1.7391824  0.0004528 -0.0001986 
    4    68     2  1.7392108  0.0004122  0.0007429 
    4    68     3  1.7358799 -0.0005388 -0.0001580 
    4    68     4  1.7359212 -0.0005764  0.0007992 
    4    69     1  1.7409470 -0.0005329 -0.0002624 
    4    69     2  1.7443275  0.0004812 -0.0002482 
    4    69     3  1.7409075 -0.0005464  0.0007448 
    4    69     4  1.7442996  0.0004712  0.0007508 
    4    70     1  1.7407102 -0.0005407  0.0007569 
    4    70     2  1.7407857 -0.0005363 -0.0002654 
    4    70     3  1.7441336  0.0004867  0.0007856 
    4    70     4  1.7441844  0.0004837 -0.0002308 
    4    71     1  1.7387399  0.0004733  0.0008928 
    4    71     2  1.7353751 -0.0005382  0.0008286 
    4    71     3  1.7388224  0.0004453 -0.0001047 
    4    71     4  1.7354897 -0.0005569 -0.0001755 
    4    72     1  1.7390137  0.0004379 -0.0001272 
    4    72     2  1.7389694  0.0004462  0.0008479 
    4    72     3  1.7357155 -0.0005523 -0.0001693 
    4    72     4  1.7356431 -0.0005520  0.0008182 
    4    73     1  1.7496073  0.0005112  0.0006830 
    4    73     2  1.7461284 -0.0005326  0.0006641 
    4    73     3  1.7496316  0.0005090 -0.0003471 
    4    73     4  1.7461683 -0.0005301 -0.0003688 
    4    74     1  1.7497460  0.0005050 -0.0003555 
    4    74     2  1.7497348  0.0005026  0.0006598 
    4    74     3  1.7462969 -0.0005296 -0.0003675 
    4    74     4  1.7462767 -0.0005348  0.0006525 
    4    75     1  1.7517443 -0.0005176 -0.0004642 
    4    75     2  1.7552244  0.0005264 -0.0004700 
    4    75     3  1.7517325 -0.0005371  0.0005637 
    4    75     4  1.7552174  0.0005084  0.0005556 
    4    76     1  1.7516186 -0.0005359  0.0005713 
    4    76     2  1.7516401 -0.0005167 -0.0004685 
    4    76     3  1.7551245  0.0005159  0.0005681 
    4    76     4  1.7551334  0.0005312 -0.0004709 
    4    77     1  1.7515159 -0.0005214 -0.0004814 
    4    77     2  1.7550248  0.0005312 -0.0004813 
    4    77     3  1.7514957 -0.0005378  0.0005843 
    4    77     4  1.7550169  0.0005185  0.0005836 
    4    78     1  1.7513602 -0.0005414  0.0005957 
    4    78     2  1.7513849 -0.0005252 -0.0004883 
    4    78     3  1.7549071  0.0005226  0.0005972 
    4    78     4  1.7549158  0.0005340 -0.0004861 
    4    79     1  1.7493223  0.0005270  0.0007298 
    4    79     2  1.7457964 -0.0005313  0.0006960 
    4    79     3  1.7493474  0.0005095 -0.0003468 
    4    79     4  1.7458380 -0.0005438 -0.0003818 
    4    80     1  1.7494931  0.0005077 -0.0003494 
    4    80     2  1.7494739  0.0005230  0.0007090 
    4    80     3  1.7460052 -0.0005391 -0.0003801 
    4    80     4  1.7459719 -0.0005280  0.0006802 
    4    81     1  1.7405642 -0.0005536 -0.0002765 
    4    81     2  1.7439998  0.0004784 -0.0002240 
    4    81     3  1.7405065 -0.0005294  0.0007745 
    4    81     4  1.7439616  0.0005083  0.0008234 
    4    82     1  1.7402787 -0.0005301  0.0007946 
    4    82     2  1.7403481 -0.0005607 -0.0002748 
    4    82     3  1.7437662  0.0005179  0.0008541 
    4    82     4  1.7438130  0.0004806 -0.0002141 
    4    83     1  1.7382584  0.0005092  0.0009806 
    4    83     2  1.7348081 -0.0005310  0.0008814 
    4    83     3  1.7383303  0.0004383 -0.0000766 
    4    83     4  1.7349041 -0.0005948 -0.0001762 
    4    84     1  1.7385740  0.0004370 -0.0000927 
    4    84     2  1.7385126  0.0005014  0.0009402 
    4    84     3  1.7351926 -0.0005819 -0.0001848 
    4    84     4  1.7350994 -0.0005267  0.0008511 
    4    85     1  1.7401088 -0.0005772 -0.0002760 
    4    85     2  1.7436105  0.0004755 -0.0002086 
    4    85     3  1.7400657 -0.0005285  0.0008215 
    4    85     4  1.7435827  0.0005288  0.0008880 
    4    86     1  1.7398464 -0.0005320  0.0008486 
    4    86     2  1.7398916 -0.0005828 -0.0002688 
    4    86     3  1.7433900  0.0005335  0.0009180 
    4    86     4  1.7434189  0.0004778 -0.0001994 
    4    87     1  1.7377942  0.0005276  0.0010635 
    4    87     2  1.7342735 -0.0005344  0.0009566 
    4    87     3  1.7378371  0.0004354 -0.0000472 
    4    87     4  1.7343314 -0.0006221 -0.0001536 
    4    88     1  1.7380723  0.0004326 -0.0000632 
    4    88     2  1.7380301  0.0005225  0.0010253 
    4    88     3  1.7346003 -0.0006147 -0.0001683 
    4    88     4  1.7345377 -0.0005309  0.0009200 
    4    89     1  1.7490190  0.0005385  0.0007748 
    4    89     2  1.7454475 -0.0005337  0.0007352 
    4    89     3  1.7490346  0.0005115 -0.0003485 
    4    89     4  1.7454764 -0.0005567 -0.0003880 
    4    90     1  1.7491894  0.0005080 -0.0003500 
    4    90     2  1.7491755  0.0005357  0.0007538 
    4    90     3  1.7456531 -0.0005536 -0.0003892 
    4    90     4  1.7456256 -0.0005300  0.0007150 
    4    91     1  1.7512419 -0.0005317 -0.0005004 
    4    91     2  1.7547952  0.0005343 -0.0004954 
    4    91     3  1.7512246 -0.0005427  0.0006090 
    4    91     4  1.7547892  0.0005267  0.0006132 
    4    92     1  1.7510813 -0.0005443  0.0006220 
    4    92     2  1.7510999 -0.0005333 -0.0005061 
    4    92     3  1.7546685  0.0005318  0.0006275 
    4    92     4  1.7546748  0.0005391 -0.0005007 
    4    93     1  1.7509500 -0.0005376 -0.0005143 
    4    93     2  1.7545437  0.0005404 -0.0005083 
    4    93     3  1.7509345 -0.0005475  0.0006364 
    4    93     4  1.7545383  0.0005336  0.0006421 
    4    94     1  1.7507791 -0.0005501  0.0006502 
    4    94     2  1.7507954 -0.0005393 -0.0005188 
    4    94     3  1.7544018  0.0005366  0.0006561 
    4    94     4  1.7544076  0.0005443 -0.0005129 
    4    95     1  1.7486971  0.0005443  0.0008175 
    4    95     2  1.7450907 -0.0005383  0.0007780 
    4    95     3  1.7487083  0.0005156 -0.0003467 
    4    95     4  1.7451120 -0.0005640 -0.0003861 
    4    96     1  1.7488723  0.0005127 -0.0003493 
    4    96     2  1.7488626  0.0005433  0.0007969 
    4    96     3  1.7452919 -0.0005622 -0.0003894 
    4    96     4  1.7452728 -0.0005344  0.0007566 
    4    97     1  1.7396660 -0.0005936 -0.0002640 
    4    97     2  1.7432213  0.0004756 -0.0001915 
    4    97     3  1.7396402 -0.0005317  0.0008769 
    4    97     4  1.7432067  0.0005409  0.0009490 
    4    98     1  1.7394280 -0.0005330  0.0009045 
    4    98     2  1.7394556 -0.0005953 -0.0002543 
    4    98     3  1.7430134  0.0005453  0.0009778 
    4    98     4  1.7430297  0.0004795 -0.0001815 
    4    99     1  1.7373556  0.0005406  0.0011375 
    4    99     2  1.7337895 -0.0005352  0.0010292 
    4    99     3  1.7373775  0.0004362 -0.0000161 
    4    99     4  1.7338216 -0.0006365 -0.0001240 
    4   100     1  1.7375991  0.0004333 -0.0000325 
    4   100     2  1.7375782  0.0005376  0.0011022 
    4   100     3  1.7340641 -0.0006332 -0.0001407 
    4   100     4  1.7340303 -0.0005328  0.0009934 
    4   101     1  1.7371481  0.0004385  1.82e-006 
    4   101     2  1.7371320  0.0005454  0.0011718 
    4   101     3  1.7335740 -0.0006396 -0.0001056 
    4   101     4  1.7335491 -0.0005354  0.0010636 
    4   102     1  1.7392369 -0.0006021 -0.0002447 
    4   102     2  1.7428301  0.0004786 -0.0001694 
    4   102     3  1.7392148 -0.0005354  0.0009313 
    4   102     4  1.7428178  0.0005482  0.0010058 
    4   103     1  1.7389861 -0.0005363  0.0009576 
    4   103     2  1.7390138 -0.0006031 -0.0002335 
    4   103     3  1.7426046  0.0005521  0.0010344 
    4   103     4  1.7426225  0.0004824 -0.0001564 
    4   104     1  1.7368945  0.0005450  0.0012055 
    4   104     2  1.7332978 -0.0005398  0.0010982 
    4   104     3  1.7369168  0.0004406  0.0000213 
    4   104     4  1.7333288 -0.0006416 -0.0000865 
    4   105     1  1.7483406  0.0005478  0.0008582 
    4   105     2  1.7447010 -0.0005447  0.0008192 
    4   105     3  1.7483546  0.0005211 -0.0003388 
    4   105     4  1.7447260 -0.0005681 -0.0003784 
    4   106     1  1.7485348  0.0005188 -0.0003438 
    4   106     2  1.7485250  0.0005476  0.0008378 
    4   106     3  1.7449215 -0.0005659 -0.0003829 
    4   106     4  1.7449024 -0.0005399  0.0007985 
    4   107     1  1.7506325 -0.0005424 -0.0005237 
    4   107     2  1.7542623  0.0005464 -0.0005173 
    4   107     3  1.7506170 -0.0005532  0.0006630 
    4   107     4  1.7542566  0.0005386  0.0006690 
    4   108     1  1.7504427 -0.0005562  0.0006759 
    4   108     2  1.7504608 -0.0005444 -0.0005276 
    4   108     3  1.7541010  0.0005412  0.0006825 
    4   108     4  1.7541073  0.0005495 -0.0005206 
    4   109     1  1.7502762 -0.0005488 -0.0005298 
    4   109     2  1.7539433  0.0005513 -0.0005203 
    4   109     3  1.7502530 -0.0005609  0.0006861 
    4   109     4  1.7539359  0.0005439  0.0006943 
    4   110     1  1.7500408 -0.0005640  0.0006973 
    4   110     2  1.7500709 -0.0005501 -0.0005331 
    4   110     3  1.7537549  0.0005502  0.0007077 
    4   110     4  1.7537641  0.0005578 -0.0005225 
    4   111     1  1.7479075  0.0005521  0.0009002 
    4   111     2  1.7442224 -0.0005541  0.0008575 
    4   111     3  1.7479396  0.0005301 -0.0003209 
    4   111     4  1.7442728 -0.0005707 -0.0003654 
    4   112     1  1.7481575  0.0005259 -0.0003298 
    4   112     2  1.7481356  0.0005498  0.0008775 
    4   112     3  1.7445116 -0.0005686 -0.0003706 
    4   112     4  1.7444764 -0.0005486  0.0008374 
    4   113     1  1.7387742 -0.0006064 -0.0002188 
    4   113     2  1.7423975  0.0004837 -0.0001378 
    4   113     3  1.7387330 -0.0005418  0.0009815 
    4   113     4  1.7423686  0.0005519  0.0010606 
    4   114     1  1.7384456 -0.0005437  0.0010069 
    4   114     2  1.7385030 -0.0006081 -0.0002057 
    4   114     3  1.7420976  0.0005553  0.0010919 
    4   114     4  1.7421423  0.0004873 -0.0001185 
    4   115     1  1.7363285  0.0005434  0.0012727 
    4   115     2  1.7327112 -0.0005481  0.0011601 
    4   115     3  1.7363817  0.0004448  0.0000726 
    4   115     4  1.7327726 -0.0006445 -0.0000428 
    4   116     1  1.7366643  0.0004448  0.0000462 
    4   116     2  1.7366275  0.0005447  0.0012371 
    4   116     3  1.7330643 -0.0006411 -0.0000632 
    4   116     4  1.7330201 -0.0005434  0.0011284 
    4   117     1  1.7360535  0.0004507  0.0001110 
    4   117     2  1.7359587  0.0005393  0.0013038 
    4   117     3  1.7324425 -0.0006400 -0.0000120 
    4   117     4  1.7323426 -0.0005525  0.0011845 
    4   118     1  1.7381968 -0.0006117 -0.0001849 
    4   118     2  1.7418467  0.0004881 -0.0000840 
    4   118     3  1.7380995 -0.0005517  0.0010267 
    4   118     4  1.7417686  0.0005533  0.0011212 
    4   119     1  1.7376691 -0.0005487  0.0010491 
    4   119     2  1.7378134 -0.0006123 -0.0001668 
    4   119     3  1.7413516  0.0005624  0.0011643 
    4   119     4  1.7414726  0.0004925 -0.0000424 
    4   120     1  1.7355095  0.0005319  0.0013459 
    4   120     2  1.7319078 -0.0005575  0.0012122 
    4   120     3  1.7356505  0.0004433  0.0001609 
    4   120     4  1.7320526 -0.0006460  0.0000169 
    4   121     1  1.7473059  0.0005645  0.0009513 
    4   121     2  1.7435329 -0.0005688  0.0008921 
    4   121     3  1.7473892  0.0005479 -0.0002859 
    4   121     4  1.7436567 -0.0005735 -0.0003524 
    4   122     1  1.7476893  0.0005401 -0.0003035 
    4   122     2  1.7476339  0.0005559  0.0009211 
    4   122     3  1.7439960 -0.0005689 -0.0003538 
    4   122     4  1.7439141 -0.0005609  0.0008736 
    4   123     1  1.7498435 -0.0005537 -0.0005336 
    4   123     2  1.7535766  0.0005661 -0.0005212 
    4   123     3  1.7497964 -0.0005738  0.0007060 
    4   123     4  1.7535626  0.0005559  0.0007170 
    4   124     1  1.7495067 -0.0005854  0.0007168 
    4   124     2  1.7495738 -0.0005633 -0.0005465 
    4   124     3  1.7533467  0.0005665  0.0007329 
    4   124     4  1.7533650  0.0005740 -0.0005275 
    4   125     1  1.7492520 -0.0005824 -0.0005630 
    4   125     2  1.7531447  0.0005856 -0.0005310 
    4   125     3  1.7491512 -0.0006027  0.0007208 
    4   125     4  1.7531203  0.0005882  0.0007487 
    4   126     1  1.7487191 -0.0006278  0.0007371 
    4   126     2  1.7488549 -0.0006126 -0.0005896 
    4   126     3  1.7528596  0.0006149  0.0007807 
    4   126     4  1.7528897  0.0005985 -0.0005436 
    4   127     1  1.7463382  0.0006113  0.0010385 
    4   127     2  1.7423204 -0.0006014  0.0009079 
    4   127     3  1.7465165  0.0005497 -0.0002367 
    4   127     4  1.7426122 -0.0006299 -0.0003771 
    4   128     1  1.7470088  0.0005607 -0.0002584 
    4   128     2  1.7468777  0.0005845  0.0009841 
    4   128     3  1.7432158 -0.0005807 -0.0003527 
    4   128     4  1.7430170 -0.0005766  0.0008992 
    4   129     1  1.7373361 -0.0006067 -0.0001358 
    4   129     2  1.7409825  0.0004994  0.0000296 
    4   129     3  1.7370913 -0.0005480  0.0010650 
    4   129     4  1.7407801  0.0005688  0.0012123 
    4   130     1  1.7362422 -0.0005456  0.0010637 
    4   130     2  1.7366421 -0.0006367 -0.0001303 
    4   130     3  1.7399740  0.0005972  0.0012849 
    4   130     4  1.7402767  0.0004818  0.0001158 
    4   131     1  1.7339750  0.0005110  0.0014642 
    4   131     2  1.7306292 -0.0005177  0.0012456 
    4   131     3  1.7343529  0.0004294  0.0004095 
    4   131     4  1.7310141 -0.0006060  0.0001430 
    4   132     1  1.7351261  0.0004362  0.0002494 
    4   132     2  1.7348913  0.0005226  0.0013928 
    4   132     3  1.7315866 -0.0006418  0.0000656 
    4   132     4  1.7313552 -0.0005518  0.0012281 
    4   133     1  1.7355510 -0.0007672 -0.0001445 
    4   133     2  1.7392740  0.0004100  0.0002080 
    4   133     3  1.7348996 -0.0006097  0.0010369 
    4   133     4  1.7388655  0.0006372  0.0013882 
    4   134     1  1.7330988 -0.0006906  0.0011705 
    4   134     2  1.7338074 -0.0007768 -0.0001730 
    4   134     3  1.7375980  0.0007145  0.0015560 
    4   134     4  1.7380958  0.0005592  0.0001789 
    4   135     1  1.7300276  0.0007551  0.0017959 
    4   135     2  1.7262479 -0.0006779  0.0010251 
    4   135     3  1.7307483  0.0002008  0.0008574 
    4   135     4  1.7276891 -0.0009382  0.0002609 
    4   136     1  1.7329108  0.0002315  0.0007430 
    4   136     2  1.7323928  0.0005129  0.0015638 
    4   136     3  1.7301463 -0.0007396  0.0002774 
    4   136     4  1.7294240 -0.0004851  0.0011517 
    4   137     1  1.7449565  0.0006784  0.0012045 
    4   137     2  1.7404731 -0.0006790  0.0010189 
    4   137     3  1.7452043  0.0006138 -0.0001935 
    4   137     4  1.7408831 -0.0006942 -0.0003691 
    4   138     1  1.7459028  0.0005520 -0.0002072 
    4   138     2  1.7456749  0.0006343  0.0011145 
    4   138     3  1.7418116 -0.0006882 -0.0003830 
    4   138     4  1.7414303 -0.0006515  0.0009402 
    4   139     1  1.7483828 -0.0006365 -0.0005988 
    4   139     2  1.7526037  0.0006304 -0.0005493 
    4   139     3  1.7482095 -0.0006647  0.0007697 
    4   139     4  1.7525631  0.0006421  0.0008199 
    4   140     1  1.7476429 -0.0007023  0.0008178 
    4   140     2  1.7478248 -0.0006689 -0.0006194 
    4   140     3  1.7522222  0.0006720  0.0008700 
    4   140     4  1.7522658  0.0006640 -0.0005693 
    4   141     1  1.7472578 -0.0006946 -0.0006336 
    4   141     2  1.7519164  0.0007034 -0.0005887 
    4   141     3  1.7470930 -0.0007270  0.0008540 
    4   141     4  1.7518761  0.0007083  0.0009041 
    4   142     1  1.7465683 -0.0007563  0.0008986 
    4   142     2  1.7466982 -0.0007245 -0.0006527 
    4   142     3  1.7515323  0.0007330  0.0009384 
    4   142     4  1.7515657  0.0007359 -0.0006191 
    4   143     1  1.7436641  0.0007600  0.0013072 
    4   143     2  1.7387419 -0.0007243  0.0011556 
    4   143     3  1.7438259  0.0006893 -0.0002416 
    4   143     4  1.7389915 -0.0007673 -0.0003740 
    4   144     1  1.7444840  0.0006704 -0.0002210 
    4   144     2  1.7442637  0.0007429  0.0012679 
    4   144     3  1.7398382 -0.0007332 -0.0003850 
    4   144     4  1.7394882 -0.0007012  0.0010848 
    4   145     1  1.7325188 -0.0008201 -0.0001648 
    4   145     2  1.7369506  0.0005574  0.0001737 
    4   145     3  1.7320004 -0.0006074  0.0011973 
    4   145     4  1.7365840  0.0008267  0.0015829 
    4   146     1  1.7306775 -0.0007714  0.0014908 
    4   146     2  1.7309856 -0.0008501 -0.0000658 
    4   146     3  1.7356885  0.0007511  0.0017400 
    4   146     4  1.7359771  0.0006618  0.0001404 
    4   147     1  1.7276173  0.0007715  0.0021066 
    4   147     2  1.7224973 -0.0007856  0.0018581 
    4   147     3  1.7279233  0.0006390  0.0004792 
    4   147     4  1.7227696 -0.0009264  0.0002439 
    4   148     1  1.7289741  0.0007297  0.0004707 
    4   148     2  1.7283460  0.0009349  0.0021824 
    4   148     3  1.7236708 -0.0009162  0.0000674 
    4   148     4  1.7233450 -0.0006598  0.0016143 
    4   149     1  1.7270509  0.0006372  0.0005134 
    4   149     2  1.7268185  0.0007273  0.0021320 
    4   149     3  1.7219244 -0.0009122  0.0003282 
    4   149     4  1.7216873 -0.0008248  0.0019344 
    4   150     1  1.7301102 -0.0008470 -9.03e-007 
    4   150     2  1.7351942  0.0006858  0.0001509 
    4   150     3  1.7298840 -0.0007903  0.0015948 
    4   150     4  1.7349968  0.0007525  0.0017630 
    4   151     1  1.7291876 -0.0008122  0.0016748 
    4   151     2  1.7293696 -0.0008489  0.0000460 
    4   151     3  1.7343691  0.0007473  0.0018053 
    4   151     4  1.7345211  0.0007011  0.0001673 
    4   152     1  1.7261198  0.0007223  0.0021908 
    4   152     2  1.7209477 -0.0008387  0.0020207 
    4   152     3  1.7263051  0.0006399  0.0005572 
    4   152     4  1.7211502 -0.0009154  0.0003943 
    4   153     1  1.7426052  0.0007532  0.0014026 
    4   153     2  1.7374152 -0.0008048  0.0013306 
    4   153     3  1.7427045  0.0007516 -0.0002367 
    4   153     4  1.7375587 -0.0007931 -0.0003014 
    4   154     1  1.7432412  0.0007260 -0.0002409 
    4   154     2  1.7431113  0.0007387  0.0013614 
    4   154     3  1.7382057 -0.0007866 -0.0003263 
    4   154     4  1.7380195 -0.0007912  0.0012631 
    4   155     1  1.7461966 -0.0007442 -0.0006529 
    4   155     2  1.7512257  0.0007643 -0.0006336 
    4   155     3  1.7460948 -0.0007842  0.0009416 
    4   155     4  1.7511960  0.0007460  0.0009659 
    4   156     1  1.7456314 -0.0008103  0.0009889 
    4   156     2  1.7457138 -0.0007589 -0.0006517 
    4   156     3  1.7508448  0.0007533  0.0009989 
    4   156     4  1.7508734  0.0007886 -0.0006442 
    4   157     1  1.7452491 -0.0007667 -0.0006513 
    4   157     2  1.7505035  0.0008093 -0.0006506 
    4   157     3  1.7451764 -0.0008233  0.0010230 
    4   157     4  1.7504756  0.0007660  0.0010258 
    4   158     1  1.7447155 -0.0008377  0.0010527 
    4   158     2  1.7447845 -0.0007755 -0.0006546 
    4   158     3  1.7500851  0.0007728  0.0010500 
    4   158     4  1.7501136  0.0008228 -0.0006577 
    4   159     1  1.7416157  0.0007709  0.0014847 
    4   159     2  1.7362862 -0.0008282  0.0014336 
    4   159     3  1.7416946  0.0007816 -0.0002111 
    4   159     4  1.7364017 -0.0008066 -0.0002606 
    4   160     1  1.7421983  0.0007676 -0.0002246 
    4   160     2  1.7421129  0.0007606  0.0014419 
    4   160     3  1.7369726 -0.0008006 -0.0002787 
    4   160     4  1.7368480 -0.0008194  0.0013848 
    4   161     1  1.7256117  0.0006468  0.0006077 
    4   161     2  1.7254467  0.0007178  0.0022579 
    4   161     3  1.7204172 -0.0009187  0.0004590 
    4   161     4  1.7202319 -0.0008540  0.0021049 
    4   162     1  1.7286957 -0.0008505  0.0000907 
    4   162     2  1.7339046  0.0007154  0.0001959 
    4   162     3  1.7285337 -0.0008255  0.0017440 
    4   162     4  1.7337729  0.0007497  0.0018545 
    4   163     1  1.7278891 -0.0008374  0.0018126 
    4   163     2  1.7280415 -0.0008545  0.0001309 
    4   163     3  1.7331818  0.0007531  0.0019119 
    4   163     4  1.7333045  0.0007270  0.0002278 
    4   164     1  1.7247798  0.0007204  0.0023324 
    4   164     2  1.7195244 -0.0008627  0.0021883 
    4   164     3  1.7249343  0.0006547  0.0006599 
    4   164     4  1.7197012 -0.0009215  0.0005184 
    4   165     1  1.7242501  0.0006608  0.0007180 
    4   165     2  1.7240868  0.0007200  0.0024120 
    4   165     3  1.7189837 -0.0009252  0.0005766 
    4   165     4  1.7187975 -0.0008728  0.0022713 
    4   166     1  1.7273842 -0.0008567  0.0001691 
    4   166     2  1.7326952  0.0007389  0.0002634 
    4   166     3  1.7272223 -0.0008485  0.0018801 
    4   166     4  1.7325653  0.0007568  0.0019748 
    4   167     1  1.7265144 -0.0008577  0.0019458 
    4   167     2  1.7266921 -0.0008612  0.0002067 
    4   167     3  1.7319093  0.0007631  0.0020422 
    4   167     4  1.7320517  0.0007491  0.0003052 
    4   168     1  1.7233466  0.0007254  0.0024981 
    4   168     2  1.7180251 -0.0008774  0.0023530 
    4   168     3  1.7235261  0.0006683  0.0007836 
    4   168     4  1.7182312 -0.0009267  0.0006363 
    4   169     1  1.7405423  0.0007884  0.0015783 
    4   169     2  1.7350848 -0.0008490  0.0015274 
    4   169     3  1.7406324  0.0008059 -0.0001797 
    4   169     4  1.7352165 -0.0008190 -0.0002316 
    4   170     1  1.7411793  0.0007931 -0.0001967 
    4   170     2  1.7410962  0.0007774  0.0015308 
    4   170     3  1.7358254 -0.0008133 -0.0002458 
    4   170     4  1.7357042 -0.0008404  0.0014823 
    4   171     1  1.7443047 -0.0007830 -0.0006612 
    4   171     2  1.7497006  0.0008353 -0.0006656 
    4   171     3  1.7442324 -0.0008500  0.0010815 
    4   171     4  1.7496702  0.0007809  0.0010769 
    4   172     1  1.7437203 -0.0008627  0.0011075 
    4   172     2  1.7437986 -0.0007903 -0.0006684 
    4   172     3  1.7492353  0.0007913  0.0011019 
    4   172     4  1.7492682  0.0008501 -0.0006738 
    4   173     1  1.7432580 -0.0007988 -0.0006812 
    4   173     2  1.7488053  0.0008648 -0.0006868 
    4   173     3  1.7431652 -0.0008793  0.0011392 
    4   173     4  1.7487678  0.0008009  0.0011330 
    4   174     1  1.7425630 -0.0008993  0.0011689 
    4   174     2  1.7426706 -0.0008140 -0.0006955 
    4   174     3  1.7482762  0.0008141  0.0011644 
    4   174     4  1.7483178  0.0008796 -0.0006980 
    4   175     1  1.7392701  0.0008124  0.0016921 
    4   175     2  1.7336387 -0.0008777  0.0016242 
    4   175     3  1.7393984  0.0008283 -0.0001422 
    4   175     4  1.7338312 -0.0008426 -0.0002141 
    4   176     1  1.7400464  0.0008184 -0.0001640 
    4   176     2  1.7399371  0.0007976  0.0016338 
    4   176     3  1.7345624 -0.0008271 -0.0002229 
    4   176     4  1.7344016 -0.0008634  0.0015779 
    4   177     1  1.7227373  0.0006730  0.0008603 
    4   177     2  1.7225131  0.0007253  0.0025944 
    4   177     3  1.7174214 -0.0009296  0.0006973 
    4   177     4  1.7171665 -0.0008860  0.0024385 
    4   178     1  1.7259448 -0.0008651  0.0002411 
    4   178     2  1.7313519  0.0007600  0.0003513 
    4   178     3  1.7257238 -0.0008683  0.0020141 
    4   178     4  1.7311760  0.0007701  0.0021195 
    4   179     1  1.7248231 -0.0008780  0.0020793 
    4   179     2  1.7250932 -0.0008772  0.0002756 
    4   179     3  1.7303493  0.0007839  0.0022036 
    4   179     4  1.7305620  0.0007678  0.0004067 
    4   180     1  1.7215557  0.0007366  0.0027023 
    4   180     2  1.7161789 -0.0008864  0.0025207 
    4   180     3  1.7218319  0.0006766  0.0009540 
    4   180     4  1.7164992 -0.0009341  0.0007615 
    4   181     1  1.7207690  0.0006701  0.0010615 
    4   181     2  1.7204060  0.0007475  0.0028265 
    4   181     3  1.7154145 -0.0009536  0.0008206 
    4   181     4  1.7149805 -0.0008957  0.0026018 
    4   182     1  1.7241159 -0.0009060  0.0003041 
    4   182     2  1.7296615  0.0007648  0.0004671 
    4   182     3  1.7237649 -0.0008996  0.0021493 
    4   182     4  1.7293930  0.0007953  0.0023035 
    4   183     1  1.7225378 -0.0009299  0.0022300 
    4   183     2  1.7229607 -0.0009528  0.0003412 
    4   183     3  1.7283071  0.0008111  0.0024217 
    4   183     4  1.7286224  0.0007565  0.0005388 
    4   184     1  1.7190451  0.0007707  0.0029742 
    4   184     2  1.7134962 -0.0009220  0.0026759 
    4   184     3  1.7194862  0.0006305  0.0011799 
    4   184     4  1.7140627 -0.0010269  0.0008686 
    4   185     1  1.7376934  0.0008434  0.0018485 
    4   185     2  1.7317955 -0.0009280  0.0017478 
    4   185     3  1.7378764  0.0008485 -0.0000873 
    4   185     4  1.7320778 -0.0008932 -0.0001903 
    4   186     1  1.7386814  0.0008362 -0.0001193 
    4   186     2  1.7385223  0.0008255  0.0017658 
    4   186     3  1.7330118 -0.0008661 -0.0002078 
    4   186     4  1.7327705 -0.0009013  0.0016819 
    4   187     1  1.7420278 -0.0008327 -0.0007135 
    4   187     2  1.7477889  0.0008950 -0.0007109 
    4   187     3  1.7418974 -0.0009225  0.0012071 
    4   187     4  1.7477418  0.0008302  0.0012076 
    4   188     1  1.7411673 -0.0009487  0.0012479 
    4   188     2  1.7413156 -0.0008527 -0.0007258 
    4   188     3  1.7471715  0.0008519  0.0012522 
    4   188     4  1.7472236  0.0009190 -0.0007207 
    4   189     1  1.7405383 -0.0008739 -0.0007375 
    4   189     2  1.7466045  0.0009451 -0.0007324 
    4   189     3  1.7403710 -0.0009808  0.0013016 
    4   189     4  1.7465461  0.0008709  0.0013062 
    4   190     1  1.7395201 -0.0010112  0.0013538 
    4   190     2  1.7396950 -0.0008955 -0.0007453 
    4   190     3  1.7458791  0.0008955  0.0013572 
    4   190     4  1.7459413  0.0009775 -0.0007425 
    4   191     1  1.7358194  0.0008902  0.0020413 
    4   191     2  1.7295552 -0.0009911  0.0019289 
    4   191     3  1.7360399  0.0009107 -0.0000262 
    4   191     4  1.7298928 -0.0009353 -0.0001349 
    4   192     1  1.7369948  0.0008734 -0.0000563 
    4   192     2  1.7367848  0.0008618  0.0019462 
    4   192     3  1.7310347 -0.0009169 -0.0001661 
    4   192     4  1.7307105 -0.0009628  0.0018362 
    4   193     1  1.7216410 -0.0009815  0.0004008 
    4   193     2  1.7274565  0.0007755  0.0006165 
    4   193     3  1.7211429 -0.0009702  0.0023477 
    4   193     4  1.7270890  0.0008259  0.0025633 
    4   194     1  1.7196249 -0.0009970  0.0024838 
    4   194     2  1.7201414 -0.0009972  0.0004641 
    4   194     3  1.7257973  0.0008670  0.0027081 
    4   194     4  1.7261839  0.0008272  0.0006793 
    4   195     1  1.7157765  0.0008320  0.0033666 
    4   195     2  1.7097659 -0.0010074  0.0030021 
    4   195     3  1.7163439  0.0007102  0.0014086 
    4   195     4  1.7105036 -0.0010758  0.0010633 
    4   196     1  1.7179906  0.0006175  0.0013002 
    4   196     2  1.7174623  0.0007847  0.0031636 
    4   196     3  1.7123949 -0.0011006  0.0009421 
    4   196     4  1.7117010 -0.0009826  0.0028045 
    4   197     1  1.7186102 -0.0010067  0.0005309 
    4   197     2  1.7248699  0.0008806  0.0007299 
    4   197     3  1.7181058 -0.0010201  0.0026221 
    4   197     4  1.7244828  0.0009032  0.0028347 
    4   198     1  1.7166130 -0.0010575  0.0027636 
    4   198     2  1.7170684 -0.0010310  0.0006051 
    4   198     3  1.7231809  0.0009201  0.0029509 
    4   198     4  1.7235472  0.0009191  0.0007777 
    4   199     1  1.7125708  0.0008936  0.0036763 
    4   199     2  1.7060839 -0.0010725  0.0033908 
    4   199     3  1.7130506  0.0008157  0.0015222 
    4   199     4  1.7066318 -0.0011272  0.0012654 
    4   200     1  1.7146606  0.0007920  0.0014500 
    4   200     2  1.7141095  0.0009045  0.0035405 
    4   200     3  1.7084397 -0.0011014  0.0011334 
    4   200     4  1.7077700 -0.0010284  0.0031922 
    4   201     1  1.7337883  0.0009372  0.0022096 
    4   201     2  1.7271520 -0.0010542  0.0021176 
    4   201     3  1.7340121  0.0009896  0.0000174 
    4   201     4  1.7274796 -0.0009707 -0.0000685 
    4   202     1  1.7350410  0.0009547 -5.79e-006 
    4   202     2  1.7348141  0.0009183  0.0021309 
    4   202     3  1.7286952 -0.0009502 -0.0001041 
    4   202     4  1.7283547 -0.0010209  0.0020256 
    4   203     1  1.7388076 -0.0009191 -0.0007536 
    4   203     2  1.7452339  0.0010078 -0.0007535 
    4   203     3  1.7386288 -0.0010430  0.0014072 
    4   203     4  1.7451690  0.0009180  0.0014075 
    4   204     1  1.7377051 -0.0010720  0.0014555 
    4   204     2  1.7378822 -0.0009417 -0.0007600 
    4   204     3  1.7444279  0.0009438  0.0014529 
    4   204     4  1.7444941  0.0010408 -0.0007637 
    4   205     1  1.7369284 -0.0009662 -0.0007642 
    4   205     2  1.7437229  0.0010710 -0.0007695 
    4   205     3  1.7367430 -0.0011064  0.0015029 
    4   205     4  1.7436529  0.0009654  0.0014965 
    4   206     1  1.7357115 -0.0011397  0.0015465 
    4   206     2  1.7359188 -0.0009889 -0.0007742 
    4   206     3  1.7428382  0.0009971  0.0015412 
    4   206     4  1.7429151  0.0011087 -0.0007775 
    4   207     1  1.7315731  0.0009646  0.0023755 
    4   207     2  1.7246034 -0.0011256  0.0023008 
    4   207     3  1.7318404  0.0010643  0.0001022 
    4   207     4  1.7249795 -0.0009932  0.0000228 
    4   208     1  1.7329558  0.0010261  0.0000522 
    4   208     2  1.7327192  0.0009478  0.0022891 
    4   208     3  1.7262526 -0.0009846 -0.0000230 
    4   208     4  1.7259154 -0.0010930  0.0022111 
    4   209     1  1.7115229  0.0008709  0.0016226 
    4   209     2  1.7110473  0.0008285  0.0038348 
    4   209     3  1.7048931 -0.0011243  0.0014412 
    4   209     4  1.7043929 -0.0011749  0.0036356 
    4   210     1  1.7156103 -0.0010433  0.0007066 
    4   210     2  1.7222334  0.0009474  0.0008547 
    4   210     3  1.7151650 -0.0011072  0.0029074 
    4   210     4  1.7218615  0.0009057  0.0030622 
    4   211     1  1.7136595 -0.0011392  0.0030469 
    4   211     2  1.7141335 -0.0010423  0.0008154 
    4   211     3  1.7204558  0.0009022  0.0031892 
    4   211     4  1.7208648  0.0009796  0.0009626 
    4   212     1  1.7095133  0.0008132  0.0039650 
    4   212     2  1.7028279 -0.0011964  0.0038014 
    4   212     3  1.7100020  0.0008938  0.0017559 
    4   212     4  1.7033252 -0.0011134  0.0015908 
    4   213     1  1.7083769  0.0008945  0.0019582 
    4   213     2  1.7077767  0.0007919  0.0041053 
    4   213     3  1.7017865 -0.0010886  0.0017559 
    4   213     4  1.7011986 -0.0011867  0.0039277 
    4   214     1  1.7125949 -0.0010186  0.0009340 
    4   214     2  1.7193435  0.0010103  0.0011258 
    4   214     3  1.7119890 -0.0011410  0.0031595 
    4   214     4  1.7188235  0.0009131  0.0033270 
    4   215     1  1.7098761 -0.0011350  0.0032340 
    4   215     2  1.7107471 -0.0010469  0.0010226 
    4   215     3  1.7167774  0.0009510  0.0035068 
    4   215     4  1.7174688  0.0009887  0.0013380 
    4   216     1  1.7055365  0.0007635  0.0042914 
    4   216     2  1.6993418 -0.0011077  0.0040393 
    4   216     3  1.7063681  0.0008842  0.0023160 
    4   216     4  1.7001758 -0.0009915  0.0019822 
    4   217     1  1.7287454  0.0010381  0.0026058 
    4   217     2  1.7212700 -0.0012082  0.0024446 
    4   217     3  1.7291707  0.0010985  0.0002506 
    4   217     4  1.7219182 -0.0010814  0.0000742 
    4   218     1  1.7306054  0.0011010  0.0001728 
    4   218     2  1.7302671  0.0009956  0.0024735 
    4   218     3  1.7235797 -0.0010065  0.0000624 
    4   218     4  1.7230953 -0.0011558  0.0023759 
    4   219     1  1.7348266 -0.0010248 -0.0007927 
    4   219     2  1.7420691  0.0011465 -0.0007860 
    4   219     3  1.7345669 -0.0011864  0.0015860 
    4   219     4  1.7419796  0.0010360  0.0015880 
    4   220     1  1.7332752 -0.0012497  0.0016396 
    4   220     2  1.7336002 -0.0010848 -0.0008199 
    4   220     3  1.7410486  0.0010809  0.0016590 
    4   220     4  1.7411515  0.0011791 -0.0007951 
    4   221     1  1.7322205 -0.0011361 -0.0008129 
    4   221     2  1.7401427  0.0012386 -0.0007811 
    4   221     3  1.7318137 -0.0013321  0.0017219 
    4   221     4  1.7400162  0.0011268  0.0017507 
    4   222     1  1.7301586 -0.0014188  0.0018288 
    4   222     2  1.7306298 -0.0011876 -0.0008070 
    4   222     3  1.7388582  0.0011886  0.0018597 
    4   222     4  1.7390062  0.0013229 -0.0007771 
    4   223     1  1.7249690  0.0011113  0.0029926 
    4   223     2  1.7166219 -0.0013959  0.0027767 
    4   223     3  1.7256161  0.0012651  0.0004502 
    4   223     4  1.7175921 -0.0011450  0.0002459 
    4   224     1  1.7274979  0.0011161  0.0003487 
    4   224     2  1.7269604  0.0010647  0.0027852 
    4   224     3  1.7198898 -0.0011743  0.0001247 
    4   224     4  1.7190574 -0.0013140  0.0025636 
    4   225     1  1.7081819 -0.0012303  0.0010918 
    4   225     2  1.7150396  0.0008827  0.0015699 
    4   225     3  1.7068463 -0.0012375  0.0032873 
    4   225     4  1.7141344  0.0010015  0.0037588 
    4   226     1  1.7028173 -0.0014317  0.0036473 
    4   226     2  1.7043398 -0.0012130  0.0011750 
    4   226     3  1.7110655  0.0010792  0.0041362 
    4   226     4  1.7122315  0.0011868  0.0016154 
    4   227     1  1.6969694  0.0011290  0.0051505 
    4   227     2  1.6902948 -0.0012162  0.0040427 
    4   227     3  1.6984586  0.0005257  0.0033967 
    4   227     4  1.6929695 -0.0013665  0.0025504 
    4   228     1  1.7031071  0.0004609  0.0030374 
    4   228     2  1.7020609  0.0007478  0.0045726 
    4   228     3  1.6980814 -0.0012149  0.0023385 
    4   228     4  1.6966899 -0.0009859  0.0039773 
    4   229     1  1.6944723  0.0016820  0.0029050 
    4   229     2  1.6928928  0.0012890  0.0060144 
    4   229     3  1.6848800 -0.0012024  0.0026112 
    4   229     4  1.6840213 -0.0013874  0.0054046 
    4   230     1  1.7012381 -0.0011499  0.0013376 
    4   230     2  1.7093067  0.0012994  0.0017215 
    4   230     3  1.6999139 -0.0012782  0.0037974 
    4   230     4  1.7081876  0.0012391  0.0042435 
    4   231     1  1.6961533 -0.0015995  0.0043520 
    4   231     2  1.6973347 -0.0012028  0.0016152 
    4   231     3  1.7049605  0.0010385  0.0045953 
    4   231     4  1.7063585  0.0015005  0.0018362 
    4   232     1  1.6903106  0.0009753  0.0059106 
    4   232     2  1.6814285 -0.0016812  0.0059286 
    4   232     3  1.6914278  0.0015667  0.0030466 
    4   232     4  1.6822446 -0.0011850  0.0031219 
    4   233     1  1.7199574  0.0012233  0.0033446 
    4   233     2  1.7111240 -0.0014153  0.0031868 
    4   233     3  1.7210367  0.0016804  0.0007628 
    4   233     4  1.7124655 -0.0008771  0.0005581 
    4   234     1  1.7235335  0.0014345  0.0005125 
    4   234     2  1.7227629  0.0012050  0.0031714 
    4   234     3  1.7149403 -0.0011435  0.0003169 
    4   234     4  1.7138790 -0.0014602  0.0029659 
    4   235     1  1.7289134 -0.0011938 -0.0007974 
    4   235     2  1.7377673  0.0014585 -0.0007809 
    4   235     3  1.7283337 -0.0015049  0.0019243 
    4   235     4  1.7375792  0.0012648  0.0019383 
    4   236     1  1.7259626 -0.0016414  0.0019815 
    4   236     2  1.7268576 -0.0011961 -0.0009117 
    4   236     3  1.7361649  0.0014131  0.0019981 
    4   236     4  1.7364429  0.0016720 -0.0008700 
    4   237     1  1.7239106 -0.0014171 -0.0010986 
    4   237     2  1.7348836  0.0018730 -0.0010106 
    4   237     3  1.7222765 -0.0019556  0.0020406 
    4   237     4  1.7344262  0.0016869  0.0021673 
    4   238     1  1.7170492 -0.0026968  0.0027420 
    4   238     2  1.7191662 -0.0012985 -0.0009085 
    4   238     3  1.7325178  0.0019204  0.0024096 
    4   238     4  1.7332974  0.0029356 -0.0012877 
    4   239     1  1.7070223  0.0017312  0.0045640 
    4   239     2  1.6952717 -0.0017758  0.0040524 
    4   239     3  1.7102823  0.0028123  0.0013302 
    4   239     4  1.7003117 -0.0001757  0.0012754 
    4   240     1  1.7169052  0.0014565  0.0014558 
    4   240     2  1.7152726  0.0011521  0.0037162 
    4   240     3  1.7092126 -0.0008896  0.0009000 
    4   240     4  1.7068316 -0.0014083  0.0032777 
    4   241     1  1.6881091  0.0010200  0.0034368 
    4   241     2  1.6874212  0.0005892  0.0061226 
    4   241     3  1.6797697 -0.0015292  0.0040961 
    4   241     4  1.6800365 -0.0016354  0.0063169 
    4   242     1  1.6951854  0.0000895  0.0019015 
    4   242     2  1.7027340  0.0021398  0.0022977 
    4   242     3  1.6934471 -0.0012027  0.0045053 
    4   242     4  1.7004004  0.0007971  0.0045047 
    4   243     1  1.6905583  0.0007935  0.0053302 
    4   243     2  1.6860527 -0.0019960  0.0071231 
    4   243     3  1.6876592  0.0014904  0.0054085 
    4   243     4  1.6852970 -0.0007004  0.0066628 
    4   244     1  1.6651664 -0.0017638  0.0049057 
    4   244     2  1.6747869  0.0011755  0.0043441 
    4   244     3  1.6644106 -0.0023990  0.0078429 
    4   244     4  1.6750245  0.0008101  0.0074641 
    4   245     1  1.6625475 -0.0039948  0.0086804 
    4   245     2  1.6631384 -0.0022326  0.0042998 
    4   245     3  1.6796676  0.0013437  0.0072897 
    4   245     4  1.6764586  0.0017956  0.0035619 
    4   246     1  1.6520175  0.0011110  0.0101147 
    4   246     2  1.6393992 -0.0026923  0.0095924 
    4   246     3  1.6546069  0.0017526  0.0066873 
    4   246     4  1.6443992 -0.0013126  0.0065586 
    4   247     1  1.6601930  0.0009044  0.0063728 
    4   247     2  1.6590343  0.0003881  0.0089322 
    4   247     3  1.6521240 -0.0014931  0.0060940 
    4   247     4  1.6499318 -0.0023322  0.0088561 
    4   248     1  1.6671150 -0.0020168  0.0075356 
    4   248     2  1.6678444 -0.0013993  0.0047815 
    4   248     3  1.6759491  0.0006361  0.0073441 
    4   248     4  1.6767045  0.0012663  0.0045557 
    4   249     1  1.6619891  0.0003491  0.0085365 
    4   249     2  1.6532632 -0.0022833  0.0088206 
    4   249     3  1.6627424  0.0010217  0.0058497 
    4   249     4  1.6541329 -0.0015581  0.0060258 
    4   250     1  1.6637539  0.0009949  0.0052538 
    4   250     2  1.6635649  0.0001493  0.0078958 
    4   250     3  1.6553180 -0.0015791  0.0057372 
    4   250     4  1.6548849 -0.0025188  0.0084586 
    4   251     1  1.6696009 -0.0016379  0.0044126 
    4   251     2  1.6797141  0.0014243  0.0040043 
    4   251     3  1.6693316 -0.0023475  0.0076982 
    4   251     4  1.6789429  0.0006268  0.0069760 
    4   252     1  1.6392787 -0.0025924  0.0096070 
    4   252     2  1.6400995 -0.0019133  0.0068133 
    4   252     3  1.6479545  0.0000161  0.0093882 
    4   252     4  1.6488101  0.0006964  0.0066526 
    4   253     1  1.6340109 -0.0002345  0.0105969 
    4   253     2  1.6257365 -0.0027235  0.0108350 
    4   253     3  1.6347845  0.0004753  0.0079282 
    4   253     4  1.6264696 -0.0020311  0.0081962 
    4   254     1  1.6368144  0.0003978  0.0076521 
    4   254     2  1.6361604 -0.0002241  0.0102694 
    4   254     3  1.6286969 -0.0020416  0.0078565 
    4   254     4  1.6279401 -0.0026941  0.0104743 
    4   255     1  1.6418242 -0.0019123  0.0066983 
    4   255     2  1.6502700  0.0006331  0.0064326 
    4   255     3  1.6412253 -0.0025661  0.0094132 
    4   255     4  1.6498135  0.0000270  0.0091152 
    4   256     1  1.6320632 -0.0001072  0.0084938 
    4   256     2  1.6315585 -0.0005586  0.0110490 
    4   256     3  1.6243368 -0.0024952  0.0092122 
    4   256     4  1.6246043 -0.0026659  0.0113380 
    4   257     1  1.6387479 -0.0008032  0.0070723 
    4   257     2  1.6462915  0.0012543  0.0073296 
    4   257     3  1.6372273 -0.0021558  0.0097686 
    4   257     4  1.6442579 -0.0000999  0.0096032 
    4   258     1  1.6345422 -0.0003749  0.0104961 
    4   258     2  1.6306769 -0.0031290  0.0122396 
    4   258     3  1.6321682  0.0005004  0.0107712 
    4   258     4  1.6301334 -0.0017010  0.0119220 
    4   259     1  1.6126972 -0.0029879  0.0121407 
    4   259     2  1.6135944 -0.0024327  0.0096479 
    4   259     3  1.6207000 -0.0005890  0.0120329 
    4   259     4  1.6214144 -0.0000836  0.0094995 
    4   260     1  1.6077585 -0.0010560  0.0131619 
    4   260     2  1.5999880 -0.0033772  0.0131582 
    4   260     3  1.6087638 -0.0005205  0.0106989 
    4   260     4  1.6011885 -0.0027807  0.0106675 
    4   261     1  1.6110872 -0.0006172  0.0101423 
    4   261     2  1.6101920 -0.0009905  0.0126128 
    4   261     3  1.6034994 -0.0028896  0.0100928 
    4   261     4  1.6025045 -0.0032924  0.0125564 
    4   262     1  1.6160180 -0.0023571  0.0091057 
    4   262     2  1.6237429 -0.0000439  0.0090169 
    4   262     3  1.6151358 -0.0029173  0.0115986 
    4   262     4  1.6229761 -0.0005706  0.0115169 
    4   263     1  1.6106878 -0.0028050  0.0099125 
    4   263     2  1.6196147 -0.0000712  0.0093638 
    4   263     3  1.6097861 -0.0034980  0.0126986 
    4   263     4  1.6197743 -0.0004770  0.0123325 
    4   264     1  1.6076989 -0.0051584  0.0137860 
    4   264     2  1.6085175 -0.0031970  0.0094744 
    4   264     3  1.6244192  0.0000827  0.0123275 
    4   264     4  1.6213374  0.0006837  0.0086987 
    4   265     1  1.5973495 -0.0002327  0.0150537 
    4   265     2  1.5853489 -0.0038695  0.0144375 
    4   265     3  1.6000661  0.0003336  0.0117112 
    4   265     4  1.5903318 -0.0025926  0.0115337 
    4   266     1  1.6058846 -0.0006254  0.0113433 
    4   266     2  1.6046410 -0.0009938  0.0137300 
    4   266     3  1.5985801 -0.0028174  0.0109594 
    4   266     4  1.5962943 -0.0034982  0.0134911 
    4   267     1  1.5867660 -0.0038114  0.0138517 
    4   267     2  1.5879893 -0.0034036  0.0112346 
    4   267     3  1.5948001 -0.0014038  0.0140011 
    4   267     4  1.5960513 -0.0009879  0.0113991 
    4   268     1  1.5813547 -0.0017562  0.0150904 
    4   268     2  1.5735771 -0.0040847  0.0149433 
    4   268     3  1.5825509 -0.0013286  0.0125062 
    4   268     4  1.5747270 -0.0036726  0.0124182 
    4   269     1  1.5855935 -0.0014193  0.0120914 
    4   269     2  1.5844365 -0.0017010  0.0145555 
    4   269     3  1.5780900 -0.0036755  0.0118676 
    4   269     4  1.5768543 -0.0039814  0.0143090 
    4   270     1  1.5907746 -0.0033553  0.0108638 
    4   270     2  1.5985082 -0.0010345  0.0110271 
    4   270     3  1.5896468 -0.0036806  0.0133692 
    4   270     4  1.5974603 -0.0013357  0.0135422 
    4   271     1  1.5791551 -0.0016862  0.0131086 
    4   271     2  1.5782674 -0.0020937  0.0157075 
    4   271     3  1.5715185 -0.0040035  0.0136491 
    4   271     4  1.5714429 -0.0041434  0.0158014 
    4   272     1  1.5858741 -0.0022717  0.0116841 
    4   272     2  1.5928278 -0.0003710  0.0120956 
    4   272     3  1.5840990 -0.0034962  0.0142492 
    4   272     4  1.5906294 -0.0016093  0.0142672 
    4   273     1  1.5811196 -0.0017889  0.0153051 
    4   273     2  1.5766481 -0.0047873  0.0172298 
    4   273     3  1.5784903 -0.0007192  0.0154585 
    4   273     4  1.5761032 -0.0031701  0.0167796 
    4   274     1  1.5579349 -0.0046302  0.0142196 
    4   274     2  1.5667706 -0.0019769  0.0139868 
    4   274     3  1.5566752 -0.0050436  0.0170328 
    4   274     4  1.5665062 -0.0020953  0.0170940 
    4   275     1  1.5537104 -0.0069088  0.0186868 
    4   275     2  1.5549533 -0.0048014  0.0142154 
    4   275     3  1.5704776 -0.0017206  0.0174025 
    4   275     4  1.5677705 -0.0009318  0.0134784 
    4   276     1  1.5431400 -0.0017258  0.0199754 
    4   276     2  1.5311640 -0.0055434  0.0187503 
    4   276     3  1.5459835 -0.0020247  0.0163472 
    4   276     4  1.5359711 -0.0050662  0.0158113 
    4   277     1  1.5525085 -0.0029952  0.0162977 
    4   277     2  1.5511806 -0.0026317  0.0185105 
    4   277     3  1.5458854 -0.0051644  0.0154563 
    4   277     4  1.5435769 -0.0050750  0.0176851 
    4   278     1  1.5607739 -0.0044325  0.0161379 
    4   278     2  1.5620667 -0.0042578  0.0137828 
    4   278     3  1.5682690 -0.0021609  0.0164854 
    4   278     4  1.5693706 -0.0020501  0.0140555 
    4   279     1  1.5554102 -0.0027294  0.0176051 
    4   279     2  1.5483589 -0.0049110  0.0170567 
    4   279     3  1.5567630 -0.0027156  0.0153546 
    4   279     4  1.5499633 -0.0048206  0.0148185 
    4   280     1  1.5603840 -0.0029121  0.0145358 
    4   280     2  1.5591247 -0.0026577  0.0167067 
    4   280     3  1.5536677 -0.0050306  0.0139153 
    4   280     4  1.5522410 -0.0048298  0.0160678 
    4   281     1  1.5657678 -0.0041827  0.0130255 
    4   281     2  1.5727970 -0.0020434  0.0134028 
    4   281     3  1.5644540 -0.0043176  0.0153029 
    4   281     4  1.5716096 -0.0021382  0.0157027 
    4   282     1  1.5348743 -0.0056233  0.0174562 
    4   282     2  1.5367447 -0.0059447  0.0151295 
    4   282     3  1.5423576 -0.0031633  0.0184110 
    4   282     4  1.5440943 -0.0035349  0.0160500 
    4   283     1  1.5284515 -0.0034507  0.0191385 
    4   283     2  1.5225903 -0.0059791  0.0176099 
    4   283     3  1.5298307 -0.0048907  0.0177191 
    4   283     4  1.5249111 -0.0069345  0.0165046 
    4   284     1  1.5357407 -0.0047295  0.0167787 
    4   284     2  1.5346558 -0.0037646  0.0180164 
    4   284     3  1.5312784 -0.0065527  0.0157191 
    4   284     4  1.5299382 -0.0055766  0.0170190 
    4   285     1  1.5418511 -0.0059209  0.0145950 
    4   285     2  1.5480767 -0.0037987  0.0155143 
    4   285     3  1.5402163 -0.0053401  0.0165107 
    4   285     4  1.5467471 -0.0031271  0.0174502 
    4   286     1  1.5250727 -0.0037479  0.0172104 
    4   286     2  1.5235859 -0.0034109  0.0206416 
    4   286     3  1.5155980 -0.0065356  0.0171667 
    4   286     4  1.5157132 -0.0059056  0.0198135 
    4   287     1  1.5334965 -0.0049076  0.0159757 
    4   287     2  1.5393085 -0.0030013  0.0169783 
    4   287     3  1.5317030 -0.0050316  0.0181031 
    4   287     4  1.5372717 -0.0032626  0.0187621 
    4   288     1  1.5267726 -0.0038648  0.0200864 
    4   288     2  1.5216766 -0.0073337  0.0223461 
    4   288     3  1.5240435 -0.0018228  0.0201229 
    4   288     4  1.5211718 -0.0049871  0.0217603 
    4   289     1  1.5211947 -0.0064445  0.0159971 
    4   289     2  1.5261411 -0.0046912  0.0169526 
    4   289     3  1.5204106 -0.0060026  0.0177201 
    4   289     4  1.5248041 -0.0045546  0.0182843 
    4   290     1  1.5180700 -0.0053333  0.0183273 
    4   290     2  1.5149814 -0.0076429  0.0198143 
    4   290     3  1.5163752 -0.0040314  0.0185468 
    4   290     4  1.5145244 -0.0060871  0.0195938 
    4   291     1  1.5161340 -0.0049487  0.0167780 
    4   291     2  1.5158756 -0.0050748  0.0190976 
    4   291     3  1.5093507 -0.0069943  0.0173027 
    4   291     4  1.5101198 -0.0068028  0.0191783 
    4   292     1  1.4976527 -0.0074216  0.0194701 
    4   292     2  1.5057280 -0.0045752  0.0181159 
    4   292     3  1.4999449 -0.0083269  0.0214642 
    4   292     4  1.5069007 -0.0058473  0.0202590 
    4   293     1  1.4988716 -0.0083352  0.0210004 
    4   293     2  1.4995626 -0.0072551  0.0177204 
    4   293     3  1.5105489 -0.0046774  0.0200032 
    4   293     4  1.5079648 -0.0047073  0.0173164 
    4   294     1  1.4944007 -0.0032899  0.0209549 
    4   294     2  1.4925435 -0.0079316  0.0192906 
    4   294     3  1.4932781 -0.0080733  0.0217381 
    4   294     4  1.4923228 -0.0099315  0.0204031 
    4   295     1  1.4906761 -0.0052577  0.0198898 
    4   295     2  1.4904759 -0.0040237  0.0252322 
    4   295     3  1.4761143 -0.0097878  0.0187485 
    4   295     4  1.4763533 -0.0086509  0.0231593 
    4   296     1  1.5000751 -0.0080333  0.0178017 
    4   296     2  1.5104434 -0.0049541  0.0179222 
    4   296     3  1.4999120 -0.0073756  0.0213465 
    4   296     4  1.5107980 -0.0041245  0.0215642 
    4   297     1  1.4985439 -0.0093783  0.0236821 
    4   297     2  1.4978474 -0.0082650  0.0184136 
    4   297     3  1.5156013 -0.0042060  0.0228893 
    4   297     4  1.5117828 -0.0040747  0.0179070 
    4   298     1  1.4889755 -0.0048549  0.0262043 
    4   298     2  1.4747613 -0.0091317  0.0258731 
    4   298     3  1.4889559 -0.0051574  0.0209907 
    4   298     4  1.4746863 -0.0094416  0.0208213 
    4   299     1  1.4994459 -0.0083956  0.0210250 
    4   299     2  1.4988748 -0.0071108  0.0189416 
    4   299     3  1.5061886 -0.0063576  0.0203959 
    4   299     4  1.5064119 -0.0045563  0.0178331 
    4   300     1  1.4910207 -0.0057168  0.0216410 
    4   300     2  1.4772500 -0.0100690  0.0229369 
    4   300     3  1.4896464 -0.0040028  0.0165862 
    4   300     4  1.4774774 -0.0083476  0.0189351 
    4   301     1  1.4921798 -0.0057611  0.0169939 
    4   301     2  1.4907228 -0.0045126  0.0215642 
    4   301     3  1.4794933 -0.0097437  0.0158907 
    4   301     4  1.4796069 -0.0083362  0.0196778 
    4   302     1  1.5008972 -0.0085551  0.0156062 
    4   302     2  1.5084806 -0.0061196  0.0165309 
    4   302     3  1.5000273 -0.0072338  0.0178098 
    4   302     4  1.5076122 -0.0045390  0.0191081 
    4   303     1  1.5175709 -0.0046116  0.0188725 
    4   303     2  1.5109850 -0.0065994  0.0186086 
    4   303     3  1.5183342 -0.0045155  0.0165318 
    4   303     4  1.5111773 -0.0066683  0.0163745 
    4   304     1  1.5211020 -0.0045875  0.0160351 
    4   304     2  1.5199434 -0.0042887  0.0182771 
    4   304     3  1.5143102 -0.0067154  0.0154577 
    4   304     4  1.5133524 -0.0063984  0.0175585 
    4   305     1  1.5263803 -0.0062193  0.0146100 
    4   305     2  1.5327469 -0.0041650  0.0153168 
    4   305     3  1.5253176 -0.0057932  0.0166056 
    4   305     4  1.5315832 -0.0037553  0.0173458 
    4   306     1  1.5223817 -0.0059677  0.0172631 
    4   306     2  1.5231816 -0.0064733  0.0152195 
    4   306     3  1.5284847 -0.0040067  0.0179192 
    4   306     4  1.5296259 -0.0044036  0.0159096 
    4   307     1  1.5233118 -0.0040640  0.0173373 
    4   307     2  1.5174890 -0.0062275  0.0162040 
    4   307     3  1.5245402 -0.0050136  0.0155507 
    4   307     4  1.5188710 -0.0070452  0.0145551 
    4   308     1  1.5284856 -0.0052235  0.0150112 
    4   308     2  1.5273373 -0.0040571  0.0164244 
    4   308     3  1.5236492 -0.0071842  0.0138785 
    4   308     4  1.5221561 -0.0061747  0.0151933 
    4   309     1  1.5338817 -0.0062913  0.0133787 
    4   309     2  1.5394838 -0.0043636  0.0142403 
    4   309     3  1.5325625 -0.0057269  0.0151071 
    4   309     4  1.5383526 -0.0037305  0.0160051 
    4   310     1  1.5287513 -0.0057241  0.0158473 
    4   310     2  1.5300114 -0.0062347  0.0139712 
    4   310     3  1.5348611 -0.0036660  0.0167132 
    4   310     4  1.5360422 -0.0042221  0.0147842 
    4   311     1  1.5042898 -0.0070032  0.0163420 
    4   311     2  1.5061298 -0.0082327  0.0147715 
    4   311     3  1.5105973 -0.0042017  0.0180679 
    4   311     4  1.5123011 -0.0057221  0.0162267 
    4   312     1  1.4964367 -0.0039175  0.0182440 
    4   312     2  1.4929581 -0.0078980  0.0160311 
    4   312     3  1.4966946 -0.0077683  0.0183904 
    4   312     4  1.4939473 -0.0103158  0.0166452 
    4   313     1  1.5048656 -0.0071584  0.0169574 
    4   313     2  1.5071426 -0.0038135  0.0154803 
    4   313     3  1.5054728 -0.0092137  0.0164905 
    4   313     4  1.5075105 -0.0063480  0.0151654 
    4   314     1  1.5148043 -0.0082501  0.0150019 
    4   314     2  1.5170000 -0.0064303  0.0161793 
    4   314     3  1.5141413 -0.0064635  0.0149683 
    4   314     4  1.5166860 -0.0041811  0.0163567 
    4   315     1  1.5363181 -0.0056750  0.0144307 
    4   315     2  1.5374996 -0.0062773  0.0127575 
    4   315     3  1.5418716 -0.0037707  0.0152702 
    4   315     4  1.5428595 -0.0044253  0.0135935 
    4   316     1  1.5315127 -0.0042486  0.0157321 
    4   316     2  1.5266010 -0.0061037  0.0147404 
    4   316     3  1.5325508 -0.0050951  0.0143753 
    4   316     4  1.5279494 -0.0068800  0.0133868 
    4   317     1  1.5361073 -0.0048625  0.0135785 
    4   317     2  1.5352488 -0.0041902  0.0150201 
    4   317     3  1.5313067 -0.0065667  0.0127581 
    4   317     4  1.5303607 -0.0058825  0.0142547 
    4   318     1  1.5405717 -0.0060780  0.0121377 
    4   318     2  1.5458971 -0.0042864  0.0128817 
    4   318     3  1.5395777 -0.0055234  0.0138289 
    4   318     4  1.5450471 -0.0037007  0.0145574 
    4   319     1  1.5220480 -0.0067162  0.0133789 
    4   319     2  1.5271805 -0.0050401  0.0140507 
    4   319     3  1.5220309 -0.0062318  0.0150774 
    4   319     4  1.5264122 -0.0048636  0.0154336 
    4   320     1  1.5195235 -0.0063072  0.0145747 
    4   320     2  1.5206292 -0.0075391  0.0144210 
    4   320     3  1.5222774 -0.0046323  0.0157181 
    4   320     4  1.5227194 -0.0060229  0.0153676 
    4   321     1  1.5178343 -0.0040339  0.0140051 
    4   321     2  1.5184024 -0.0059477  0.0155641 
    4   321     3  1.5130764 -0.0066022  0.0156670 
    4   321     4  1.5146036 -0.0073909  0.0164102 
    4   322     1  1.5183142 -0.0050088  0.0158871 
    4   322     2  1.5105652 -0.0073583  0.0155080 
    4   322     3  1.5190440 -0.0050302  0.0130941 
    4   322     4  1.5114918 -0.0072827  0.0131598 
    4   323     1  1.5215851 -0.0055558  0.0130508 
    4   323     2  1.5202189 -0.0043754  0.0151236 
    4   323     3  1.5148498 -0.0079574  0.0118829 
    4   323     4  1.5142182 -0.0067294  0.0137862 
    4   324     1  1.5273647 -0.0069474  0.0118800 
    4   324     2  1.5319883 -0.0052526  0.0127557 
    4   324     3  1.5264029 -0.0060673  0.0131423 
    4   324     4  1.5310267 -0.0042415  0.0141714 
    4   325     1  1.5231517 -0.0063810  0.0148063 
    4   325     2  1.5236753 -0.0062900  0.0129834 
    4   325     3  1.5285654 -0.0047448  0.0151676 
    4   325     4  1.5295426 -0.0045218  0.0132356 
    4   326     1  1.5008757 -0.0086668  0.0129943 
    4   326     2  1.5105709 -0.0057711  0.0130542 
    4   326     3  1.5024020 -0.0084509  0.0160545 
    4   326     4  1.5098694 -0.0061816  0.0156057 
    4   327     1  1.4996079 -0.0081727  0.0147947 
    4   327     2  1.5020358 -0.0093069  0.0130372 
    4   327     3  1.5067848 -0.0054801  0.0162369 
    4   327     4  1.5074626 -0.0069176  0.0145156 
    4   328     1  1.4952297 -0.0044628  0.0142589 
    4   328     2  1.4958831 -0.0076901  0.0145386 
    4   328     3  1.4917376 -0.0083322  0.0162472 
    4   328     4  1.4931764 -0.0097112  0.0159184 
    4   329     1  1.4887601 -0.0068414  0.0152660 
    4   329     2  1.4864116 -0.0055169  0.0176865 
    4   329     3  1.4805881 -0.0097208  0.0138861 
    4   329     4  1.4807044 -0.0080346  0.0160594 
    4   330     1  1.4976966 -0.0103405  0.0153834 
    4   330     2  1.4991971 -0.0074179  0.0165949 
    4   330     3  1.4981043 -0.0072445  0.0148463 
    4   330     4  1.4993489 -0.0052299  0.0160053 
    4   331     1  1.4894960 -0.0061193  0.0178126 
    4   331     2  1.4799622 -0.0094743  0.0193961 
    4   331     3  1.4858317 -0.0052178  0.0152032 
    4   331     4  1.4799384 -0.0078388  0.0169855 
    4   332     1  1.5015384 -0.0091836  0.0156026 
    4   332     2  1.5005979 -0.0074297  0.0132480 
    4   332     3  1.5099079 -0.0063993  0.0143655 
    4   332     4  1.5080369 -0.0048397  0.0120095 
    4   333     1  1.4942127 -0.0069945  0.0158474 
    4   333     2  1.4826857 -0.0107472  0.0172004 
    4   333     3  1.4933139 -0.0053155  0.0119103 
    4   333     4  1.4829470 -0.0089833  0.0137276 
    4   334     1  1.4938676 -0.0058898  0.0116071 
    4   334     2  1.4931665 -0.0051449  0.0160787 
    4   334     3  1.4832992 -0.0091018  0.0111099 
    4   334     4  1.4833867 -0.0083622  0.0144664 
    4   335     1  1.5006626 -0.0084879  0.0110140 
    4   335     2  1.5067364 -0.0067041  0.0112931 
    4   335     3  1.5004606 -0.0076563  0.0129873 
    4   335     4  1.5071828 -0.0055067  0.0136865 
    4   336     1  1.5176116 -0.0056140  0.0128662 
    4   336     2  1.5141377 -0.0075258  0.0141425 
    4   336     3  1.5157260 -0.0044832  0.0126126 
    4   336     4  1.5135838 -0.0062334  0.0136489 
    4   337     1  1.5162708 -0.0056740  0.0115054 
    4   337     2  1.5156032 -0.0055454  0.0135020 
    4   337     3  1.5105595 -0.0073537  0.0115853 
    4   337     4  1.5107320 -0.0070334  0.0132313 
    4   338     1  1.5205746 -0.0071796  0.0111408 
    4   338     2  1.5242636 -0.0055107  0.0122303 
    4   338     3  1.5197828 -0.0063770  0.0123585 
    4   338     4  1.5230517 -0.0050792  0.0130976 
    4   339     1  1.5175271 -0.0055939  0.0133804 
    4   339     2  1.5113938 -0.0075203  0.0128422 
    4   339     3  1.5183619 -0.0059470  0.0112874 
    4   339     4  1.5118354 -0.0080032  0.0106926 
    4   340     1  1.5200132 -0.0059937  0.0103958 
    4   340     2  1.5192954 -0.0052277  0.0127111 
    4   340     3  1.5132247 -0.0082119  0.0095817 
    4   340     4  1.5129473 -0.0074104  0.0116899 
    4   341     1  1.5256753 -0.0078757  0.0093474 
    4   341     2  1.5320932 -0.0055780  0.0104737 
    4   341     3  1.5249167 -0.0064897  0.0114921 
    4   341     4  1.5311957 -0.0044512  0.0123062 
    4   342     1  1.5220343 -0.0065857  0.0119069 
    4   342     2  1.5227780 -0.0076162  0.0102222 
    4   342     3  1.5271343 -0.0046949  0.0128919 
    4   342     4  1.5282950 -0.0055585  0.0113049 
    4   343     1  1.5008453 -0.0089011  0.0109163 
    4   343     2  1.5094614 -0.0063150  0.0107457 
    4   343     3  1.5028200 -0.0086855  0.0136030 
    4   343     4  1.5093520 -0.0066654  0.0130441 
    4   344     1  1.5004647 -0.0081907  0.0127189 
    4   344     2  1.5018665 -0.0086707  0.0106097 
    4   344     3  1.5074601 -0.0059735  0.0133917 
    4   344     4  1.5079393 -0.0066938  0.0113206 
    4   345     1  1.4973930 -0.0047184  0.0125992 
    4   345     2  1.4962176 -0.0091213  0.0115114 
    4   345     3  1.4959337 -0.0091503  0.0137112 
    4   345     4  1.4955064 -0.0110385  0.0126306 
    4   346     1  1.5256587 -0.0075405  0.0111803 
    4   346     2  1.5257702 -0.0064243  0.0090509 
    4   346     3  1.5320435 -0.0053093  0.0101276 
    4   346     4  1.5304255 -0.0050233  0.0087259 
    4   347     1  1.5217755 -0.0042945  0.0112509 
    4   347     2  1.5191038 -0.0067696  0.0098441 
    4   347     3  1.5218482 -0.0065904  0.0107875 
    4   347     4  1.5198613 -0.0079294  0.0098478 
    4   348     1  1.5241607 -0.0062508  0.0105652 
    4   348     2  1.5262904 -0.0046419  0.0095288 
    4   348     3  1.5250323 -0.0076141  0.0105903 
    4   348     4  1.5268732 -0.0060342  0.0096524 
    4   349     1  1.5158942 -0.0060483  0.0104868 
    4   349     2  1.5123296 -0.0081113  0.0118106 
    4   349     3  1.5143677 -0.0044930  0.0097880 
    4   349     4  1.5113568 -0.0066497  0.0111212 
    4   350     1  1.5105336 -0.0056697  0.0091337 
    4   350     2  1.5117515 -0.0066327  0.0100098 
    4   350     3  1.5073474 -0.0071274  0.0100384 
    4   350     4  1.5080903 -0.0082655  0.0110154 
    4   351     1  1.5156962 -0.0069642  0.0098227 
    4   351     2  1.5190097 -0.0050783  0.0086173 
    4   351     3  1.5168412 -0.0083573  0.0105852 
    4   351     4  1.5198560 -0.0064883  0.0094002 
    4   352     1  1.5214832 -0.0075125  0.0107150 
    4   352     2  1.5207012 -0.0064468  0.0104400 
    4   352     3  1.5235694 -0.0061486  0.0098423 
    4   352     4  1.5228014 -0.0049164  0.0095013 
    4   353     1  1.5016880 -0.0092482  0.0127685 
    4   353     2  1.5006110 -0.0075703  0.0111556 
    4   353     3  1.5076489 -0.0069959  0.0114969 
    4   353     4  1.5059486 -0.0055098  0.0099783 
    4   354     1  1.4947467 -0.0060671  0.0135399 
    4   354     2  1.4840647 -0.0093142  0.0140347 
    4   354     3  1.4926448 -0.0059524  0.0093594 
    4   354     4  1.4839014 -0.0087845  0.0107539 
    4   355     1  1.4935599 -0.0075986  0.0101049 
    4   355     2  1.4939396 -0.0060478  0.0131453 
    4   355     3  1.4854877 -0.0102203  0.0091724 
    4   355     4  1.4858611 -0.0089240  0.0116820 
    4   356     1  1.4982797 -0.0083485  0.0091903 
    4   356     2  1.5031648 -0.0069171  0.0089978 
    4   356     3  1.4985530 -0.0080459  0.0109688 
    4   356     4  1.5045375 -0.0062544  0.0110381 
    4   357     1  1.5118728 -0.0087027  0.0091858 
    4   357     2  1.5128183 -0.0067002  0.0099116 
    4   357     3  1.5122169 -0.0067400  0.0089448 
    4   357     4  1.5128418 -0.0057107  0.0095449 
    4   358     1  1.5098842 -0.0067673  0.0099685 
    4   358     2  1.5055995 -0.0082146  0.0106243 
    4   358     3  1.5084523 -0.0061602  0.0088507 
    4   358     4  1.5051398 -0.0074314  0.0095445 
    4   359     1  1.5094459 -0.0067698  0.0090587 
    4   359     2  1.5086668 -0.0063603  0.0105010 
    4   359     3  1.5047718 -0.0081789  0.0087727 
    4   359     4  1.5048958 -0.0075778  0.0100838 
    4   360     1  1.4972004 -0.0081930  0.0096209 
    4   360     2  1.5024697 -0.0065297  0.0090987 
    4   360     3  1.4983048 -0.0086773  0.0111221 
    4   360     4  1.5026848 -0.0072410  0.0105842 
    4   361     1  1.4975155 -0.0082666  0.0107066 
    4   361     2  1.4980543 -0.0084430  0.0089993 
    4   361     3  1.5032186 -0.0065659  0.0108050 
    4   361     4  1.5027035 -0.0070371  0.0091791 
    4   362     1  1.4954443 -0.0057438  0.0104293 
    4   362     2  1.4944209 -0.0085426  0.0095770 
    4   362     3  1.4947389 -0.0085831  0.0109438 
    4   362     4  1.4942438 -0.0096668  0.0102044 
    4   363     1  1.4932487 -0.0074968  0.0106358 
    4   363     2  1.4856349 -0.0100391  0.0116631 
    4   363     3  1.4926992 -0.0060715  0.0078382 
    4   363     4  1.4858826 -0.0086622  0.0093195 
    4   364     1  1.4932930 -0.0071675  0.0076511 
    4   364     2  1.4930811 -0.0072877  0.0104821 
    4   364     3  1.4864831 -0.0092122  0.0077608 
    4   364     4  1.4864222 -0.0092826  0.0103634 
    4   365     1  1.4971581 -0.0089992  0.0076357 
    4   365     2  1.5034613 -0.0070919  0.0079115 
    4   365     3  1.4970574 -0.0084867  0.0098233 
    4   365     4  1.5030708 -0.0066173  0.0102875 
    4   366     1  1.4982578 -0.0087187  0.0109195 
    4   366     2  1.4978770 -0.0080450  0.0094062 
    4   366     3  1.5025895 -0.0073911  0.0105694 
    4   366     4  1.5027987 -0.0064521  0.0088434 
    4   367     1  1.5140921 -0.0072797  0.0092087 
    4   367     2  1.5148272 -0.0085762  0.0075866 
    4   367     3  1.5189215 -0.0053877  0.0102663 
    4   367     4  1.5194951 -0.0065487  0.0088324 
    4   368     1  1.5097806 -0.0061649  0.0104095 
    4   368     2  1.5056229 -0.0075475  0.0098622 
    4   368     3  1.5104243 -0.0067283  0.0089477 
    4   368     4  1.5057280 -0.0082930  0.0083233 
    4   369     1  1.5128005 -0.0065487  0.0080946 
    4   369     2  1.5121587 -0.0059477  0.0099389 
    4   369     3  1.5074356 -0.0083125  0.0074262 
    4   369     4  1.5070575 -0.0076447  0.0092562 
    4   370     1  1.5167292 -0.0080488  0.0069752 
    4   370     2  1.5217987 -0.0062070  0.0079015 
    4   370     3  1.5161773 -0.0069910  0.0086396 
    4   370     4  1.5211644 -0.0051635  0.0095727 
    4   371     1  1.5185628 -0.0068107  0.0078798 
    4   371     2  1.5192068 -0.0080073  0.0063356 
    4   371     3  1.5233934 -0.0049196  0.0089357 
    4   371     4  1.5240729 -0.0061419  0.0073532 
    4   372     1  1.5143320 -0.0054640  0.0091361 
    4   372     2  1.5092869 -0.0074154  0.0080611 
    4   372     3  1.5150041 -0.0067740  0.0074279 
    4   372     4  1.5098393 -0.0086939  0.0064191 
    4   373     1  1.5176516 -0.0066494  0.0068804 
    4   373     2  1.5168330 -0.0049958  0.0083347 
    4   373     3  1.5128812 -0.0087155  0.0056241 
    4   373     4  1.5120624 -0.0071614  0.0069957 
    4   374     1  1.5221198 -0.0079640  0.0057314 
    4   374     2  1.5266191 -0.0060659  0.0068636 
    4   374     3  1.5213600 -0.0066000  0.0070739 
    4   374     4  1.5258713 -0.0046426  0.0082585 
    4   375     1  1.4983652 -0.0083886  0.0087149 
    4   375     2  1.4987803 -0.0094172  0.0065510 
    4   375     3  1.5044866 -0.0062406  0.0097356 
    4   375     4  1.5052849 -0.0072383  0.0074386 
    4   376     1  1.4939701 -0.0064728  0.0101603 
    4   376     2  1.4869017 -0.0088055  0.0092655 
    4   376     3  1.4942226 -0.0077361  0.0072925 
    4   376     4  1.4866469 -0.0101548  0.0065090 
    4   377     1  1.4963305 -0.0074964  0.0068115 
    4   377     2  1.4949957 -0.0056683  0.0095492 
    4   377     3  1.4872675 -0.0108971  0.0050101 
    4   377     4  1.4875365 -0.0087913  0.0076487 
    4   378     1  1.5035407 -0.0097490  0.0056070 
    4   378     2  1.5079664 -0.0076057  0.0070129 
    4   378     3  1.5029235 -0.0076872  0.0067153 
    4   378     4  1.5073665 -0.0053240  0.0082436 
    4   379     1  1.5245715 -0.0064442  0.0064012 
    4   379     2  1.5254756 -0.0078175  0.0052737 
    4   379     3  1.5287021 -0.0044965  0.0076215 
    4   379     4  1.5295387 -0.0059402  0.0064441 
    4   380     1  1.5199673 -0.0048774  0.0075404 
    4   380     2  1.5161059 -0.0069136  0.0062389 
    4   380     3  1.5208211 -0.0064571  0.0065392 
    4   380     4  1.5170814 -0.0083569  0.0053246 
    4   381     1  1.5244793 -0.0064520  0.0061204 
    4   381     2  1.5237170 -0.0048268  0.0069016 
    4   381     3  1.5212311 -0.0083149  0.0049220 
    4   381     4  1.5202625 -0.0068027  0.0056298 
    4   382     1  1.5290652 -0.0076743  0.0048764 
    4   382     2  1.5328285 -0.0058489  0.0060291 
    4   382     3  1.5281294 -0.0063342  0.0058942 
    4   382     4  1.5319623 -0.0044697  0.0070721 
    4   383     1  1.5064166 -0.0076213  0.0057935 
    4   383     2  1.5077196 -0.0092003  0.0050332 
    4   383     3  1.5105058 -0.0050979  0.0073928 
    4   383     4  1.5116618 -0.0069473  0.0064791 
    4   384     1  1.5004746 -0.0048069  0.0065186 
    4   384     2  1.4990119 -0.0081568  0.0051880 
    4   384     3  1.4998469 -0.0082246  0.0073385 
    4   384     4  1.4988183 -0.0102152  0.0061464 
    4   385     1  1.5065715 -0.0076664  0.0067268 
    4   385     2  1.5089623 -0.0051061  0.0053864 
    4   385     3  1.5072617 -0.0092806  0.0067631 
    4   385     4  1.5096823 -0.0070866  0.0054776 
    4   386     1  1.5142367 -0.0088771  0.0054496 
    4   386     2  1.5158249 -0.0071637  0.0064340 
    4   386     3  1.5138392 -0.0071862  0.0052624 
    4   386     4  1.5156776 -0.0050954  0.0064049 
    4   387     1  1.4960900 -0.0076229  0.0059476 
    4   387     2  1.4872893 -0.0112619  0.0080821 
    4   387     3  1.4948004 -0.0053621  0.0034092 
    4   387     4  1.4876840 -0.0087363  0.0055758 
    4   388     1  1.4947648 -0.0060944  0.0029393 
    4   388     2  1.4946659 -0.0077617  0.0058868 
    4   388     3  1.4879067 -0.0084418  0.0039673 
    4   388     4  1.4875111 -0.0100556  0.0066808 
    4   389     1  1.4985685 -0.0084300  0.0038793 
    4   389     2  1.5044859 -0.0064009  0.0029596 
    4   389     3  1.4987559 -0.0093322  0.0059963 
    4   389     4  1.5050161 -0.0073331  0.0053512 
    4   390     1  1.5030771 -0.0098639  0.0066391 
    4   390     2  1.5025724 -0.0078768  0.0058282 
    4   390     3  1.5067982 -0.0078629  0.0052949 
    4   390     4  1.5063219 -0.0055255  0.0043263 
    4   391     1  1.5186918 -0.0068508  0.0051449 
    4   391     2  1.5192877 -0.0081794  0.0051821 
    4   391     3  1.5204747 -0.0055010  0.0060684 
    4   391     4  1.5206582 -0.0068861  0.0059310 
    4   392     1  1.5164257 -0.0053512  0.0045981 
    4   392     2  1.5167787 -0.0068701  0.0052086 
    4   392     3  1.5140448 -0.0071547  0.0056877 
    4   392     4  1.5147152 -0.0080997  0.0060088 
    4   393     1  1.5197493 -0.0076427  0.0042987 
    4   393     2  1.5247939 -0.0060917  0.0047051 
    4   393     3  1.5203339 -0.0072605  0.0061162 
    4   393     4  1.5240924 -0.0061497  0.0060282 
    4   394     1  1.5193417 -0.0081699  0.0057226 
    4   394     2  1.5185327 -0.0068595  0.0042403 
    4   394     3  1.5240266 -0.0062880  0.0046427 
    4   394     4  1.5229772 -0.0052175  0.0033620 
    4   395     1  1.5154612 -0.0069396  0.0052541 
    4   395     2  1.5111450 -0.0086548  0.0062275 
    4   395     3  1.5147238 -0.0057323  0.0038232 
    4   395     4  1.5102503 -0.0075963  0.0049240 
    4   396     1  1.5130789 -0.0059182  0.0032320 
    4   396     2  1.5137661 -0.0069702  0.0048574 
    4   396     3  1.5085701 -0.0075710  0.0040765 
    4   396     4  1.5089543 -0.0086398  0.0056319 
    4   397     1  1.5166070 -0.0069609  0.0040038 
    4   397     2  1.5203499 -0.0054142  0.0030968 
    4   397     3  1.5172194 -0.0080660  0.0052258 
    4   397     4  1.5212166 -0.0064497  0.0042930 
    4   398     1  1.5156992 -0.0079611  0.0045404 
    4   398     2  1.5151960 -0.0070909  0.0034456 
    4   398     3  1.5188749 -0.0065067  0.0036076 
    4   398     4  1.5179990 -0.0059534  0.0027873 
    4   399     1  1.5124191 -0.0065867  0.0046045 
    4   399     2  1.5078493 -0.0079495  0.0043318 
    4   399     3  1.5119769 -0.0066700  0.0028354 
    4   399     4  1.5081482 -0.0078216  0.0029578 
    4   400     1  1.5133908 -0.0070213  0.0032396 
    4   400     2  1.5129259 -0.0055470  0.0029164 
    4   400     3  1.5118829 -0.0085415  0.0022620 
    4   400     4  1.5118849 -0.0071179  0.0022473 
    4   401     1  1.4987194 -0.0084671  0.0046990 
    4   401     2  1.4990544 -0.0086676  0.0026950 
    4   401     3  1.5043565 -0.0067162  0.0052117 
    4   401     4  1.5049475 -0.0068974  0.0028288 
    4   402     1  1.4948817 -0.0068119  0.0057866 
    4   402     2  1.4880996 -0.0088839  0.0053993 
    4   402     3  1.4951758 -0.0071754  0.0027580 
    4   402     4  1.4880617 -0.0093037  0.0026550 
    4   403     1  1.4966194 -0.0074996  0.0024351 
    4   403     2  1.4956054 -0.0058267  0.0053825 
    4   403     3  1.4881873 -0.0104978  0.0009896 
    4   403     4  1.4884513 -0.0087312  0.0036025 
    4   404     1  1.5030508 -0.0096311  0.0016006 
    4   404     2  1.5079478 -0.0074903  0.0029690 
    4   404     3  1.5024213 -0.0076496  0.0028652 
    4   404     4  1.5068003 -0.0056671  0.0041323 
    4   405     1  1.5210920 -0.0050831  0.0019068 
    4   405     2  1.5220718 -0.0065871  0.0029732 
    4   405     3  1.5167564 -0.0072349  0.0032730 
    4   405     4  1.5183159 -0.0082905  0.0040457 
    4   406     1  1.5252161 -0.0067346  0.0025376 
    4   406     2  1.5298861 -0.0049664  0.0015851 
    4   406     3  1.5262077 -0.0074808  0.0038916 
    4   406     4  1.5308229 -0.0057868  0.0030244 
    4   407     1  1.5292015 -0.0075482  0.0041662 
    4   407     2  1.5282521 -0.0065093  0.0031301 
    4   407     3  1.5330361 -0.0059075  0.0031787 
    4   407     4  1.5322110 -0.0047756  0.0020755 
    4   408     1  1.5251874 -0.0064335  0.0031006 
    4   408     2  1.5222798 -0.0079928  0.0041010 
    4   408     3  1.5245236 -0.0052059  0.0023915 
    4   408     4  1.5214869 -0.0067629  0.0033940 
    4   409     1  1.5198923 -0.0061355  0.0032129 
    4   409     2  1.5134548 -0.0081931  0.0038743 
    4   409     3  1.5190189 -0.0054876  0.0010616 
    4   409     4  1.5132197 -0.0074521  0.0019256 
    4   410     1  1.5183491 -0.0061580  0.0007690 
    4   410     2  1.5188617 -0.0061734  0.0027262 
    4   410     3  1.5125555 -0.0079093  0.0009897 
    4   410     4  1.5129988 -0.0079424  0.0029123 
    4   411     1  1.5218385 -0.0071808  0.0010812 
    4   411     2  1.5271978 -0.0055177  0.0006646 
    4   411     3  1.5222667 -0.0074102  0.0027975 
    4   411     4  1.5277285 -0.0057368  0.0024769 
    4   412     1  1.5241541 -0.0075926  0.0034868 
    4   412     2  1.5234864 -0.0068259  0.0020336 
    4   412     3  1.5289957 -0.0059474  0.0027757 
    4   412     4  1.5283463 -0.0051161  0.0012287 
    4   413     1  1.5029002 -0.0083694  0.0016355 
    4   413     2  1.5092381 -0.0064109  0.0011640 
    4   413     3  1.5043277 -0.0086911  0.0035525 
    4   413     4  1.5097343 -0.0069609  0.0029928 
    4   414     1  1.5030575 -0.0087086  0.0031280 
    4   414     2  1.5046098 -0.0090278  0.0009003 
    4   414     3  1.5103749 -0.0064518  0.0036432 
    4   414     4  1.5102069 -0.0071663  0.0016904 
    4   415     1  1.4998722 -0.0053278  0.0023676 
    4   415     2  1.4993182 -0.0087572  0.0017839 
    4   415     3  1.4983372 -0.0087778  0.0035119 
    4   415     4  1.4983707 -0.0102747  0.0027694 
    4   416     1  1.5034194 -0.0087383  0.0030895 
    4   416     2  1.5028973 -0.0080191  0.0013857 
    4   416     3  1.5087967 -0.0071338  0.0027461 
    4   416     4  1.5086052 -0.0061837  0.0007586 
    4   417     1  1.4977071 -0.0068197  0.0031776 
    4   417     2  1.4884588 -0.0096589  0.0037544 
    4   417     3  1.4967062 -0.0061242 -0.0004109 
    4   417     4  1.4885041 -0.0088545  0.0008736 
    4   418     1  1.4967495 -0.0073402 -0.0002723 
    4   418     2  1.4964641 -0.0053630  0.0031499 
    4   418     3  1.4881867 -0.0102367 -0.0014991 
    4   418     4  1.4885540 -0.0086143  0.0010553 
    4   419     1  1.5033544 -0.0093185 -0.0007987 
    4   419     2  1.5088509 -0.0075935 -0.0001762 
    4   419     3  1.5031261 -0.0081266  0.0009486 
    4   419     4  1.5089327 -0.0062876  0.0016298 
    4   420     1  1.5181716 -0.0059593  0.0023522 
    4   420     2  1.5125315 -0.0076513  0.0023421 
    4   420     3  1.5179339 -0.0060243  0.0004549 
    4   420     4  1.5122456 -0.0077310  0.0005278 
    4   421     1  1.5181335 -0.0060278  0.0001754 
    4   421     2  1.5178772 -0.0057180  0.0021566 
    4   421     3  1.5122887 -0.0078084 -0.0001173 
    4   421     4  1.5121590 -0.0075092  0.0016173 
    4   422     1  1.5217967 -0.0072174  3.92e-007 
    4   422     2  1.5267620 -0.0057211  0.0001449 
    4   422     3  1.5215995 -0.0070437  0.0015555 
    4   422     4  1.5267487 -0.0054835  0.0017624 
    4   423     1  1.5214774 -0.0072377  0.0022115 
    4   423     2  1.5212895 -0.0072233  0.0004934 
    4   423     3  1.5269625 -0.0055920  0.0021755 
    4   423     4  1.5267169 -0.0055912  0.0003667 
    4   424     1  1.5188733 -0.0060168  0.0014208 
    4   424     2  1.5142332 -0.0076980  0.0005723 
    4   424     3  1.5193917 -0.0067824  0.0003316 
    4   424     4  1.5157948 -0.0080930 -0.0003352 
    4   425     1  1.5207179 -0.0064773 -0.0001588 
    4   425     2  1.5204776 -0.0062622  0.0007844 
    4   425     3  1.5174659 -0.0075148 -0.0004956 
    4   425     4  1.5169770 -0.0073310  0.0005811 
    4   426     1  1.5231006 -0.0072610 -0.0006080 
    4   426     2  1.5274494 -0.0059429 -0.0004301 
    4   426     3  1.5228373 -0.0071356  0.0007662 
    4   426     4  1.5273770 -0.0057698  0.0008832 
    4   427     1  1.5219215 -0.0071802  0.0012036 
    4   427     2  1.5223494 -0.0072149 -0.0002899 
    4   427     3  1.5269303 -0.0056636  0.0014062 
    4   427     4  1.5271209 -0.0057706 -0.0001019 
    4   428     1  1.5123701 -0.0074891 -0.0004731 
    4   428     2  1.5153237 -0.0066089 -0.0001995 
    4   428     3  1.5121444 -0.0075779  0.0005434 
    4   428     4  1.5148881 -0.0067561  0.0005974 
    4   429     1  1.5111679 -0.0071801  0.0003381 
    4   429     2  1.5107509 -0.0077654  0.0007455 
    4   429     3  1.5111143 -0.0066166  0.0006147 
    4   429     4  1.5108361 -0.0071851  0.0008240 
    4   430     1  1.5097898 -0.0072001 -0.0005447 
    4   430     2  1.5100142 -0.0066455  0.0004488 
    4   430     3  1.5067022 -0.0080372 -0.0005704 
    4   430     4  1.5071256 -0.0074919  0.0002980 
    4   431     1  1.5352279 -0.0052541  0.0019808 
    4   431     2  1.5301763 -0.0067782  0.0021342 
    4   431     3  1.5349367 -0.0051683  0.0003492 
    4   431     4  1.5299581 -0.0066768  0.0005616 
    4   432     1  1.5347193 -0.0052196  0.0000791 
    4   432     2  1.5348082 -0.0052320  0.0016710 
    4   432     3  1.5297892 -0.0066997  0.0001382 
    4   432     4  1.5297887 -0.0067378  0.0016908 
    4   433     1  1.5376604 -0.0062439  0.0002060 
    4   433     2  1.5424016 -0.0048127  0.0000532 
    4   433     3  1.5377515 -0.0063643  0.0016882 
    4   433     4  1.5425332 -0.0049242  0.0015680 
    4   434     1  1.5382433 -0.0063874  0.0021096 
    4   434     2  1.5379928 -0.0061756  0.0006366 
    4   434     3  1.5429982 -0.0049377  0.0018660 
    4   434     4  1.5427187 -0.0047253  0.0003451 
    4   435     1  1.5347233 -0.0053009  0.0013090 
    4   435     2  1.5298973 -0.0067490  0.0012783 
    4   435     3  1.5347251 -0.0053180 -0.0001834 
    4   435     4  1.5300064 -0.0067337 -0.0002051 
    4   436     1  1.5347807 -0.0053891 -0.0005255 
    4   436     2  1.5347620 -0.0053789  0.0009135 
    4   436     3  1.5301322 -0.0067839 -0.0005524 
    4   436     4  1.5300700 -0.0067865  0.0009010 
    4   437     1  1.5375657 -0.0063459 -0.0005362 
    4   437     2  1.5422341 -0.0049452 -0.0005559 
    4   437     3  1.5375549 -0.0063722  0.0009140 
    4   437     4  1.5422383 -0.0049672  0.0009014 
    4   438     1  1.5375778 -0.0063649  0.0012972 
    4   438     2  1.5375558 -0.0063029 -0.0001704 
    4   438     3  1.5423201 -0.0049414  0.0012483 
    4   438     4  1.5422615 -0.0048895 -0.0002366 
    4   439     1  1.5503674 -0.0046133  0.0017594 
    4   439     2  1.5458688 -0.0059931  0.0020300 
    4   439     3  1.5501184 -0.0043570  0.0003194 
    4   439     4  1.5456220 -0.0057457  0.0006313 
    4   440     1  1.5498108 -0.0044295  0.0000276 
    4   440     2  1.5499307 -0.0046010  0.0014862 
    4   440     3  1.5452426 -0.0058152  0.0002228 
    4   440     4  1.5453603 -0.0059830  0.0016501 
    4   441     1  1.5525589 -0.0054317  0.0001981 
    4   441     2  1.5570108 -0.0040797 -9.81e-007 
    4   441     3  1.5526606 -0.0056145  0.0015843 
    4   441     4  1.5570953 -0.0042719  0.0014131 
    4   442     1  1.5531068 -0.0056144  0.0019298 
    4   442     2  1.5528915 -0.0053641  0.0005802 
    4   442     3  1.5574321 -0.0042875  0.0016687 
    4   442     4  1.5572535 -0.0040178  0.0002816 
    4   443     1  1.5497064 -0.0045924  0.0011910 
    4   443     2  1.5451191 -0.0059713  0.0012728 
    4   443     3  1.5496297 -0.0045077 -0.0002626 
    4   443     4  1.5450575 -0.0058836 -0.0001597 
    4   444     1  1.5495722 -0.0045567 -0.0005677 
    4   444     2  1.5495841 -0.0045895  0.0008790 
    4   444     3  1.5450036 -0.0059277 -0.0005301 
    4   444     4  1.5450105 -0.0059617  0.0009005 
    4   445     1  1.5522963 -0.0055434 -0.0005245 
    4   445     2  1.5568020 -0.0041910 -0.0005682 
    4   445     3  1.5523061 -0.0055820  0.0008796 
    4   445     4  1.5568075 -0.0042314  0.0008548 
    4   446     1  1.5524345 -0.0055945  0.0012332 
    4   446     2  1.5523635 -0.0054995 -0.0001665 
    4   446     3  1.5569139 -0.0042474  0.0011426 
    4   446     4  1.5568522 -0.0041477 -0.0002792 
    4   447     1  1.5642220 -0.0039857  0.0015936 
    4   447     2  1.5600486 -0.0052618  0.0018265 
    4   447     3  1.5641291 -0.0037192  0.0002406 
    4   447     4  1.5599056 -0.0050162  0.0005016 
    4   448     1  1.5639748 -0.0037637 -0.0000272 
    4   448     2  1.5640035 -0.0039660  0.0013528 
    4   448     3  1.5596671 -0.0050709  0.0001586 
    4   448     4  1.5597294 -0.0052596  0.0015147 
    4   449     1  1.5665455 -0.0047497  0.0001172 
    4   449     2  1.5707772 -0.0034691 -0.0000423 
    4   449     3  1.5665557 -0.0049307  0.0014513 
    4   449     4  1.5707551 -0.0036621  0.0013096 
    4   450     1  1.5667412 -0.0049342  0.0017415 
    4   450     2  1.5666785 -0.0047113  0.0004306 
    4   450     3  1.5708406 -0.0036879  0.0015502 
    4   450     4  1.5708392 -0.0034435  0.0002211 
    4   451     1  1.5638916 -0.0039317  0.0010992 
    4   451     2  1.5595629 -0.0052336  0.0011882 
    4   451     3  1.5638480 -0.0038267 -0.0002920 
    4   451     4  1.5595111 -0.0051328 -0.0001828 
    4   452     1  1.5638196 -0.0038629 -0.0005642 
    4   452     2  1.5638093 -0.0039090  0.0008315 
    4   452     3  1.5594621 -0.0051710 -0.0005205 
    4   452     4  1.5594618 -0.0052134  0.0008564 
    4   453     1  1.5664072 -0.0048361 -0.0005174 
    4   453     2  1.5706852 -0.0035521 -0.0005568 
    4   453     3  1.5663930 -0.0048787  0.0008342 
    4   453     4  1.5706664 -0.0035966  0.0008117 
    4   454     1  1.5664682 -0.0048999  0.0011457 
    4   454     2  1.5664324 -0.0048042 -0.0001999 
    4   454     3  1.5707156 -0.0036229  0.0010652 
    4   454     4  1.5706954 -0.0035212 -0.0002977 
    4   455     1  1.5772865 -0.0034102  0.0015160 
    4   455     2  1.5732783 -0.0046249  0.0016796 
    4   455     3  1.5773492 -0.0031736  0.0002041 
    4   455     4  1.5733048 -0.0044006  0.0003771 
    4   456     1  1.5773742 -0.0031911 -0.0000551 
    4   456     2  1.5773053 -0.0033854  0.0012748 
    4   456     3  1.5732733 -0.0044303  0.0000853 
    4   456     4  1.5732330 -0.0046143  0.0014018 
    4   457     1  1.5798055 -0.0041401  0.0000542 
    4   457     2  1.5838638 -0.0029152 -0.0000731 
    4   457     3  1.5797253 -0.0043247  0.0013569 
    4   457     4  1.5837676 -0.0031060  0.0012406 
    4   458     1  1.5796758 -0.0043408  0.0016256 
    4   458     2  1.5797548 -0.0041142  0.0003274 
    4   458     3  1.5836801 -0.0031294  0.0014763 
    4   458     4  1.5837813 -0.0028951  0.0001714 
    4   459     1  1.5797793 -0.0042816  0.0010767 
    4   459     2  1.5797864 -0.0041866 -0.0002283 
    4   459     3  1.5838448 -0.0030600  0.0010095 
    4   459     4  1.5838654 -0.0029600 -0.0003086 
    4   460     1  1.5773337 -0.0033397  0.0010358 
    4   460     2  1.5732214 -0.0045757  0.0011087 
    4   460     3  1.5773334 -0.0032396 -0.0003026 
    4   460     4  1.5732098 -0.0044801 -0.0002148 
    4   461     1  1.5773287 -0.0032708 -0.0005504 
    4   461     2  1.5773105 -0.0033156  0.0007930 
    4   461     3  1.5732007 -0.0045098 -0.0005134 
    4   461     4  1.5731810 -0.0045546  0.0008148 
    4   462     1  1.5797857 -0.0042174 -0.0005105 
    4   462     2  1.5838809 -0.0029883 -0.0005451 
    4   462     3  1.5797660 -0.0042608  0.0007967 
    4   462     4  1.5838533 -0.0030345  0.0007759 
    4   463     1  1.5902350 -0.0027364 -0.0005418 
    4   463     2  1.5901974 -0.0027839  0.0007598 
    4   463     3  1.5862822 -0.0039227 -0.0005092 
    4   463     4  1.5862507 -0.0039680  0.0007794 
    4   464     1  1.5925755 -0.0036634 -0.0005072 
    4   464     2  1.5964872 -0.0024894 -0.0005396 
    4   464     3  1.5925382 -0.0037098  0.0007635 
    4   464     4  1.5964534 -0.0025351  0.0007441 
    4   465     1  1.5925104 -0.0037416  0.0010158 
    4   465     2  1.5925420 -0.0036389 -0.0002556 
    4   465     3  1.5964299 -0.0025638  0.0009498 
    4   465     4  1.5964603 -0.0024605 -0.0003342 
    4   466     1  1.5901716 -0.0028128  0.0009803 
    4   466     2  1.5862313 -0.0039969  0.0010460 
    4   466     3  1.5902029 -0.0027088 -0.0003204 
    4   466     4  1.5862584 -0.0038949 -0.0002423 
    4   467     1  1.5901844 -0.0026620 -0.0001007 
    4   467     2  1.5900813 -0.0028560  0.0012002 
    4   467     3  1.5862411 -0.0038522  0.0000238 
    4   467     4  1.5861398 -0.0040444  0.0013145 
    4   468     1  1.5925160 -0.0035981 -4.33e-006 
    4   468     2  1.5964447 -0.0024119 -0.0001317 
    4   468     3  1.5924148 -0.0037906  0.0012724 
    4   468     4  1.5963457 -0.0026051  0.0011565 
    4   469     1  1.5923089 -0.0038239  0.0015205 
    4   469     2  1.5924188 -0.0035819  0.0002374 
    4   469     3  1.5962535 -0.0026294  0.0013657 
    4   469     4  1.5963592 -0.0023870  0.0000726 
    4   470     1  1.5899779 -0.0028762  0.0014234 
    4   470     2  1.5860350 -0.0040692  0.0015717 
    4   470     3  1.5900889 -0.0026370  0.0001222 
    4   470     4  1.5861444 -0.0038317  0.0002781 
    4   471     1  1.6023959 -0.0024120  0.0013078 
    4   471     2  1.5985527 -0.0035774  0.0014698 
    4   471     3  1.6024798 -0.0021654  0.0000300 
    4   471     4  1.5986526 -0.0033281  0.0002036 
    4   472     1  1.6025398 -0.0021959 -0.0001589 
    4   472     2  1.6024520 -0.0023884  0.0011135 
    4   472     3  1.5987328 -0.0033462 -0.0000293 
    4   472     4  1.5986384 -0.0035390  0.0012309 
    4   473     1  1.6047825 -0.0031219 -0.0000474 
    4   473     2  1.6085662 -0.0019776 -0.0001842 
    4   473     3  1.6047002 -0.0033154  0.0011933 
    4   473     4  1.6084912 -0.0021708  0.0010699 
    4   474     1  1.6046552 -0.0033536  0.0014227 
    4   474     2  1.6047330 -0.0031025  0.0001771 
    4   474     3  1.6084580 -0.0021986  0.0012515 
    4   474     4  1.6085314 -0.0019464 -7.29e-006 
    4   475     1  1.6047631 -0.0032622  0.0009597 
    4   475     2  1.6047875 -0.0031585 -0.0002745 
    4   475     3  1.6085364 -0.0021279  0.0008905 
    4   475     4  1.6085568 -0.0020243 -0.0003578 
    4   476     1  1.6025183 -0.0023451  0.0009205 
    4   476     2  1.5987226 -0.0034859  0.0009866 
    4   476     3  1.6025446 -0.0022425 -0.0003462 
    4   476     4  1.5987513 -0.0033835 -0.0002671 
    4   477     1  1.6025579 -0.0022739 -0.0005376 
    4   477     2  1.6025329 -0.0023189  0.0007280 
    4   477     3  1.5987740 -0.0034096 -0.0005044 
    4   477     4  1.5987436 -0.0034558  0.0007479 
    4   478     1  1.6047984 -0.0031865 -0.0005005 
    4   478     2  1.6085676 -0.0020552 -0.0005350 
    4   478     3  1.6047752 -0.0032303  0.0007320 
    4   478     4  1.6085421 -0.0021001  0.0007117 
    4   479     1  1.6144240 -0.0018645 -0.0005307 
    4   479     2  1.6143999 -0.0019078  0.0006956 
    4   479     3  1.6107682 -0.0029618 -0.0004964 
    4   479     4  1.6107433 -0.0030050  0.0007154 
    4   480     1  1.6165771 -0.0027608 -0.0004895 
    4   480     2  1.6201985 -0.0016737 -0.0005259 
    4   480     3  1.6165552 -0.0028042  0.0006998 
    4   480     4  1.6201809 -0.0017164  0.0006790 
    4   481     1  1.6165604 -0.0028410  0.0009066 
    4   481     2  1.6165746 -0.0027357 -0.0002846 
    4   481     3  1.6201957 -0.0017476  0.0008324 
    4   481     4  1.6202039 -0.0016429 -0.0003737 
    4   482     1  1.6144008 -0.0019388  0.0008624 
    4   482     2  1.6107398 -0.0030395  0.0009325 
    4   482     3  1.6144170 -0.0018349 -0.0003653 
    4   482     4  1.6107582 -0.0029361 -0.0002809 
    4   483     1  1.6143773 -0.0020035  0.0011983 
    4   483     2  1.6106755 -0.0031290  0.0013719 
    4   483     3  1.6144298 -0.0017542 -0.0000390 
    4   483     4  1.6107421 -0.0028781  0.0001481 
    4   484     1  1.6144379 -0.0017888 -0.0002039 
    4   484     2  1.6143780 -0.0019798  0.0010297 
    4   484     3  1.6107682 -0.0028993 -0.0000658 
    4   484     4  1.6106998 -0.0030910  0.0011543 
    4   485     1  1.6165971 -0.0027012 -0.0000794 
    4   485     2  1.6202410 -0.0015974 -0.0002242 
    4   485     3  1.6165424 -0.0028923  0.0011186 
    4   485     4  1.6201920 -0.0017889  0.0009882 
    4   486     1  1.6165550 -0.0029298  0.0013252 
    4   486     2  1.6166009 -0.0026786  0.0001240 
    4   486     3  1.6202173 -0.0018145  0.0011437 
    4   486     4  1.6202547 -0.0015631 -0.0000710 
    4   487     1  1.6259237 -0.0014299 -0.0002409 
    4   487     2  1.6258960 -0.0016154  0.0009485 
    4   487     3  1.6223669 -0.0025081 -0.0000949 
    4   487     4  1.6223256 -0.0026955  0.0010808 
    4   488     1  1.6280168 -0.0023308 -0.0001051 
    4   488     2  1.6315435 -0.0012598 -0.0002623 
    4   488     3  1.6279972 -0.0025210  0.0010469 
    4   488     4  1.6315415 -0.0014470  0.0009036 
    4   489     1  1.6280641 -0.0025592  0.0012303 
    4   489     2  1.6280812 -0.0023091  0.0000718 
    4   489     3  1.6316272 -0.0014709  0.0010370 
    4   489     4  1.6316316 -0.0012220 -0.0001331 
    4   490     1  1.6259479 -0.0016395  0.0010929 
    4   490     2  1.6223625 -0.0027323  0.0012752 
    4   490     3  1.6259696 -0.0013935 -0.0000996 
    4   490     4  1.6223934 -0.0024862  0.0000958 
    4   491     1  1.6279550 -0.0024667  0.0008554 
    4   491     2  1.6279463 -0.0023616 -0.0002865 
    4   491     3  1.6314716 -0.0014082  0.0007725 
    4   491     4  1.6314508 -0.0013051 -0.0003859 
    4   492     1  1.6258681 -0.0015753  0.0008043 
    4   492     2  1.6223211 -0.0026423  0.0008797 
    4   492     3  1.6258636 -0.0014736 -0.0003788 
    4   492     4  1.6223247 -0.0025395 -0.0002879 
    4   493     1  1.6258403 -0.0015062 -0.0005195 
    4   493     2  1.6258333 -0.0015457  0.0006618 
    4   493     3  1.6223120 -0.0025654 -0.0004824 
    4   493     4  1.6222987 -0.0026063  0.0006828 
    4   494     1  1.6279140 -0.0023858 -0.0004720 
    4   494     2  1.6314116 -0.0013356 -0.0005131 
    4   494     3  1.6279101 -0.0024254  0.0006656 
    4   494     4  1.6314112 -0.0013749  0.0006429 
    4   495     1  1.6368520 -0.0011833 -0.0005048 
    4   495     2  1.6368667 -0.0012204  0.0006212 
    4   495     3  1.6334464 -0.0022061 -0.0004578 
    4   495     4  1.6334501 -0.0022456  0.0006463 
    4   496     1  1.6388299 -0.0020310 -0.0004350 
    4   496     2  1.6421543 -0.0010315 -0.0005016 
    4   496     3  1.6388506 -0.0020803  0.0006236 
    4   496     4  1.6422002 -0.0010748  0.0005882 
    4   497     1  1.6390000 -0.0021521  0.0008076 
    4   497     2  1.6389355 -0.0020223 -0.0002667 
    4   497     3  1.6424024 -0.0011226  0.0006808 
    4   497     4  1.6422799 -0.0010076 -0.0004114 
    4   498     1  1.6369772 -0.0012591  0.0007367 
    4   498     2  1.6335289 -0.0022983  0.0008312 
    4   498     3  1.6369263 -0.0011544 -0.0003945 
    4   498     4  1.6335010 -0.0021886 -0.0002828 
    4   499     1  1.6372446 -0.0013120  0.0009831 
    4   499     2  1.6337283 -0.0023882  0.0011838 
    4   499     3  1.6372212 -0.0010665 -0.0001660 
    4   499     4  1.6337241 -0.0021390  0.0000437 
    4   500     1  1.6370686 -0.0011118 -0.0002854 
    4   500     2  1.6371052 -0.0012982  0.0008544 
    4   500     3  1.6336125 -0.0021637 -0.0001179 
    4   500     4  1.6336219 -0.0023562  0.0010105 
    4   501     1  1.6391281 -0.0020066 -0.0001280 
    4   501     2  1.6425715 -0.0009524 -0.0003264 
    4   501     3  1.6391768 -0.0022208  0.0009831 
    4   501     4  1.6426625 -0.0011554  0.0007907 
    4   502     1  1.6393366 -0.0022426  0.0011420 
    4   502     2  1.6393087 -0.0019761  0.0000191 
    4   502     3  1.6428398 -0.0011649  0.0009174 
    4   502     4  1.6427919 -0.0009034 -0.0002086 
    4   503     1  1.6485477 -0.0009733  0.0009119 
    4   503     2  1.6449863 -0.0020681  0.0011378 
    4   503     3  1.6485008 -0.0007475 -0.0002276 
    4   503     4  1.6449229 -0.0018450 -0.0000113 
    4   504     1  1.6479690 -0.0007776 -0.0003965 
    4   504     2  1.6481510 -0.0010606  0.0006608 
    4   504     3  1.6446408 -0.0018149 -0.0001327 
    4   504     4  1.6447364 -0.0021268  0.0009377 
    4   505     1  1.6503823 -0.0018288 -0.0001840 
    4   505     2  1.6543175 -0.0006189 -0.0004349 
    4   505     3  1.6505925 -0.0020389  0.0010928 
    4   505     4  1.6543145 -0.0008702  0.0007413 
    4   506     1  1.6506488 -0.0019406  0.0010938 
    4   506     2  1.6506191 -0.0017252 -0.0000576 
    4   506     3  1.6542574 -0.0008413  0.0009131 
    4   506     4  1.6542769 -0.0006093 -0.0002486 
    4   507     1  1.6499462 -0.0019302  0.0007860 
    4   507     2  1.6495573 -0.0014990 -0.0000405 
    4   507     3  1.6531532 -0.0008126  0.0002716 
    4   507     4  1.6521344 -0.0006031 -0.0004504 
    4   508     1  1.6478404 -0.0009757  0.0006096 
    4   508     2  1.6444457 -0.0020142  0.0008033 
    4   508     3  1.6475448 -0.0008728 -0.0004484 
    4   508     4  1.6442773 -0.0018752 -0.0002459 
    4   509     1  1.6470738 -0.0008892 -0.0005189 
    4   509     2  1.6472449 -0.0009910  0.0004922 
    4   509     3  1.6440256 -0.0018150 -0.0003815 
    4   509     4  1.6440797 -0.0019439  0.0005782 
    4   510     1  1.6487112 -0.0015943 -0.0001951 
    4   510     2  1.6510222 -0.0008598 -0.0004284 
    4   510     3  1.6488679 -0.0017486  0.0005066 
    4   510     4  1.6513402 -0.0009946  0.0003689 
    4   511     1  1.6552769 -0.0012281  0.0002129 
    4   511     2  1.6551900 -0.0016534  0.0004449 
    4   511     3  1.6554485 -0.0007920  0.0004649 
    4   511     4  1.6553382 -0.0012212  0.0005647 
    4   512     1  1.6544608 -0.0010002 -0.0003549 
    4   512     2  1.6545705 -0.0009606  0.0003575 
    4   512     3  1.6524789 -0.0015930 -0.0001702 
    4   512     4  1.6527472 -0.0015072  0.0003958 
    4   513     1  1.6561429 -0.0013919 -0.0003451 
    4   513     2  1.6581218 -0.0008061 -0.0001821 
    4   513     3  1.6560223 -0.0014593  0.0003572 
    4   513     4  1.6578415 -0.0009152  0.0003842 
    4   514     1  1.6602402 -0.0004443 -0.0003123 
    4   514     2  1.6599771 -0.0005204  0.0009918 
    4   514     3  1.6562806 -0.0016322 -0.0003278 
    4   514     4  1.6562388 -0.0016422  0.0008328 
    4   515     1  1.6625926 -0.0014779 -0.0003351 
    4   515     2  1.6659157 -0.0004801 -0.0002902 
    4   515     3  1.6623664 -0.0014726  0.0006852 
    4   515     4  1.6657717 -0.0004480  0.0007596 
    4   516     1  1.6620355 -0.0016154  0.0009484 
    4   516     2  1.6621235 -0.0014749 -0.0001426 
    4   516     3  1.6655941 -0.0005469  0.0008887 
    4   516     4  1.6656979 -0.0003979 -0.0002379 
    4   517     1  1.6599687 -0.0006614  0.0009107 
    4   517     2  1.6563756 -0.0017449  0.0010150 
    4   517     3  1.6600437 -0.0005034 -0.0002418 
    4   517     4  1.6564010 -0.0016039 -0.0001186 
    4   518     1  1.6605942 -0.0005530  0.0007190 
    4   518     2  1.6573551 -0.0016278  0.0002971 
    4   518     3  1.6610229 -0.0008637 -0.0001365 
    4   518     4  1.6584040 -0.0017228 -0.0004577 
    4   519     1  1.6618308 -0.0007969 -0.0002185 
    4   519     2  1.6616595 -0.0006865  0.0004711 
    4   519     3  1.6595464 -0.0015115 -0.0004158 
    4   519     4  1.6592157 -0.0014284  0.0003571 
    4   520     1  1.6634172 -0.0014940 -0.0004869 
    4   520     2  1.6664332 -0.0005846 -0.0004005 
    4   520     3  1.6632360 -0.0014506  0.0004631 
    4   520     4  1.6663653 -0.0005105  0.0005192 
    4   521     1  1.6626545 -0.0015178  0.0006068 
    4   521     2  1.6629657 -0.0014624 -0.0004040 
    4   521     3  1.6660306 -0.0005027  0.0006843 
    4   521     4  1.6662192 -0.0004844 -0.0003354 
    4   522     1  1.6711426 -0.0004136  0.0008085 
    4   522     2  1.6676838 -0.0014537  0.0008777 
    4   522     3  1.6712035 -0.0003039 -0.0002531 
    4   522     4  1.6677691 -0.0013383 -0.0001664 
    4   523     1  1.6712971 -0.0003254 -0.0003121 
    4   523     2  1.6712156 -0.0003919  0.0007342 
    4   523     3  1.6679128 -0.0013413 -0.0002772 
    4   523     4  1.6677839 -0.0014214  0.0007544 
    4   524     1  1.6732764 -0.0012315 -0.0002548 
    4   524     2  1.6766436 -0.0002182 -0.0003300 
    4   524     3  1.6732150 -0.0013319  0.0007566 
    4   524     4  1.6766187 -0.0003086  0.0006913 
    4   525     1  1.6731661 -0.0013632  0.0008681 
    4   525     2  1.6732179 -0.0012234 -0.0001601 
    4   525     3  1.6766186 -0.0003217  0.0007642 
    4   525     4  1.6766440 -0.0001884 -0.0002753 
    4   526     1  1.6713385 -0.0004013  0.0006408 
    4   526     2  1.6680125 -0.0013990  0.0006365 
    4   526     3  1.6714121 -0.0003683 -0.0003616 
    4   526     4  1.6681458 -0.0013481 -0.0003619 
    4   527     1  1.6714784 -0.0004063 -0.0004411 
    4   527     2  1.6714468 -0.0004151  0.0005388 
    4   527     3  1.6682454 -0.0013762 -0.0004496 
    4   527     4  1.6681888 -0.0013925  0.0005362 
    4   528     1  1.6733723 -0.0012650 -0.0004375 
    4   528     2  1.6766506 -0.0002814 -0.0004524 
    4   528     3  1.6733493 -0.0012881  0.0005424 
    4   528     4  1.6766417 -0.0003003  0.0005330 
    4   529     1  1.6732823 -0.0013085  0.0006495 
    4   529     2  1.6733326 -0.0012472 -0.0003439 
    4   529     3  1.6766291 -0.0003039  0.0006158 
    4   529     4  1.6766456 -0.0002524 -0.0003853 
    4   530     1  1.6819686 -0.0001223 -0.0003540 
    4   530     2  1.6820006 -0.0002244  0.0006487 
    4   530     3  1.6786120 -0.0011355 -0.0002475 
    4   530     4  1.6786051 -0.0012484  0.0007475 
    4   531     1  1.6839494 -0.0010471 -0.0002471 
    4   531     2  1.6873117 -0.0000272 -0.0003903 
    4   531     3  1.6840028 -0.0011744  0.0007372 
    4   531     4  1.6874175 -0.0001394  0.0005969 
    4   532     1  1.6841143 -0.0011963  0.0008254 
    4   532     2  1.6840888 -0.0010251 -0.0001736 
    4   532     3  1.6875586 -0.0001484  0.0006606 
    4   532     4  1.6875033  0.0000141 -0.0003391 
    4   533     1  1.6820870 -0.0002305  0.0007175 
    4   533     2  1.6786402 -0.0012738  0.0008486 
    4   533     3  1.6820713 -0.0000873 -0.0003021 
    4   533     4  1.6786528 -0.0011231 -0.0001644 
    4   534     1  1.6838583 -0.0011256  0.0006318 
    4   534     2  1.6837986 -0.0010483 -0.0003134 
    4   534     3  1.6871664 -0.0001282  0.0005381 
    4   534     4  1.6870430 -0.0000686 -0.0004201 
    4   535     1  1.6819174 -0.0002101  0.0005849 
    4   535     2  1.6785783 -0.0012138  0.0006443 
    4   535     3  1.6818810 -0.0001527 -0.0004019 
    4   535     4  1.6785769 -0.0011466 -0.0003319 
    4   536     1  1.6818267 -0.0001766 -0.0004553 
    4   536     2  1.6818420 -0.0001943  0.0005198 
    4   536     3  1.6785567 -0.0011580 -0.0004266 
    4   536     4  1.6785566 -0.0011800  0.0005350 
    4   537     1  1.6837135 -0.0010491 -0.0004088 
    4   537     2  1.6869358 -0.0000811 -0.0004589 
    4   537     3  1.6837375 -0.0010777  0.0005200 
    4   537     4  1.6869864 -0.0001027  0.0004940 
    4   538     1  1.6917117 -0.0000108 -0.0004739 
    4   538     2  1.6918954 -0.0000631  0.0004148 
    4   538     3  1.6887318 -0.0009126 -0.0003606 
    4   538     4  1.6887989 -0.0009943  0.0004837 
    4   539     1  1.6932969 -0.0007516 -0.0001988 
    4   539     2  1.6955546 -0.0000448 -0.0003966 
    4   539     3  1.6934708 -0.0008433  0.0004203 
    4   539     4  1.6958915 -0.0001083  0.0003072 
    4   540     1  1.6945536 -0.0009517  0.0006305 
    4   540     2  1.6941195 -0.0007095 -0.0000926 
    4   540     3  1.6976457  0.0000822  0.0002120 
    4   540     4  1.6965961  0.0001174 -0.0004254 
    4   541     1  1.6924943 -0.0000244  0.0004753 
    4   541     2  1.6891479 -0.0010415  0.0006335 
    4   541     3  1.6921826  0.0000112 -0.0004620 
    4   541     4  1.6889695 -0.0009672 -0.0002973 
    4   542     1  1.6931865 -0.0000149  0.0006614 
    4   542     2  1.6896556 -0.0010899  0.0008372 
    4   542     3  1.6931158  0.0001182 -0.0003521 
    4   542     4  1.6895801 -0.0009564 -0.0001879 
    4   543     1  1.6925612  0.0000756 -0.0004511 
    4   543     2  1.6927755 -0.0000972  0.0004790 
    4   543     3  1.6893100 -0.0009254 -0.0002393 
    4   543     4  1.6894316 -0.0011285  0.0007039 
    4   544     1  1.6949279 -0.0009856 -0.0002726 
    4   544     2  1.6988098  0.0001976 -0.0004747 
    4   544     3  1.6951854 -0.0010823  0.0008641 
    4   544     4  1.6988677  0.0000558  0.0005691 
    4   545     1  1.6952510 -0.0010526  0.0008116 
    4   545     2  1.6951980 -0.0008981 -0.0002168 
    4   545     3  1.6988400  0.0000366  0.0006562 
    4   545     4  1.6988221  0.0002024 -0.0003777 
    4   546     1  1.7046706  0.0003216 -0.0003942 
    4   546     2  1.7044754  0.0002181  0.0007698 
    4   546     3  1.7007447 -0.0008561 -0.0003748 
    4   546     4  1.7007341 -0.0008993  0.0006611 
    4   547     1  1.7069804 -0.0007453 -0.0004012 
    4   547     2  1.7102848  0.0002457 -0.0004028 
    4   547     3  1.7068269 -0.0007695  0.0005198 
    4   547     4  1.7102575  0.0002598  0.0005378 
    4   548     1  1.7066134 -0.0008918  0.0007016 
    4   548     2  1.7066448 -0.0007562 -0.0002857 
    4   548     3  1.7101985  0.0001873  0.0006114 
    4   548     4  1.7102222  0.0003235 -0.0003977 
    4   549     1  1.7045520  0.0001607  0.0006526 
    4   549     2  1.7009458 -0.0009261  0.0007509 
    4   549     3  1.7045665  0.0002667 -0.0003785 
    4   549     4  1.7009296 -0.0008304 -0.0002685 
    4   550     1  1.7049385  0.0001539  0.0005722 
    4   550     2  1.7017412 -0.0008696  0.0002400 
    4   550     3  1.7053565 -9.89e-006 -0.0001929 
    4   550     4  1.7027886 -0.0008250 -0.0004411 
    4   551     1  1.7060609  0.0000223 -0.0002228 
    4   551     2  1.7058933  0.0000820  0.0003860 
    4   551     3  1.7038230 -0.0006680 -0.0003823 
    4   551     4  1.7034949 -0.0006432  0.0002965 
    4   552     1  1.7075453 -0.0007102 -0.0004294 
    4   552     2  1.7104399  0.0001597 -0.0003804 
    4   552     3  1.7073926 -0.0006994  0.0003843 
    4   552     4  1.7104152  0.0002078  0.0004190 
    4   553     1  1.7069356 -0.0007974  0.0004894 
    4   553     2  1.7071705 -0.0007128 -0.0003987 
    4   553     3  1.7102735  0.0002035  0.0005100 
    4   553     4  1.7103346  0.0002361 -0.0003888 
    4   554     1  1.7005435 -0.0005220 -0.0002959 
    4   554     2  1.7024460  0.0000321 -0.0001757 
    4   554     3  1.7004225 -0.0006260  0.0003103 
    4   554     4  1.7021733 -0.0001044  0.0003162 
    4   555     1  1.6996932 -0.0004022  0.0001685 
    4   555     2  1.6996784 -0.0006756  0.0003340 
    4   555     3  1.6998527 -0.0000971  0.0003650 
    4   555     4  1.6997980 -0.0003804  0.0004314 
    4   556     1  1.6988987 -0.0002136 -0.0003137 
    4   556     2  1.6990270 -0.0001207  0.0003085 
    4   556     3  1.6969797 -0.0007749 -0.0001727 
    4   556     4  1.6972565 -0.0006488  0.0003232 
    4   557     1  1.7159345  0.0003193  0.0005807 
    4   557     2  1.7123502 -0.0007602  0.0006750 
    4   557     3  1.7159206  0.0003838 -0.0004015 
    4   557     4  1.7123474 -0.0006919 -0.0003130 
    4   558     1  1.7155347  0.0003466 -0.0004709 
    4   558     2  1.7156760  0.0002360  0.0004347 
    4   558     3  1.7122499 -0.0006487 -0.0003377 
    4   558     4  1.7122610 -0.0007995  0.0005775 
    4   559     1  1.7178627 -0.0007340 -0.0003419 
    4   559     2  1.7217622  0.0004435 -0.0004744 
    4   559     3  1.7180481 -0.0007759  0.0007561 
    4   559     4  1.7217768  0.0003590  0.0005270 
    4   560     1  1.7180005 -0.0007686  0.0006733 
    4   560     2  1.7180042 -0.0006581 -0.0003185 
    4   560     3  1.7216313  0.0003254  0.0005762 
    4   560     4  1.7216588  0.0004436 -0.0004206 
    4   561     1  1.7175670 -0.0006497  0.0005595 
    4   561     2  1.7171574 -0.0004777 -0.0001442 
    4   561     3  1.7206897  0.0003648  0.0001987 
    4   561     4  1.7196463  0.0003285 -0.0004259 
    4   562     1  1.7155622  0.0002840  0.0004385 
    4   562     2  1.7122276 -0.0007205  0.0005293 
    4   562     3  1.7153298  0.0002766 -0.0004400 
    4   562     4  1.7121745 -0.0006743 -0.0003494 
    4   563     1  1.7149386  0.0002393 -0.0004341 
    4   563     2  1.7150900  0.0002105  0.0003738 
    4   563     3  1.7120561 -0.0006290 -0.0003590 
    4   563     4  1.7120774 -0.0006944  0.0004225 
    4   564     1  1.7164354 -0.0005065 -0.0002058 
    4   564     2  1.7186622  0.0001836 -0.0003773 
    4   564     3  1.7165992 -0.0005728  0.0003770 
    4   564     4  1.7189899  0.0001510  0.0002800 
    4   565     1  1.7227302 -0.0001463  0.0001517 
    4   565     2  1.7226787 -0.0003767  0.0003023 
    4   565     3  1.7228187  0.0000903  0.0003092 
    4   565     4  1.7227571 -0.0001419  0.0003752 
    4   566     1  1.7219305  9.09e-006 -0.0002886 
    4   566     2  1.7220541  0.0001171  0.0002901 
    4   566     3  1.7200480 -0.0005373 -0.0001710 
    4   566     4  1.7203176 -0.0003998  0.0002938 
    4   567     1  1.7235580 -0.0002736 -0.0002851 
    4   567     2  1.7254458  0.0002726 -0.0001775 
    4   567     3  1.7234268 -0.0003933  0.0002901 
    4   567     4  1.7251672  0.0001244  0.0002884 
    4   568     1  1.7276053  0.0005339 -0.0004082 
    4   568     2  1.7273663  0.0004415  0.0006992 
    4   568     3  1.7236863 -0.0006413 -0.0004237 
    4   568     4  1.7236267 -0.0006777  0.0005673 
    4   569     1  1.7299209 -0.0005572 -0.0004486 
    4   569     2  1.7332247  0.0004342 -0.0004215 
    4   569     3  1.7297350 -0.0005720  0.0004346 
    4   569     4  1.7331655  0.0004581  0.0004782 
    4   570     1  1.7294416 -0.0006793  0.0005839 
    4   570     2  1.7295047 -0.0005770 -0.0003700 
    4   570     3  1.7330454  0.0004023  0.0005360 
    4   570     4  1.7330985  0.0005033 -0.0004367 
    4   571     1  1.7273785  0.0004172  0.0005774 
    4   571     2  1.7237440 -0.0006742  0.0006238 
    4   571     3  1.7274261  0.0004781 -0.0004141 
    4   571     4  1.7237677 -0.0006209 -0.0003589 
    4   572     1  1.7278832  0.0003461  0.0005221 
    4   572     2  1.7247430 -0.0006533  0.0002096 
    4   572     3  1.7283285  0.0002359 -0.0001918 
    4   572     4  1.7258121 -0.0005605 -0.0004286 
    4   573     1  1.7290568  0.0002479 -0.0002188 
    4   573     2  1.7288795  0.0002903  0.0003596 
    4   573     3  1.7268250 -0.0004387 -0.0003721 
    4   573     4  1.7264854 -0.0004330  0.0002755 
    4   574     1  1.7305457 -0.0005125 -0.0004223 
    4   574     2  1.7334522  0.0003612 -0.0003700 
    4   574     3  1.7303817 -0.0005096  0.0003605 
    4   574     4  1.7334165  0.0004014  0.0003953 
    4   575     1  1.7298815 -0.0006054  0.0004306 
    4   575     2  1.7301418 -0.0005259 -0.0004246 
    4   575     3  1.7332372  0.0004012  0.0004655 
    4   575     4  1.7333225  0.0004282 -0.0003973 
    4   576     1  1.7180484 -0.0006403 -0.0002790 
    4   576     2  1.7216579  0.0004485 -0.0003863 
    4   576     3  1.7180323 -0.0007475  0.0007027 
    4   576     4  1.7216329  0.0003379  0.0006013 
    4   577     1  1.7180356 -0.0007696  0.0007512 
    4   577     2  1.7180579 -0.0006309 -0.0002243 
    4   577     3  1.7216262  0.0003158  0.0006252 
    4   577     4  1.7216541  0.0004570 -0.0003569 
    4   578     1  1.7159507  0.0002602  0.0006588 
    4   578     2  1.7123639 -0.0008256  0.0007958 
    4   578     3  1.7159726  0.0004107 -0.0003323 
    4   578     4  1.7123800 -0.0006778 -0.0001882 
    4   579     1  1.7159549  0.0003977 -0.0003698 
    4   579     2  1.7159362  0.0002668  0.0006263 
    4   579     3  1.7123547 -0.0006902 -0.0002466 
    4   579     4  1.7123401 -0.0008190  0.0007427 
    4   580     1  1.7273153  0.0003760  0.0006022 
    4   580     2  1.7237155 -0.0007093  0.0007043 
    4   580     3  1.7273435  0.0004909 -0.0003727 
    4   580     4  1.7237385 -0.0005965 -0.0002648 
    4   581     1  1.7273606  0.0004827 -0.0004001 
    4   581     2  1.7273255  0.0003771  0.0005806 
    4   581     3  1.7237452 -0.0006063 -0.0003083 
    4   581     4  1.7237172 -0.0007090  0.0006650 
    4   582     1  1.7294546 -0.0005703 -0.0003351 
    4   582     2  1.7330717  0.0005178 -0.0004118 
    4   582     3  1.7294228 -0.0006540  0.0006322 
    4   582     4  1.7330365  0.0004327  0.0005614 
    4   583     1  1.7294010 -0.0006693  0.0006679 
    4   583     2  1.7294298 -0.0005626 -0.0002950 
    4   583     3  1.7330074  0.0004171  0.0005749 
    4   583     4  1.7330405  0.0005257 -0.0003942 
    4   584     1  1.7294207 -0.0005568 -0.0002614 
    4   584     2  1.7330216  0.0005303 -0.0003769 
    4   584     3  1.7294008 -0.0006762  0.0007033 
    4   584     4  1.7329963  0.0004087  0.0005928 
    4   585     1  1.7294103 -0.0006834  0.0007352 
    4   585     2  1.7294257 -0.0005494 -0.0002240 
    4   585     3  1.7329964  0.0004008  0.0006081 
    4   585     4  1.7330171  0.0005371 -0.0003567 
    4   586     1  1.7273316  0.0003570  0.0006464 
    4   586     2  1.7237493 -0.0007278  0.0007862 
    4   586     3  1.7273474  0.0005045 -0.0003236 
    4   586     4  1.7237598 -0.0005826 -0.0001784 
    4   587     1  1.7273365  0.0004981 -0.0003500 
    4   587     2  1.7273165  0.0003665  0.0006260 
    4   587     3  1.7237403 -0.0005891 -0.0002227 
    4   587     4  1.7237251 -0.0007185  0.0007472 
    4   588     1  1.7180736 -0.0006216 -0.0001759 
    4   588     2  1.7216602  0.0004665 -0.0003287 
    4   588     3  1.7180608 -0.0007765  0.0008009 
    4   588     4  1.7216406  0.0003084  0.0006549 
    4   589     1  1.7180980 -0.0007868  0.0008469 
    4   589     2  1.7181089 -0.0006114 -0.0001233 
    4   589     3  1.7216671  0.0002986  0.0006791 
    4   589     4  1.7216836  0.0004769 -0.0002981 
    4   590     1  1.7160210  0.0002412  0.0007219 
    4   590     2  1.7124563 -0.0008452  0.0009026 
    4   590     3  1.7160321  0.0004323 -0.0002638 
    4   590     4  1.7124614 -0.0006573 -0.0000756 
    4   591     1  1.7159928  0.0004195 -0.0002992 
    4   591     2  1.7159795  0.0002490  0.0006919 
    4   591     3  1.7124119 -0.0006689 -0.0001335 
    4   591     4  1.7124032 -0.0008370  0.0008511 
    4   592     1  1.7181637 -0.0006039 -0.0000776 
    4   592     2  1.7217220  0.0004835 -0.0002729 
    4   592     3  1.7181812 -0.0007894  0.0008958 
    4   592     4  1.7217295  0.0002934  0.0007084 
    4   593     1  1.7182943 -0.0007976  0.0009396 
    4   593     2  1.7182651 -0.0005965 -0.0000272 
    4   593     3  1.7218240  0.0002842  0.0007309 
    4   593     4  1.7218023  0.0004891 -0.0002429 
    4   594     1  1.7162219  0.0002307  0.0007848 
    4   594     2  1.7126917 -0.0008544  0.0010068 
    4   594     3  1.7161906  0.0004482 -0.0001975 
    4   594     4  1.7126518 -0.0006414  0.0000331 
    4   595     1  1.7160875  0.0004365 -0.0002320 
    4   595     2  1.7161067  0.0002361  0.0007563 
    4   595     3  1.7125334 -0.0006522 -0.0000245 
    4   595     4  1.7125572 -0.0008499  0.0009569 
    4   596     1  1.7274499  0.0003472  0.0006931 
    4   596     2  1.7238990 -0.0007332  0.0008633 
    4   596     3  1.7274308  0.0005118 -0.0002755 
    4   596     4  1.7238706 -0.0005724 -0.0000994 
    4   597     1  1.7273710  0.0005066 -0.0003016 
    4   597     2  1.7273779  0.0003531  0.0006725 
    4   597     3  1.7237963 -0.0005790 -0.0001418 
    4   597     4  1.7238093 -0.0007298  0.0008267 
    4   598     1  1.7294480 -0.0005450 -0.0001934 
    4   598     2  1.7330255  0.0005395 -0.0003404 
    4   598     3  1.7294529 -0.0006863  0.0007705 
    4   598     4  1.7330213  0.0003947  0.0006287 
    4   599     1  1.7295163 -0.0006891  0.0008012 
    4   599     2  1.7295013 -0.0005356 -0.0001559 
    4   599     3  1.7330647  0.0003884  0.0006433 
    4   599     4  1.7330605  0.0005462 -0.0003202 
    4   600     1  1.7295855 -0.0005333 -0.0001270 
    4   600     2  1.7331164  0.0005422 -0.0003027 
    4   600     3  1.7296344 -0.0006871  0.0008340 
    4   600     4  1.7331491  0.0003827  0.0006634 
    4   601     1  1.7297830 -0.0006838  0.0008608 
    4   601     2  1.7297175 -0.0005231 -0.0000893 
    4   601     3  1.7332595  0.0003771  0.0006777 
    4   601     4  1.7332135  0.0005446 -0.0002785 
    4   602     1  1.7277375  0.0003369  0.0007316 
    4   602     2  1.7242606 -0.0007282  0.0009346 
    4   602     3  1.7276622  0.0005129 -0.0002282 
    4   602     4  1.7241664 -0.0005592 -0.0000177 
    4   603     1  1.7275152  0.0005125 -0.0002551 
    4   603     2  1.7275726  0.0003472  0.0007170 
    4   603     3  1.7239832 -0.0005664 -0.0000629 
    4   603     4  1.7240556 -0.0007257  0.0009011 
    4   604     1  1.7184070 -0.0005922  0.0000148 
    4   604     2  1.7219150  0.0004889 -0.0002183 
    4   604     3  1.7184936 -0.0007899  0.0009838 
    4   604     4  1.7219864  0.0002847  0.0007595 
    4   605     1  1.7187439 -0.0007909  0.0010221 
    4   605     2  1.7186339 -0.0005810  0.0000669 
    4   605     3  1.7221979  0.0002779  0.0007758 
    4   605     4  1.7221037  0.0004951 -0.0001897 
    4   606     1  1.7166741  0.0002283  0.0008400 
    4   606     2  1.7132118 -0.0008479  0.0011043 
    4   606     3  1.7165557  0.0004582 -0.0001346 
    4   606     4  1.7130796 -0.0006252  0.0001414 
    4   607     1  1.7163272  0.0004459 -0.0001666 
    4   607     2  1.7164189  0.0002306  0.0008174 
    4   607     3  1.7128207 -0.0006389  0.0000827 
    4   607     4  1.7129196 -0.0008500  0.0010584 
    4   608     1  1.7189377 -0.0005772  0.0001098 
    4   608     2  1.7223441  0.0004864 -0.0001686 
    4   608     3  1.7191415 -0.0007726  0.0010585 
    4   608     4  1.7225200  0.0002791  0.0007943 
    4   609     1  1.7196542 -0.0007691  0.0010862 
    4   609     2  1.7193974 -0.0005682  0.0001653 
    4   609     3  1.7229446  0.0002658  0.0007945 
    4   609     4  1.7227173  0.0004805 -0.0001444 
    4   610     1  1.7175648  0.0002385  0.0008651 
    4   610     2  1.7142155 -0.0008222  0.0011834 
    4   610     3  1.7172858  0.0004670 -0.0000913 
    4   610     4  1.7139244 -0.0006034  0.0002462 
    4   611     1  1.7168435  0.0004531 -0.0001077 
    4   611     2  1.7170614  0.0002344  0.0008621 
    4   611     3  1.7134298 -0.0006193  0.0001915 
    4   611     4  1.7136582 -0.0008313  0.0011490 
    4   612     1  1.7282890  0.0003236  0.0007649 
    4   612     2  1.7249889 -0.0006962  0.0009957 
    4   612     3  1.7281244  0.0004962 -0.0001651 
    4   612     4  1.7247787 -0.0005399  0.0000781 
    4   613     1  1.7278455  0.0005009 -0.0002037 
    4   613     2  1.7279849  0.0003373  0.0007528 
    4   613     3  1.7244101 -0.0005563  0.0000195 
    4   613     4  1.7245778 -0.0007095  0.0009663 
    4   614     1  1.7298951 -0.0005170 -0.0000597 
    4   614     2  1.7333366  0.0005362 -0.0002563 
    4   614     3  1.7300156 -0.0006667  0.0008888 
    4   614     4  1.7334236  0.0003754  0.0006984 
    4   615     1  1.7302825 -0.0006512  0.0009102 
    4   615     2  1.7301457 -0.0004927 -0.0000181 
    4   615     3  1.7336072  0.0003687  0.0007093 
    4   615     4  1.7335152  0.0005417 -0.0002250 
    4   616     1  1.7304048 -0.0004935 -9.99e-006 
    4   616     2  1.7337042  0.0005164 -0.0001990 
    4   616     3  1.7305845 -0.0006229  0.0009150 
    4   616     4  1.7338213  0.0003688  0.0007242 
    4   617     1  1.7308245 -0.0006073  0.0008914 
    4   617     2  1.7306874 -0.0005081 -0.0000222 
    4   617     3  1.7339883  0.0003556  0.0007363 
    4   617     4  1.7339084  0.0004698 -0.0001641 
    4   618     1  1.7290003  0.0003042  0.0007795 
    4   618     2  1.7260214 -0.0006218  0.0010092 
    4   618     3  1.7288323  0.0004669 -0.0000704 
    4   618     4  1.7257154 -0.0004972  0.0001505 
    4   619     1  1.7284489  0.0005039 -0.0001080 
    4   619     2  1.7286543  0.0003144  0.0007780 
    4   619     3  1.7252719 -0.0004892  0.0001544 
    4   619     4  1.7255677 -0.0006485  0.0010259 
    4   620     1  1.7200678 -0.0005540  0.0002529 
    4   620     2  1.7231763  0.0004526 -0.0001069 
    4   620     3  1.7204753 -0.0007276  0.0011096 
    4   620     4  1.7235292  0.0002494  0.0007913 
    4   621     1  1.7218982 -0.0006440  0.0010948 
    4   621     2  1.7214022 -0.0004156  0.0004786 
    4   621     3  1.7241897  0.0001449  0.0007434 
    4   621     4  1.7238914  0.0004552  0.0000730 
    4   622     1  1.7192855  0.0002911  0.0007781 
    4   622     2  1.7163419 -0.0007566  0.0012869 
    4   622     3  1.7185289  0.0006154 -0.0000866 
    4   622     4  1.7157933 -0.0004602  0.0005572 
    4   623     1  1.7178598  0.0004634 -0.0001032 
    4   623     2  1.7183264  0.0002549  0.0008411 
    4   623     3  1.7145910 -0.0005993  0.0002820 
    4   623     4  1.7150365 -0.0008054  0.0012035 
    4   624     1  1.7204282  0.0004404  0.0005967 
    4   624     2  1.7201865 -0.0002277  0.0003812 
    4   624     3  1.7202637 -0.0002408  0.0007678 
    4   624     4  1.7201263 -0.0005621  0.0005631 
    4   625     1  1.7218329 -0.0005656  0.0003890 
    4   625     2  1.7246031  0.0003043  0.0001375 
    4   625     3  1.7225936 -0.0006645  0.0010842 
    4   625     4  1.7248122  0.0000773  0.0007808 
    4   626     1  1.7218145 -0.0005997  0.0007656 
    4   626     2  1.7225618 -0.0005876  0.0000248 
    4   626     3  1.7245871  0.0002404  0.0008984 
    4   626     4  1.7247921  0.0001171  0.0002363 
    4   627     1  1.7290966  0.0002558  0.0009208 
    4   627     2  1.7261338 -0.0006330  0.0009388 
    4   627     3  1.7291958  0.0003210  0.0000927 
    4   627     4  1.7263013 -0.0005452  0.0000602 
    4   628     1  1.7291228  0.0003092 -0.0000165 
    4   628     2  1.7292312  0.0002897  0.0008073 
    4   628     3  1.7261503 -0.0005850  0.0000471 
    4   628     4  1.7263333 -0.0005850  0.0009168 
    4   629     1  1.7308800 -0.0005424 -0.0000439 
    4   629     2  1.7340292  0.0004051 -0.0001129 
    4   629     3  1.7309570 -0.0006003  0.0008790 
    4   629     4  1.7340727  0.0003394  0.0007844 
    4   630     1  1.7308403 -0.0005966  0.0008794 
    4   630     2  1.7309182 -0.0005423 -0.0000509 
    4   630     3  1.7339750  0.0003442  0.0008532 
    4   630     4  1.7340292  0.0003905 -0.0000507 
    4   631     1  1.7288866  0.0003240  0.0001205 
    4   631     2  1.7287226  0.0004094  0.0010093 
    4   631     3  1.7259300 -0.0005774 -0.0000347 
    4   631     4  1.7256391 -0.0005276  0.0008678 
    4   632     1  1.7307049 -0.0005522 -0.0000735 
    4   632     2  1.7338445  0.0003915 -8.33e-006 
    4   632     3  1.7305588 -0.0005602  0.0008838 
    4   632     4  1.7337524  0.0003990  0.0009312 
    4   633     1  1.7301742 -0.0005348  0.0008853 
    4   633     2  1.7303611 -0.0005687 -0.0000941 
    4   633     3  1.7334332  0.0004485  0.0009864 
    4   633     4  1.7335634  0.0003982  0.0000124 
    4   634     1  1.7282526  0.0004410  0.0010741 
    4   634     2  1.7251221 -0.0005189  0.0008849 
    4   634     3  1.7284498  0.0003187  0.0001452 
    4   634     4  1.7254033 -0.0006153 -0.0000377 
    4   635     1  1.7200074 -0.0005953  0.0009798 
    4   635     2  1.7203950 -0.0006728  0.0000677 
    4   635     3  1.7230725  0.0003587  0.0012308 
    4   635     4  1.7234112  0.0002602  0.0002868 
    4   636     1  1.7179076  0.0003395  0.0013888 
    4   636     2  1.7147151 -0.0006536  0.0011340 
    4   636     3  1.7183322  0.0002475  0.0004099 
    4   636     4  1.7151069 -0.0007531  0.0001648 
    4   637     1  1.7193325  0.0003129  0.0004163 
    4   637     2  1.7186074  0.0005130  0.0013800 
    4   637     3  1.7162908 -0.0006921  0.0000249 
    4   637     4  1.7157878 -0.0004891  0.0008476 
    4   638     1  1.7218304 -0.0005855  0.0000249 
    4   638     2  1.7241361  0.0001637  0.0002912 
    4   638     3  1.7213486 -0.0004322  0.0007066 
    4   638     4  1.7238454  0.0003878  0.0010158 
    4   639     1  1.7175093  0.0002241  0.0004320 
    4   639     2  1.7172499  0.0003694  0.0014312 
    4   639     3  1.7142832 -0.0007749  0.0001953 
    4   639     4  1.7140058 -0.0006358  0.0011902 
    4   640     1  1.7195255 -0.0007202  0.0001000 
    4   640     2  1.7227406  0.0002682  0.0003073 
    4   640     3  1.7192771 -0.0006005  0.0010958 
    4   640     4  1.7225231  0.0003988  0.0013116 
    4   641     1  1.7186937 -0.0005970  0.0011558 
    4   641     2  1.7189151 -0.0007294  0.0001324 
    4   641     3  1.7219989  0.0004185  0.0013653 
    4   641     4  1.7221923  0.0002769  0.0003376 
    4   642     1  1.7166622  0.0003949  0.0014805 
    4   642     2  1.7133850 -0.0006215  0.0012355 
    4   642     3  1.7168863  0.0002219  0.0004660 
    4   642     4  1.7136300 -0.0007879  0.0002232 
    4   643     1  1.7273947  0.0004541  0.0012369 
    4   643     2  1.7240296 -0.0005721  0.0010603 
    4   643     3  1.7275403  0.0003323  0.0002008 
    4   643     4  1.7242112 -0.0006827  0.0000277 
    4   644     1  1.7279735  0.0003224  0.0001695 
    4   644     2  1.7278139  0.0004435  0.0011710 
    4   644     3  1.7247322 -0.0006673 -6.66e-006 
    4   644     4  1.7245349 -0.0005585  0.0009878 
    4   645     1  1.7299489 -0.0006099 -0.0000958 
    4   645     2  1.7332258  0.0003822  0.0000325 
    4   645     3  1.7298021 -0.0005304  0.0009182 
    4   645     4  1.7331216  0.0004743  0.0010456 
    4   646     1  1.7294103 -0.0005462  0.0009720 
    4   646     2  1.7295467 -0.0006277 -0.0000734 
    4   646     3  1.7327950  0.0004783  0.0011032 
    4   646     4  1.7329002  0.0003873  0.0000565 
    4   647     1  1.7271310  0.0003282  0.0002256 
    4   647     2  1.7270393  0.0004829  0.0012971 
    4   647     3  1.7237269 -0.0007102  0.0000466 
    4   647     4  1.7236155 -0.0005618  0.0011154 
    4   648     1  1.7291601 -0.0006543 -0.0000586 
    4   648     2  1.7325755  0.0003804  0.0000793 
    4   648     3  1.7290693 -0.0005434  0.0010200 
    4   648     4  1.7325090  0.0004986  0.0011585 
    4   649     1  1.7287496 -0.0005452  0.0010654 
    4   649     2  1.7288266 -0.0006633 -0.0000373 
    4   649     3  1.7322277  0.0005085  0.0012059 
    4   649     4  1.7322857  0.0003846  0.0001020 
    4   650     1  1.7267051  0.0004929  0.0013497 
    4   650     2  1.7232411 -0.0005635  0.0011689 
    4   650     3  1.7267816  0.0003307  0.0002541 
    4   650     4  1.7233389 -0.0007191  0.0000752 
    4   651     1  1.7177869 -0.0005830  0.0012677 
    4   651     2  1.7179094 -0.0007753  0.0001849 
    4   651     3  1.7211960  0.0004653  0.0014858 
    4   651     4  1.7212946  0.0002655  0.0004002 
    4   652     1  1.7157404  0.0004360  0.0016165 
    4   652     2  1.7123630 -0.0006134  0.0013591 
    4   652     3  1.7158628  0.0001983  0.0005429 
    4   652     4  1.7125055 -0.0008443  0.0002889 
    4   653     1  1.7163291  0.0002026  0.0005008 
    4   653     2  1.7161922  0.0004313  0.0015505 
    4   653     3  1.7130164 -0.0008271  0.0002467 
    4   653     4  1.7128535 -0.0006068  0.0012931 
    4   654     1  1.7183558 -0.0007632  0.0001515 
    4   654     2  1.7217014  0.0002654  0.0003652 
    4   654     3  1.7182193 -0.0005826  0.0012123 
    4   654     4  1.7215880  0.0004533  0.0014285 
    4   655     1  1.7154284  0.0001886  0.0005859 
    4   655     2  1.7153668  0.0004553  0.0016908 
    4   655     3  1.7120148 -0.0008710  0.0003298 
    4   655     4  1.7119341 -0.0006108  0.0014311 
    4   656     1  1.7174788 -0.0008003  0.0002154 
    4   656     2  1.7209173  0.0002571  0.0004350 
    4   656     3  1.7174155 -0.0005784  0.0013269 
    4   656     4  1.7208714  0.0004845  0.0015485 
    4   657     1  1.7170643 -0.0005805  0.0013864 
    4   657     2  1.7171212 -0.0008065  0.0002551 
    4   657     3  1.7205460  0.0004898  0.0016071 
    4   657     4  1.7205889  0.0002592  0.0004738 
    4   658     1  1.7150043  0.0004583  0.0017570 
    4   658     2  1.7115423 -0.0006154  0.0015006 
    4   658     3  1.7150566  0.0001887  0.0006316 
    4   658     4  1.7116075 -0.0008807  0.0003774 
    4   659     1  1.7261248  0.0005133  0.0014527 
    4   659     2  1.7226062 -0.0005594  0.0012714 
    4   659     3  1.7261594  0.0003283  0.0003117 
    4   659     4  1.7226552 -0.0007398  0.0001323 
    4   660     1  1.7264527  0.0003257  0.0002815 
    4   660     2  1.7264123  0.0005098  0.0014025 
    4   660     3  1.7229687 -0.0007370  0.0000995 
    4   660     4  1.7229178 -0.0005563  0.0012188 
    4   661     1  1.7285105 -0.0006800 -0.0000193 
    4   661     2  1.7320062  0.0003796  0.0001250 
    4   661     3  1.7284649 -0.0005412  0.0011078 
    4   661     4  1.7319762  0.0005231  0.0012525 
    4   662     1  1.7281883 -0.0005426  0.0011511 
    4   662     2  1.7282271 -0.0006845  4.46e-006 
    4   662     3  1.7317237  0.0005289  0.0012963 
    4   662     4  1.7317497  0.0003831  0.0001488 
    4   663     1  1.7258687  0.0003292  0.0003441 
    4   663     2  1.7258470  0.0005190  0.0015011 
    4   663     3  1.7223388 -0.0007464  0.0001659 
    4   663     4  1.7223103 -0.0005587  0.0013214 
    4   664     1  1.7279477 -0.0006930  0.0000284 
    4   664     2  1.7314929  0.0003818  0.0001757 
    4   664     3  1.7279200 -0.0005423  0.0011912 
    4   664     4  1.7314766  0.0005358  0.0013384 
    4   665     1  1.7276415 -0.0005436  0.0012321 
    4   665     2  1.7276716 -0.0006944  0.0000552 
    4   665     3  1.7312137  0.0005393  0.0013804 
    4   665     4  1.7312348  0.0003858  0.0002035 
    4   666     1  1.7255598  0.0005190  0.0015488 
    4   666     2  1.7220102 -0.0005620  0.0013725 
    4   666     3  1.7255848  0.0003334  0.0003779 
    4   666     4  1.7220435 -0.0007449  0.0002027 
    4   667     1  1.7164117 -0.0005807  0.0015030 
    4   667     2  1.7164422 -0.0008176  0.0003405 
    4   667     3  1.7199366  0.0005020  0.0017226 
    4   667     4  1.7199582  0.0002621  0.0005581 
    4   668     1  1.7143394  0.0004677  0.0018878 
    4   668     2  1.7108342 -0.0006172  0.0016367 
    4   668     3  1.7143630  0.0001887  0.0007295 
    4   668     4  1.7108668 -0.0008930  0.0004802 
    4   669     1  1.7146972  0.0001870  0.0006802 
    4   669     2  1.7146727  0.0004689  0.0018234 
    4   669     3  1.7112179 -0.0008909  0.0004270 
    4   669     4  1.7111829 -0.0006128  0.0015675 
    4   670     1  1.7167684 -0.0008191  0.0002958 
    4   670     2  1.7202659  0.0002557  0.0005160 
    4   670     3  1.7167381 -0.0005809  0.0014443 
    4   670     4  1.7202479  0.0004978  0.0016654 
    4   671     1  1.7140207  0.0001968  0.0007851 
    4   671     2  1.7139933  0.0004658  0.0019470 
    4   671     3  1.7105121 -0.0008867  0.0005429 
    4   671     4  1.7104792 -0.0006200  0.0017017 
    4   672     1  1.7161110 -0.0008168  0.0003930 
    4   672     2  1.7196390  0.0002659  0.0006082 
    4   672     3  1.7160762 -0.0005864  0.0015582 
    4   672     4  1.7196120  0.0004986  0.0017741 
    4   673     1  1.7157222 -0.0005871  0.0016180 
    4   673     2  1.7157630 -0.0008114  0.0004432 
    4   673     3  1.7192634  0.0004988  0.0018311 
    4   673     4  1.7192997  0.0002731  0.0006553 
    4   674     1  1.7136359  0.0004574  0.0020114 
    4   674     2  1.7101156 -0.0006284  0.0017733 
    4   674     3  1.7136696  0.0001980  0.0008431 
    4   674     4  1.7101568 -0.0008854  0.0006059 
    4   675     1  1.7252853  0.0003379  0.0004183 
    4   675     2  1.7252497  0.0005164  0.0015927 
    4   675     3  1.7217333 -0.0007433  0.0002442 
    4   675     4  1.7216931 -0.0005662  0.0014186 
    4   676     1  1.7273831 -0.0006955  0.0000855 
    4   676     2  1.7309594  0.0003889  0.0002362 
    4   676     3  1.7273420 -0.0005474  0.0012687 
    4   676     4  1.7309264  0.0005393  0.0014183 
    4   677     1  1.7270135 -0.0005494  0.0013053 
    4   677     2  1.7270677 -0.0006983  0.0001136 
    4   677     3  1.7306052  0.0005401  0.0014594 
    4   677     4  1.7306540  0.0003899  0.0002698 
    4   678     1  1.7249102  0.0005165  0.0016389 
    4   678     2  1.7213506 -0.0005666  0.0014665 
    4   678     3  1.7249595  0.0003455  0.0004554 
    4   678     4  1.7214020 -0.0007369  0.0002838 
    4   679     1  1.7132909  0.0002135  0.0009099 
    4   679     2  1.7132301  0.0004479  0.0020675 
    4   679     3  1.7097795 -0.0008668  0.0006834 
    4   679     4  1.7097150 -0.0006343  0.0018374 
    4   680     1  1.7153975 -0.0008000  0.0005079 
    4   680     2  1.7189311  0.0002823  0.0007150 
    4   680     3  1.7153301 -0.0005953  0.0016690 
    4   680     4  1.7188672  0.0004883  0.0018769 
    4   681     1  1.7149161 -0.0005975  0.0017299 
    4   681     2  1.7149817 -0.0007944  0.0005653 
    4   681     3  1.7184539  0.0004850  0.0019319 
    4   681     4  1.7185197  0.0002873  0.0007635 
    4   682     1  1.7128192  0.0004370  0.0021343 
    4   682     2  1.7092925 -0.0006465  0.0019134 
    4   682     3  1.7128815  0.0002141  0.0009744 
    4   682     4  1.7093693 -0.0008645  0.0007559 
    4   683     1  1.7246007  0.0003508  0.0005036 
    4   683     2  1.7245199  0.0005038  0.0016759 
    4   683     3  1.7210454 -0.0007306  0.0003333 
    4   683     4  1.7209655 -0.0005771  0.0015070 
    4   684     1  1.7267205 -0.0006978  0.0001488 
    4   684     2  1.7303084  0.0003921  0.0003130 
    4   684     3  1.7266352 -0.0005555  0.0013340 
    4   684     4  1.7302245  0.0005343  0.0014942 
    4   685     1  1.7262082 -0.0005549  0.0013608 
    4   685     2  1.7263181 -0.0007020  0.0001810 
    4   685     3  1.7297746  0.0005301  0.0015327 
    4   685     4  1.7298968  0.0003875  0.0003589 
    4   686     1  1.7240869  0.0005000  0.0017163 
    4   686     2  1.7205495 -0.0005756  0.0015485 
    4   686     3  1.7241877  0.0003564  0.0005428 
    4   686     4  1.7206354 -0.0007234  0.0003762 
    4   687     1  1.7124604  0.0002267  0.0010341 
    4   687     2  1.7123871  0.0004271  0.0021878 
    4   687     3  1.7089228 -0.0008554  0.0008346 
    4   687     4  1.7088172 -0.0006666  0.0019770 
    4   688     1  1.7145634 -0.0007882  0.0006457 
    4   688     2  1.7180971  0.0002878  0.0008198 
    4   688     3  1.7144950 -0.0006149  0.0017846 
    4   688     4  1.7180287  0.0004629  0.0019696 
    4   689     1  1.7142044 -0.0006317  0.0018757 
    4   689     2  1.7141617 -0.0007952  0.0007496 
    4   689     3  1.7177450  0.0004403  0.0020133 
    4   689     4  1.7176961  0.0002692  0.0008439 
    4   690     1  1.7121123  0.0004277  0.0022436 
    4   690     2  1.7083232 -0.0007267  0.0020527 
    4   690     3  1.7120985  0.0002197  0.0010336 
    4   690     4  1.7084265 -0.0008961  0.0008664 
    4   691     1  1.7237347  0.0003574  0.0005925 
    4   691     2  1.7235981  0.0004714  0.0017392 
    4   691     3  1.7202093 -0.0007121  0.0004403 
    4   691     4  1.7201136 -0.0005863  0.0015842 
    4   692     1  1.7258745 -0.0006991  0.0002264 
    4   692     2  1.7294090  0.0003809  0.0004250 
    4   692     3  1.7257171 -0.0005577  0.0013769 
    4   692     4  1.7292108  0.0005081  0.0015618 
    4   693     1  1.7251740 -0.0005350  0.0013738 
    4   693     2  1.7253646 -0.0007132  0.0002702 
    4   693     3  1.7284653  0.0004787  0.0015921 
    4   693     4  1.7287794  0.0003436  0.0005206 
    4   694     1  1.7231053  0.0004374  0.0017492 
    4   694     2  1.7197677 -0.0005711  0.0016307 
    4   694     3  1.7232436  0.0003702  0.0006238 
    4   694     4  1.7197781 -0.0006750  0.0005210 
    4   695     1  1.7119714  0.0003713  0.0009584 
    4   695     2  1.7121391  0.0004826  0.0022774 
    4   695     3  1.7079506 -0.0008377  0.0008738 
    4   695     4  1.7078175 -0.0008177  0.0021668 
    4   696     1  1.7140589 -0.0007107  0.0008914 
    4   696     2  1.7175931  0.0003580  0.0007350 
    4   696     3  1.7143170 -0.0007083  0.0019987 
    4   696     4  1.7180889  0.0004250  0.0019385 
    4   697     1  1.7150785 -0.0009618  0.0022038 
    4   697     2  1.7146316 -0.0006097  0.0007786 
    4   697     3  1.7202770  0.0006683  0.0017598 
    4   697     4  1.7188197  0.0006921  0.0004550 
    4   698     1  1.7121795  0.0005943  0.0024991 
    4   698     2  1.7073632 -0.0008590  0.0023513 
    4   698     3  1.7120158  0.0003657  0.0010395 
    4   698     4  1.7074892 -0.0010013  0.0008910 
    4   699     1  1.7237915  0.0001496  0.0012831 
    4   699     2  1.7226602 -0.0006360  0.0017953 
    4   699     3  1.7231040  0.0005441  0.0013493 
    4   699     4  1.7224588 -0.0001370  0.0017069 
    4   700     1  1.7226411  0.0002611  0.0006306 
    4   700     2  1.7226266  0.0003205  0.0016889 
    4   700     3  1.7195466 -0.0006552  0.0008066 
    4   700     4  1.7198976 -0.0004976  0.0016774 
    4   701     1  1.7250681 -0.0004707  0.0003720 
    4   701     2  1.7277746  0.0004043  0.0007948 
    4   701     3  1.7247135 -0.0004099  0.0013148 
    4   701     4  1.7271539  0.0003508  0.0015351 
    4   702     1  1.7150764 -0.0011271  0.0005258 
    4   702     2  1.7207953  0.0005950  0.0006697 
    4   702     3  1.7150439 -0.0009994  0.0023941 
    4   702     4  1.7205179  0.0006352  0.0023462 
    4   703     1  1.7142482 -0.0008639  0.0021864 
    4   703     2  1.7144690 -0.0010052  0.0005611 
    4   703     3  1.7193932  0.0006982  0.0024206 
    4   703     4  1.7196488  0.0005671  0.0007941 
    4   704     1  1.7111905  0.0006749  0.0027546 
    4   704     2  1.7060334 -0.0008933  0.0025122 
    4   704     3  1.7113822  0.0004648  0.0011516 
    4   704     4  1.7062464 -0.0011000  0.0008913 
    4   705     1  1.7117529  0.0004603  0.0009839 
    4   705     2  1.7117354  0.0005199  0.0025180 
    4   705     3  1.7068979 -0.0010007  0.0008493 
    4   705     4  1.7066794 -0.0010008  0.0023964 
    4   706     1  1.7017963 -0.0010868  0.0010481 
    4   706     2  1.7055545  0.0001152  0.0014373 
    4   706     3  1.7013040 -0.0008160  0.0022157 
    4   706     4  1.7053494  0.0004730  0.0026207 
    4   707     1  1.6997761 -0.0009143  0.0024139 
    4   707     2  1.7003140 -0.0011215  0.0010525 
    4   707     3  1.7044549  0.0005599  0.0028459 
    4   707     4  1.7047188  0.0002624  0.0014443 
    4   708     1  1.6966916  0.0005365  0.0030754 
    4   708     2  1.6927704 -0.0010039  0.0022121 
    4   708     3  1.6972923 -0.0001613  0.0021311 
    4   708     4  1.6941348 -0.0013778  0.0014635 
    4   709     1  1.6992262 -0.0000990  0.0019762 
    4   709     2  1.6988154  0.0003054  0.0027874 
    4   709     3  1.6964205 -0.0011245  0.0014499 
    4   709     4  1.6957999 -0.0007465  0.0023023 
    4   710     1  1.6992900 -0.0012160  0.0010653 
    4   710     2  1.7039005  0.0002352  0.0014755 
    4   710     3  1.6988968 -0.0008672  0.0024704 
    4   710     4  1.7036897  0.0006491  0.0029204 
    4   711     1  1.6977071 -0.0010178  0.0027923 
    4   711     2  1.6979370 -0.0012299  0.0012078 
    4   711     3  1.7028286  0.0005562  0.0031268 
    4   711     4  1.7030478  0.0003360  0.0015140 
    4   712     1  1.6945865  0.0005322  0.0034981 
    4   712     2  1.6894003 -0.0010672  0.0031472 
    4   712     3  1.6947900  0.0002312  0.0018651 
    4   712     4  1.6895622 -0.0013796  0.0015174 
    4   713     1  1.6956710  0.0003223  0.0017870 
    4   713     2  1.6952102  0.0007068  0.0035024 
    4   713     3  1.6902777 -0.0013805  0.0012875 
    4   713     4  1.6901012 -0.0009615  0.0028460 
    4   714     1  1.6939685  0.0002256  0.0019727 
    4   714     2  1.6937839  0.0004843  0.0035804 
    4   714     3  1.6888202 -0.0013542  0.0016564 
    4   714     4  1.6886454 -0.0010933  0.0032603 
    4   715     1  1.6971123 -0.0012278  0.0013308 
    4   715     2  1.7022777  0.0003526  0.0016269 
    4   715     3  1.6969161 -0.0009947  0.0029388 
    4   715     4  1.7020786  0.0005857  0.0032393 
    4   716     1  1.6961369 -0.0010083  0.0030600 
    4   716     2  1.6963241 -0.0012268  0.0014387 
    4   716     3  1.7012985  0.0005684  0.0033447 
    4   716     4  1.7014848  0.0003491  0.0017201 
    4   717     1  1.6930207  0.0004822  0.0037065 
    4   717     2  1.6878835 -0.0010937  0.0033932 
    4   717     3  1.6931943  0.0002197  0.0020921 
    4   717     4  1.6880574 -0.0013560  0.0017797 
    4   718     1  1.7105762  0.0004623  0.0012482 
    4   718     2  1.7103579  0.0006231  0.0028617 
    4   718     3  1.7054220 -0.0011048  0.0010020 
    4   718     4  1.7052015 -0.0009450  0.0026127 
    4   719     1  1.7136946 -0.0010061  0.0006523 
    4   719     2  1.7188344  0.0005541  0.0008817 
    4   719     3  1.7134743 -0.0008569  0.0022606 
    4   719     4  1.7186127  0.0007034  0.0024936 
    4   720     1  1.7126908 -0.0008793  0.0023631 
    4   720     2  1.7128944 -0.0010073  0.0007400 
    4   720     3  1.7178584  0.0006866  0.0025783 
    4   720     4  1.7180541  0.0005555  0.0009491 
    4   721     1  1.7095829  0.0006291  0.0029615 
    4   721     2  1.7044143 -0.0009415  0.0027195 
    4   721     3  1.7097810  0.0004654  0.0013325 
    4   721     4  1.7046158 -0.0011035  0.0010951 
    4   722     1  1.6924115  0.0002184  0.0022119 
    4   722     2  1.6922382  0.0004728  0.0038315 
    4   722     3  1.6872755 -0.0013554  0.0019064 
    4   722     4  1.6870994 -0.0011022  0.0035238 
    4   723     1  1.6955425 -0.0012240  0.0015499 
    4   723     2  1.7007032  0.0003499  0.0018213 
    4   723     3  1.6953570 -0.0010158  0.0031752 
    4   723     4  1.7005219  0.0005598  0.0034497 
    4   724     1  1.6945697 -0.0010248  0.0032991 
    4   724     2  1.6947519 -0.0012254  0.0016560 
    4   724     3  1.6997441  0.0005519  0.0035646 
    4   724     4  1.6999211  0.0003494  0.0019192 
    4   725     1  1.6914483  0.0004654  0.0039637 
    4   725     2  1.6863015 -0.0011104  0.0036631 
    4   725     3  1.6916187  0.0002169  0.0023278 
    4   725     4  1.6864769 -0.0013570  0.0020294 
    4   726     1  1.7090096  0.0004641  0.0014195 
    4   726     2  1.7088219  0.0006187  0.0030556 
    4   726     3  1.7038347 -0.0011062  0.0011912 
    4   726     4  1.7036394 -0.0009541  0.0028251 
    4   727     1  1.7121256 -0.0010061  0.0008232 
    4   727     2  1.7173115  0.0005623  0.0010177 
    4   727     3  1.7119327 -0.0008914  0.0024616 
    4   727     4  1.7171314  0.0006814  0.0026609 
    4   728     1  1.7111819 -0.0009019  0.0025604 
    4   728     2  1.7113695 -0.0010076  0.0009009 
    4   728     3  1.7164088  0.0006778  0.0027486 
    4   728     4  1.7165818  0.0005675  0.0010863 
    4   729     1  1.7080617  0.0006187  0.0031577 
    4   729     2  1.7028645 -0.0009575  0.0029328 
    4   729     3  1.7082427  0.0004671  0.0015037 
    4   729     4  1.7030537 -0.0011064  0.0012814 
    4   730     1  1.6908109  0.0002198  0.0024461 
    4   730     2  1.6906300  0.0004541  0.0040944 
    4   730     3  1.6856638 -0.0013537  0.0021570 
    4   730     4  1.6854819 -0.0011201  0.0038027 
    4   731     1  1.6939529 -0.0012232  0.0017670 
    4   731     2  1.6991269  0.0003517  0.0020230 
    4   731     3  1.6937593 -0.0010352  0.0034216 
    4   731     4  1.6989381  0.0005413  0.0036794 
    4   732     1  1.6929257 -0.0010436  0.0035477 
    4   732     2  1.6931240 -0.0012241  0.0018771 
    4   732     3  1.6981040  0.0005317  0.0037997 
    4   732     4  1.6983034  0.0003514  0.0021286 
    4   733     1  1.6897938  0.0004439  0.0042283 
    4   733     2  1.6846440 -0.0011287  0.0039466 
    4   733     3  1.6899783  0.0002214  0.0025640 
    4   733     4  1.6848281 -0.0013508  0.0022852 
    4   734     1  1.7074688  0.0004677  0.0015950 
    4   734     2  1.7072765  0.0006099  0.0032615 
    4   734     3  1.7022706 -0.0011080  0.0013757 
    4   734     4  1.7020699 -0.0009682  0.0030422 
    4   735     1  1.7106103 -0.0010075  0.0009792 
    4   735     2  1.7158438  0.0005732  0.0011608 
    4   735     3  1.7104106 -0.0009126  0.0026582 
    4   735     4  1.7156605  0.0006731  0.0028403 
    4   736     1  1.7095996 -0.0009198  0.0027558 
    4   736     2  1.7098186 -0.0010105  0.0010585 
    4   736     3  1.7148640  0.0006704  0.0029395 
    4   736     4  1.7150675  0.0005753  0.0012445 
    4   737     1  1.7064500  0.0006052  0.0033719 
    4   737     2  1.7012434 -0.0009730  0.0031516 
    4   737     3  1.7066585  0.0004665  0.0016916 
    4   737     4  1.7014561 -0.0011108  0.0014696 
    4   738     1  1.6891180  0.0002278  0.0026848 
    4   738     2  1.6889042  0.0004219  0.0043575 
    4   738     3  1.6839744 -0.0013394  0.0024215 
    4   738     4  1.6837750 -0.0011415  0.0040910 
    4   739     1  1.6922739 -0.0012192  0.0019946 
    4   739     2  1.6974371  0.0003510  0.0022440 
    4   739     3  1.6920425 -0.0010550  0.0036712 
    4   739     4  1.6971958  0.0005120  0.0039188 
    4   740     1  1.6911195 -0.0010580  0.0037921 
    4   740     2  1.6913634 -0.0012200  0.0021144 
    4   740     3  1.6962191  0.0004932  0.0040409 
    4   740     4  1.6964964  0.0003419  0.0023688 
    4   741     1  1.6879957  0.0004011  0.0044851 
    4   741     2  1.6829014 -0.0011484  0.0042377 
    4   741     3  1.6882159  0.0002312  0.0028050 
    4   741     4  1.6830904 -0.0013268  0.0025628 
    4   742     1  1.7057908  0.0004629  0.0018035 
    4   742     2  1.7055343  0.0005903  0.0034873 
    4   742     3  1.7006061 -0.0011102  0.0015725 
    4   742     4  1.7003490 -0.0009823  0.0032622 
    4   743     1  1.7089765 -0.0010104  0.0011439 
    4   743     2  1.7142233  0.0005762  0.0013438 
    4   743     3  1.7087073 -0.0009281  0.0028555 
    4   743     4  1.7139716  0.0006631  0.0030482 
    4   744     1  1.7076975 -0.0009253  0.0029533 
    4   744     2  1.7080326 -0.0010136  0.0012372 
    4   744     3  1.7129397  0.0006627  0.0031715 
    4   744     4  1.7132554  0.0005702  0.0014691 
    4   745     1  1.7045017  0.0005782  0.0036130 
    4   745     2  1.6993744 -0.0009801  0.0033697 
    4   745     3  1.7048165  0.0004489  0.0019383 
    4   745     4  1.6996762 -0.0011150  0.0016820 
    4   746     1  1.6872911  0.0002431  0.0029227 
    4   746     2  1.6870374  0.0003569  0.0045941 
    4   746     3  1.6822153 -0.0012934  0.0027234 
    4   746     4  1.6820474 -0.0011553  0.0043837 
    4   747     1  1.6904300 -0.0012077  0.0022465 
    4   747     2  1.6954664  0.0003282  0.0025172 
    4   747     3  1.6901339 -0.0010565  0.0039000 
    4   747     4  1.6950904  0.0004533  0.0041546 
    4   748     1  1.6891139 -0.0010206  0.0039732 
    4   748     2  1.6894282 -0.0012252  0.0023816 
    4   748     3  1.6937477  0.0004018  0.0042626 
    4   748     4  1.6942611  0.0002642  0.0027145 
    4   749     1  1.6861267  0.0002961  0.0046669 
    4   749     2  1.6813717 -0.0011361  0.0045319 
    4   749     3  1.6863597  0.0002690  0.0030220 
    4   749     4  1.6813973 -0.0012236  0.0029165 
    4   750     1  1.7036715  0.0004211  0.0021260 
    4   750     2  1.7032372  0.0005533  0.0037537 
    4   750     3  1.6986646 -0.0011132  0.0018168 
    4   750     4  1.6982515 -0.0009701  0.0034728 
    4   751     1  1.7069466 -0.0010075  0.0013460 
    4   751     2  1.7120942  0.0005630  0.0016347 
    4   751     3  1.7064785 -0.0009181  0.0030521 
    4   751     4  1.7116651  0.0006605  0.0033149 
    4   752     1  1.7048864 -0.0009060  0.0031199 
    4   752     2  1.7055560 -0.0010564  0.0014430 
    4   752     3  1.7100364  0.0006850  0.0034855 
    4   752     4  1.7105968  0.0005098  0.0018441 
    4   753     1  1.7015536  0.0005317  0.0039203 
    4   753     2  1.6969151 -0.0009070  0.0035669 
    4   753     3  1.7021636  0.0003905  0.0024307 
    4   753     4  1.6975102 -0.0010673  0.0020090 
    4   754     1  1.6853432  0.0002098  0.0030454 
    4   754     2  1.6852664  0.0001331  0.0046239 
    4   754     3  1.6809091 -0.0011317  0.0033973 
    4   754     4  1.6813881 -0.0010316  0.0046766 
    4   755     1  1.6887807 -0.0009429  0.0025786 
    4   755     2  1.6925681  0.0002873  0.0031819 
    4   755     3  1.6882620 -0.0008430  0.0039511 
    4   755     4  1.6916671  0.0002200  0.0042601 
    4   756     1  1.6868491 -0.0000538  0.0039891 
    4   756     2  1.6850930 -0.0013570  0.0048196 
    4   756     3  1.6858298  0.0006275  0.0041044 
    4   756     4  1.6848095 -0.0005114  0.0046843 
    4   757     1  1.6952380  0.0008958  0.0045808 
    4   757     2  1.6902262 -0.0010785  0.0034711 
    4   757     3  1.6962252 -0.0000286  0.0032831 
    4   757     4  1.6921191 -0.0016048  0.0024217 
    4   758     1  1.6996761  0.0000413  0.0030179 
    4   758     2  1.6989457  0.0005330  0.0041504 
    4   758     3  1.6959596 -0.0013107  0.0023268 
    4   758     4  1.6949773 -0.0008400  0.0035308 
    4   759     1  1.7035785 -0.0012525  0.0015194 
    4   759     2  1.7086525  0.0003751  0.0020624 
    4   759     3  1.7025928 -0.0009815  0.0031762 
    4   759     4  1.7079592  0.0007298  0.0037202 
    4   760     1  1.6996056 -0.0010822  0.0034729 
    4   760     2  1.7006780 -0.0012279  0.0015927 
    4   760     3  1.7056318  0.0008181  0.0040493 
    4   760     4  1.7064690  0.0005920  0.0021212 
    4   761     1  1.6983793 -0.0012639  0.0017128 
    4   761     2  1.7043292  0.0005951  0.0022010 
    4   761     3  1.6975639 -0.0009665  0.0036315 
    4   761     4  1.7036635  0.0009541  0.0041857 
    4   762     1  1.6951831 -0.0012184  0.0041556 
    4   762     2  1.6957475 -0.0012664  0.0019720 
    4   762     3  1.7018224  0.0007987  0.0044999 
    4   762     4  1.7024234  0.0007557  0.0022565 
    4   763     1  1.6909448  0.0007111  0.0052572 
    4   763     2  1.6840971 -0.0013582  0.0049968 
    4   763     3  1.6915124  0.0006936  0.0029401 
    4   763     4  1.6845604 -0.0014052  0.0027007 
    4   764     1  1.6933951  0.0008083  0.0028250 
    4   764     2  1.6924214  0.0010473  0.0052755 
    4   764     3  1.6861963 -0.0014193  0.0023002 
    4   764     4  1.6857110 -0.0010874  0.0045150 
    4   765     1  1.6744545 -0.0018598  0.0056733 
    4   765     2  1.6738272 -0.0010293  0.0036090 
    4   765     3  1.6817083  0.0005098  0.0048055 
    4   765     4  1.6797410  0.0008769  0.0029547 
    4   766     1  1.6704005  0.0002783  0.0061433 
    4   766     2  1.6637394 -0.0017205  0.0061928 
    4   766     3  1.6700829  0.0002086  0.0040000 
    4   766     4  1.6637193 -0.0017007  0.0040353 
    4   767     1  1.6700202  0.0002782  0.0038296 
    4   767     2  1.6703321  0.0001888  0.0058037 
    4   767     3  1.6642362 -0.0014592  0.0039261 
    4   767     4  1.6642061 -0.0016475  0.0058644 
    4   768     1  1.6730681 -0.0012355  0.0037344 
    4   768     2  1.6781120  0.0003275  0.0033482 
    4   768     3  1.6734548 -0.0014437  0.0053645 
    4   768     4  1.6787951  0.0001794  0.0051164 
    4   769     1  1.6743437 -0.0017606  0.0032913 
    4   769     2  1.6822365  0.0006062  0.0032804 
    4   769     3  1.6742820 -0.0018760  0.0060065 
    4   769     4  1.6817666  0.0003779  0.0057284 
    4   770     1  1.6729422 -0.0015805  0.0057929 
    4   770     2  1.6732862 -0.0015385  0.0034624 
    4   770     3  1.6798679  0.0005003  0.0059381 
    4   770     4  1.6803084  0.0005712  0.0036052 
    4   771     1  1.6688055  0.0003394  0.0066663 
    4   771     2  1.6618163 -0.0017586  0.0065888 
    4   771     3  1.6691145  0.0003777  0.0043529 
    4   771     4  1.6621309 -0.0017194  0.0042411 
    4   772     1  1.6697843  0.0003717  0.0040082 
    4   772     2  1.6697652  0.0001217  0.0062289 
    4   772     3  1.6631219 -0.0016239  0.0040787 
    4   772     4  1.6628906 -0.0019415  0.0063390 
    4   773     1  1.6677663  0.0003861  0.0045835 
    4   773     2  1.6673849  0.0002935  0.0068865 
    4   773     3  1.6608591 -0.0016868  0.0044883 
    4   773     4  1.6604782 -0.0017794  0.0067805 
    4   774     1  1.6719521 -0.0014955  0.0037095 
    4   774     2  1.6788417  0.0005731  0.0038247 
    4   774     3  1.6715683 -0.0015678  0.0059873 
    4   774     4  1.6784175  0.0004890  0.0061139 
    4   775     1  1.6702444 -0.0015885  0.0062214 
    4   775     2  1.6705626 -0.0014598  0.0039637 
    4   775     3  1.6770648  0.0004564  0.0062910 
    4   775     4  1.6774212  0.0005969  0.0040078 
    4   776     1  1.6661020  0.0002704  0.0071060 
    4   776     2  1.6591661 -0.0018090  0.0070493 
    4   776     3  1.6664227  0.0004082  0.0047911 
    4   776     4  1.6594954 -0.0016691  0.0047600 
    4   777     1  1.6898388  0.0007125  0.0030866 
    4   777     2  1.6893469  0.0006370  0.0053603 
    4   777     3  1.6830141 -0.0013386  0.0029363 
    4   777     4  1.6825747 -0.0013991  0.0051890 
    4   778     1  1.6940150 -0.0012334  0.0021769 
    4   778     2  1.7007495  0.0007945  0.0023700 
    4   778     3  1.6935259 -0.0012637  0.0043980 
    4   778     4  1.7002394  0.0007589  0.0046114 
    4   779     1  1.6920092 -0.0012812  0.0045681 
    4   779     2  1.6924551 -0.0012085  0.0023520 
    4   779     3  1.6986928  0.0007275  0.0047267 
    4   779     4  1.6991824  0.0008131  0.0025029 
    4   780     1  1.6878912  0.0006063  0.0054896 
    4   780     2  1.6811711 -0.0014096  0.0053863 
    4   780     3  1.6883276  0.0007386  0.0032353 
    4   780     4  1.6815439 -0.0012964  0.0031514 
    4   781     1  1.6652269  0.0004700  0.0049634 
    4   781     2  1.6649959  0.0002317  0.0072925 
    4   781     3  1.6582334 -0.0016297  0.0050562 
    4   781     4  1.6579810 -0.0018711  0.0073391 
    4   782     1  1.6693147 -0.0014051  0.0042525 
    4   782     2  1.6761398  0.0006432  0.0041784 
    4   782     3  1.6690922 -0.0016190  0.0064676 
    4   782     4  1.6758643  0.0004105  0.0064385 
    4   783     1  1.6683854 -0.0016509  0.0067348 
    4   783     2  1.6683202 -0.0013679  0.0045955 
    4   783     3  1.6750688  0.0003632  0.0065430 
    4   783     4  1.6750595  0.0006772  0.0043020 
    4   784     1  1.6643736  0.0002287  0.0074169 
    4   784     2  1.6570915 -0.0019663  0.0076349 
    4   784     3  1.6643367  0.0005822  0.0050349 
    4   784     4  1.6571786 -0.0015856  0.0053155 
    4   785     1  1.6869018  0.0007697  0.0033896 
    4   785     2  1.6864794  0.0005545  0.0056006 
    4   785     3  1.6801906 -0.0012419  0.0033848 
    4   785     4  1.6798851 -0.0014211  0.0055705 
    4   786     1  1.6909921 -0.0011738  0.0025281 
    4   786     2  1.6976336  0.0008206  0.0026727 
    4   786     3  1.6905365 -0.0012773  0.0047023 
    4   786     4  1.6970777  0.0006868  0.0048377 
    4   787     1  1.6890750 -0.0012206  0.0047773 
    4   787     2  1.6895475 -0.0011712  0.0026963 
    4   787     3  1.6952133  0.0006268  0.0049491 
    4   787     4  1.6959441  0.0007555  0.0029107 
    4   788     1  1.6851707  0.0004920  0.0056661 
    4   788     2  1.6789089 -0.0013852  0.0057397 
    4   788     3  1.6855459  0.0008229  0.0035217 
    4   788     4  1.6789943 -0.0011464  0.0036495 
    4   789     1  1.6640470  0.0009475  0.0049834 
    4   789     2  1.6644332  0.0003364  0.0074383 
    4   789     3  1.6564956 -0.0013856  0.0055118 
    4   789     4  1.6564816 -0.0021059  0.0079453 
    4   790     1  1.6680717 -0.0011958  0.0049783 
    4   790     2  1.6746235  0.0009349  0.0042052 
    4   790     3  1.6685651 -0.0017878  0.0069912 
    4   790     4  1.6754794  0.0003889  0.0063728 
    4   791     1  1.6698115 -0.0023049  0.0072866 
    4   791     2  1.6690185 -0.0009325  0.0048115 
    4   791     3  1.6790991  0.0009093  0.0058325 
    4   791     4  1.6766085  0.0016447  0.0037014 
    4   792     1  1.6645273  0.0003909  0.0078041 
    4   792     2  1.6559906 -0.0022233  0.0083002 
    4   792     3  1.6641708  0.0008013  0.0051907 
    4   792     4  1.6559654 -0.0017066  0.0056433 
    4   793     1  1.6428072 -0.0024101  0.0091629 
    4   793     2  1.6431617 -0.0018766  0.0065554 
    4   793     3  1.6510685  0.0000854  0.0088759 
    4   793     4  1.6512133  0.0005552  0.0062777 
    4   794     1  1.6379724 -0.0001994  0.0099661 
    4   794     2  1.6299621 -0.0026046  0.0101250 
    4   794     3  1.6384222  0.0002746  0.0073999 
    4   794     4  1.6305538 -0.0020886  0.0075608 
    4   795     1  1.6398243  0.0001949  0.0071441 
    4   795     2  1.6394269 -0.0001940  0.0096427 
    4   795     3  1.6322233 -0.0020862  0.0072631 
    4   795     4  1.6316854 -0.0025157  0.0097489 
    4   796     1  1.6443678 -0.0017975  0.0063506 
    4   796     2  1.6520445  0.0005193  0.0061017 
    4   796     3  1.6440577 -0.0022732  0.0088375 
    4   796     4  1.6519286  0.0000985  0.0086061 
    4   797     1  1.6452599 -0.0021916  0.0084929 
    4   797     2  1.6455630 -0.0018146  0.0060786 
    4   797     3  1.6528036  0.0000723  0.0083649 
    4   797     4  1.6529674  0.0004117  0.0059175 
    4   798     1  1.6407915 -0.0001829  0.0093332 
    4   798     2  1.6333022 -0.0024265  0.0093640 
    4   798     3  1.6411567  0.0001061  0.0068825 
    4   798     4  1.6337771 -0.0021062  0.0069356 
    4   799     1  1.6425408  0.0000153  0.0066405 
    4   799     2  1.6421325 -0.0001872  0.0090411 
    4   799     3  1.6353405 -0.0021427  0.0066142 
    4   799     4  1.6348556 -0.0023674  0.0089896 
    4   800     1  1.6468640 -0.0018890  0.0058149 
    4   800     2  1.6540381  0.0002623  0.0057824 
    4   800     3  1.6465068 -0.0021189  0.0081632 
    4   800     4  1.6537523  0.0000520  0.0081646 
    4   801     1  1.6212960 -0.0026917  0.0102075 
    4   801     2  1.6218973 -0.0024606  0.0077908 
    4   801     3  1.6287488 -0.0004580  0.0102885 
    4   801     4  1.6292594 -0.0002538  0.0078554 
    4   802     1  1.6166672 -0.0007948  0.0112018 
    4   802     2  1.6093316 -0.0029979  0.0110413 
    4   802     3  1.6173024 -0.0006463  0.0087957 
    4   802     4  1.6100503 -0.0028241  0.0086474 
    4   803     1  1.6191779 -0.0006789  0.0084157 
    4   803     2  1.6185565 -0.0007729  0.0107835 
    4   803     3  1.6120487 -0.0028234  0.0082311 
    4   803     4  1.6113650 -0.0029365  0.0105859 
    4   804     1  1.6236985 -0.0024759  0.0074193 
    4   804     2  1.6309024 -0.0003139  0.0075376 
    4   804     3  1.6231065 -0.0026341  0.0097901 
    4   804     4  1.6303873 -0.0004489  0.0099267 
    4   805     1  1.6200680 -0.0024371  0.0081890 
    4   805     2  1.6275806 -0.0001869  0.0082005 
    4   805     3  1.6193764 -0.0027742  0.0106402 
    4   805     4  1.6269985 -0.0004918  0.0106639 
    4   806     1  1.6173599 -0.0028445  0.0110987 
    4   806     2  1.6180959 -0.0024274  0.0086041 
    4   806     3  1.6251372 -0.0005160  0.0110756 
    4   806     4  1.6257636 -0.0001310  0.0085722 
    4   807     1  1.6125131 -0.0008928  0.0121085 
    4   807     2  1.6048945 -0.0031756  0.0120188 
    4   807     3  1.6132763 -0.0006054  0.0096383 
    4   807     4  1.6057555 -0.0028591  0.0095585 
    4   808     1  1.6153563 -0.0006120  0.0092046 
    4   808     2  1.6146288 -0.0008476  0.0116338 
    4   808     3  1.6079805 -0.0028238  0.0090947 
    4   808     4  1.6071559 -0.0030885  0.0115132 
    4   809     1  1.6004119 -0.0032233  0.0090295 
    4   809     2  1.6074695 -0.0010913  0.0092939 
    4   809     3  1.5996470 -0.0032711  0.0113539 
    4   809     4  1.6067725 -0.0011183  0.0116242 
    4   810     1  1.5973984 -0.0033292  0.0118364 
    4   810     2  1.5982156 -0.0032423  0.0094803 
    4   810     3  1.6046487 -0.0011413  0.0120943 
    4   810     4  1.6053837 -0.0010795  0.0097302 
    4   811     1  1.5926566 -0.0015347  0.0129526 
    4   811     2  1.5855824 -0.0036820  0.0126181 
    4   811     3  1.5934896 -0.0015360  0.0106421 
    4   811     4  1.5864989 -0.0036579  0.0103123 
    4   812     1  1.5957849 -0.0015343  0.0101565 
    4   812     2  1.5950091 -0.0015093  0.0124369 
    4   812     3  1.5888831 -0.0036301  0.0098269 
    4   812     4  1.5880385 -0.0036257  0.0121063 
    4   813     1  1.5959006 -0.0032551  0.0099559 
    4   813     2  1.6031908 -0.0010597  0.0101795 
    4   813     3  1.5949689 -0.0034213  0.0123363 
    4   813     4  1.6023470 -0.0011991  0.0125697 
    4   814     1  1.5924042 -0.0035254  0.0128589 
    4   814     2  1.5933868 -0.0033128  0.0104178 
    4   814     3  1.5999802 -0.0012467  0.0130711 
    4   814     4  1.6008680 -0.0010629  0.0106182 
    4   815     1  1.5873903 -0.0016354  0.0140268 
    4   815     2  1.5800140 -0.0038649  0.0137229 
    4   815     3  1.5884004 -0.0015060  0.0116301 
    4   815     4  1.5811228 -0.0037052  0.0113385 
    4   816     1  1.5910383 -0.0015290  0.0111423 
    4   816     2  1.5900896 -0.0015939  0.0134740 
    4   816     3  1.5839447 -0.0036784  0.0108254 
    4   816     4  1.5828991 -0.0037729  0.0131499 
    4   817     1  1.5721222 -0.0041704  0.0116854 
    4   817     2  1.5789895 -0.0020616  0.0121304 
    4   817     3  1.5709971 -0.0041296  0.0139183 
    4   817     4  1.5779617 -0.0019913  0.0143675 
    4   818     1  1.5678552 -0.0042205  0.0145559 
    4   818     2  1.5690512 -0.0042329  0.0122886 
    4   818     3  1.5749381 -0.0020473  0.0150090 
    4   818     4  1.5760174 -0.0020961  0.0127305 
    4   819     1  1.5627129 -0.0025125  0.0158992 
    4   819     2  1.5559572 -0.0046400  0.0152858 
    4   819     3  1.5638628 -0.0027823  0.0137555 
    4   819     4  1.5572457 -0.0048684  0.0131465 
    4   820     1  1.5671059 -0.0026312  0.0130730 
    4   820     2  1.5660094 -0.0024374  0.0152001 
    4   820     3  1.5605433 -0.0046827  0.0125177 
    4   820     4  1.5593455 -0.0045181  0.0146463 
    4   821     1  1.5690818 -0.0023789  0.0145840 
    4   821     2  1.5624510 -0.0044403  0.0140626 
    4   821     3  1.5700702 -0.0025688  0.0124437 
    4   821     4  1.5635288 -0.0046041  0.0119217 
    4   822     1  1.5727874 -0.0025502  0.0118514 
    4   822     2  1.5718800 -0.0023627  0.0139765 
    4   822     3  1.5663027 -0.0045614  0.0113568 
    4   822     4  1.5653072 -0.0043992  0.0134851 
    4   823     1  1.5774848 -0.0040890  0.0106015 
    4   823     2  1.5842185 -0.0020248  0.0110199 
    4   823     3  1.5765680 -0.0040000  0.0128134 
    4   823     4  1.5833817 -0.0019126  0.0132286 
    4   824     1  1.5739095 -0.0040486  0.0133547 
    4   824     2  1.5749092 -0.0041275  0.0111254 
    4   824     3  1.5808038 -0.0019329  0.0137925 
    4   824     4  1.5817126 -0.0020390  0.0115622 
    4   825     1  1.5553029 -0.0050964  0.0120694 
    4   825     2  1.5615535 -0.0031179  0.0126696 
    4   825     3  1.5542332 -0.0048219  0.0140944 
    4   825     4  1.5605841 -0.0028143  0.0146952 
    4   826     1  1.5511691 -0.0048533  0.0147041 
    4   826     2  1.5522970 -0.0051414  0.0126612 
    4   826     3  1.5575815 -0.0028175  0.0153358 
    4   826     4  1.5586267 -0.0031297  0.0132919 
    4   827     1  1.5461990 -0.0032725  0.0160296 
    4   827     2  1.5399770 -0.0052866  0.0153178 
    4   827     3  1.5473222 -0.0036563  0.0140448 
    4   827     4  1.5411661 -0.0056457  0.0133498 
    4   828     1  1.5504673 -0.0037061  0.0134487 
    4   828     2  1.5494132 -0.0032963  0.0153716 
    4   828     3  1.5445004 -0.0056441  0.0127527 
    4   828     4  1.5433241 -0.0052732  0.0146634 
    4   829     1  1.5570862 -0.0047792  0.0134997 
    4   829     2  1.5580348 -0.0050721  0.0114812 
    4   829     3  1.5633804 -0.0027997  0.0140618 
    4   829     4  1.5642141 -0.0031238  0.0120506 
    4   830     1  1.5525006 -0.0032875  0.0146895 
    4   830     2  1.5465442 -0.0052176  0.0140097 
    4   830     3  1.5534183 -0.0037420  0.0128127 
    4   830     4  1.5476052 -0.0056315  0.0121339 
    4   831     1  1.5560574 -0.0036807  0.0121635 
    4   831     2  1.5552751 -0.0032461  0.0140181 
    4   831     3  1.5503239 -0.0055240  0.0115435 
    4   831     4  1.5494062 -0.0051230  0.0134115 
    4   832     1  1.5604296 -0.0049933  0.0109297 
    4   832     2  1.5665589 -0.0030781  0.0114394 
    4   832     3  1.5596083 -0.0047215  0.0129442 
    4   832     4  1.5658507 -0.0027775  0.0134377 
    4   833     1  1.5773433 -0.0025209  0.0107071 
    4   833     2  1.5766968 -0.0023293  0.0128211 
    4   833     3  1.5709185 -0.0044951  0.0102922 
    4   833     4  1.5701852 -0.0043259  0.0124246 
    4   834     1  1.5817343 -0.0040456  0.0096178 
    4   834     2  1.5884540 -0.0019990  0.0099662 
    4   834     3  1.5810726 -0.0039384  0.0118493 
    4   834     4  1.5878567 -0.0018755  0.0121770 
    4   835     1  1.5789756 -0.0039599  0.0123125 
    4   835     2  1.5797480 -0.0040798  0.0100911 
    4   835     3  1.5857690 -0.0018839  0.0126979 
    4   835     4  1.5864648 -0.0020249  0.0104867 
    4   836     1  1.5744537 -0.0023277  0.0133956 
    4   836     2  1.5679103 -0.0043485  0.0129350 
    4   836     3  1.5752161 -0.0025459  0.0112726 
    4   836     4  1.5687654 -0.0045411  0.0108038 
    4   837     1  1.5786335 -0.0023193  0.0123067 
    4   837     2  1.5720899 -0.0043099  0.0119886 
    4   837     3  1.5790739 -0.0024933  0.0101759 
    4   837     4  1.5726122 -0.0044629  0.0098340 
    4   838     1  1.5804247 -0.0024730  0.0096998 
    4   838     2  1.5801170 -0.0023654  0.0118428 
    4   838     3  1.5739193 -0.0044407  0.0094451 
    4   838     4  1.5735723 -0.0043430  0.0116078 
    4   839     1  1.5845231 -0.0040269  0.0087985 
    4   839     2  1.5912066 -0.0020143  0.0089825 
    4   839     3  1.5842264 -0.0039872  0.0110259 
    4   839     4  1.5910073 -0.0019466  0.0111900 
    4   840     1  1.5828379 -0.0039779  0.0114233 
    4   840     2  1.5832921 -0.0040292  0.0091787 
    4   840     3  1.5896381 -0.0019250  0.0116534 
    4   840     4  1.5900225 -0.0019949  0.0094366 
    4   841     1  1.5636486 -0.0048290  0.0100499 
    4   841     2  1.5699397 -0.0029172  0.0103501 
    4   841     3  1.5632860 -0.0046714  0.0121432 
    4   841     4  1.5696113 -0.0027551  0.0123990 
    4   842     1  1.5617158 -0.0046627  0.0124825 
    4   842     2  1.5623205 -0.0049091  0.0104424 
    4   842     3  1.5679703 -0.0027402  0.0128790 
    4   842     4  1.5684749 -0.0030098  0.0108693 
    4   843     1  1.5576586 -0.0031789  0.0134149 
    4   843     2  1.5518086 -0.0050124  0.0129170 
    4   843     3  1.5582395 -0.0035576  0.0115508 
    4   843     4  1.5525306 -0.0053574  0.0110289 
    4   844     1  1.5598662 -0.0034544  0.0109889 
    4   844     2  1.5595277 -0.0031939  0.0128480 
    4   844     3  1.5541947 -0.0051986  0.0106203 
    4   844     4  1.5537001 -0.0049713  0.0125456 
    4   845     1  1.5642632 -0.0048589  0.0118818 
    4   845     2  1.5642545 -0.0048955  0.0097083 
    4   845     3  1.5707888 -0.0028994  0.0120159 
    4   845     4  1.5709588 -0.0028821  0.0098572 
    4   846     1  1.5607464 -0.0033680  0.0123630 
    4   846     2  1.5548109 -0.0051508  0.0124647 
    4   846     3  1.5606543 -0.0033425  0.0104383 
    4   846     4  1.5545385 -0.0051753  0.0103905 
    4   847     1  1.5605869 -0.0029974  0.0097929 
    4   847     2  1.5607375 -0.0035787  0.0122995 
    4   847     3  1.5523509 -0.0054941  0.0101730 
    4   847     4  1.5538359 -0.0056369  0.0124816 
    4   848     1  1.5651912 -0.0049883  0.0090029 
    4   848     2  1.5718485 -0.0029609  0.0093367 
    4   848     3  1.5651361 -0.0045447  0.0111269 
    4   848     4  1.5717110 -0.0025298  0.0115141 
    4   849     1  1.5452053 -0.0056052  0.0115061 
    4   849     2  1.5491636 -0.0037426  0.0103191 
    4   849     3  1.5474196 -0.0063496  0.0120028 
    4   849     4  1.5497841 -0.0047894  0.0110030 
    4   850     1  1.5466131 -0.0053385  0.0126670 
    4   850     2  1.5472600 -0.0054248  0.0109616 
    4   850     3  1.5517107 -0.0038327  0.0126352 
    4   850     4  1.5515769 -0.0041073  0.0111945 
    4   851     1  1.5425177 -0.0039602  0.0132412 
    4   851     2  1.5390978 -0.0054988  0.0122392 
    4   851     3  1.5433145 -0.0046855  0.0121074 
    4   851     4  1.5402152 -0.0058919  0.0114364 
    4   852     1  1.5453854 -0.0055748  0.0112103 
    4   852     2  1.5504521 -0.0039671  0.0117052 
    4   852     3  1.5445898 -0.0052891  0.0128994 
    4   852     4  1.5499318 -0.0036022  0.0133943 
    4   853     1  1.5422579 -0.0053637  0.0133439 
    4   853     2  1.5431009 -0.0057985  0.0116157 
    4   853     3  1.5477309 -0.0035942  0.0139568 
    4   853     4  1.5484329 -0.0040649  0.0122377 
    4   854     1  1.5381022 -0.0040089  0.0144612 
    4   854     2  1.5330010 -0.0056890  0.0138172 
    4   854     3  1.5389227 -0.0044537  0.0128374 
    4   854     4  1.5338002 -0.0061406  0.0121912 
    4   855     1  1.5413357 -0.0044211  0.0123489 
    4   855     2  1.5404906 -0.0038557  0.0139349 
    4   855     3  1.5365143 -0.0060484  0.0116661 
    4   855     4  1.5354950 -0.0055754  0.0131599 
    4   856     1  1.5387253 -0.0072046  0.0108710 
    4   856     2  1.5414636 -0.0048959  0.0123038 
    4   856     3  1.5381808 -0.0052317  0.0110015 
    4   856     4  1.5405419 -0.0033099  0.0122252 
    4   857     1  1.5311459 -0.0056065  0.0118902 
    4   857     2  1.5320026 -0.0068485  0.0113040 
    4   857     3  1.5342228 -0.0037725  0.0130604 
    4   857     4  1.5352362 -0.0051320  0.0124241 
    4   858     1  1.5248808 -0.0038232  0.0135849 
    4   858     2  1.5215593 -0.0062634  0.0120414 
    4   858     3  1.5256819 -0.0058885  0.0132187 
    4   858     4  1.5227212 -0.0078598  0.0118995 
    4   859     1  1.5322652 -0.0055014  0.0126001 
    4   859     2  1.5314543 -0.0040681  0.0130774 
    4   859     3  1.5293176 -0.0074395  0.0113740 
    4   859     4  1.5284366 -0.0059003  0.0118851 
    4   860     1  1.5365761 -0.0037465  0.0125416 
    4   860     2  1.5324032 -0.0056763  0.0113321 
    4   860     3  1.5375976 -0.0050881  0.0115160 
    4   860     4  1.5332807 -0.0071749  0.0101989 
    4   861     1  1.5425572 -0.0046643  0.0103521 
    4   861     2  1.5412454 -0.0031921  0.0119064 
    4   861     3  1.5368513 -0.0071608  0.0088349 
    4   861     4  1.5360313 -0.0056205  0.0103831 
    4   862     1  1.5490023 -0.0064092  0.0087829 
    4   862     2  1.5537090 -0.0043598  0.0100290 
    4   862     3  1.5479073 -0.0051016  0.0100145 
    4   862     4  1.5528106 -0.0029181  0.0113539 
    4   863     1  1.5430535 -0.0055564  0.0110538 
    4   863     2  1.5444260 -0.0070696  0.0095971 
    4   863     3  1.5485980 -0.0030865  0.0125687 
    4   863     4  1.5494446 -0.0046488  0.0111279 
    4   864     1  1.5611756 -0.0025237  0.0118331 
    4   864     2  1.5536971 -0.0050150  0.0108357 
    4   864     3  1.5618109 -0.0034881  0.0093657 
    4   864     4  1.5548881 -0.0056504  0.0087547 
    4   865     1  1.5642772 -0.0037288  0.0094444 
    4   865     2  1.5634917 -0.0026168  0.0111445 
    4   865     3  1.5588605 -0.0057314  0.0084069 
    4   865     4  1.5578314 -0.0047463  0.0100117 
    4   866     1  1.5688644 -0.0050805  0.0079704 
    4   866     2  1.5747744 -0.0031246  0.0087296 
    4   866     3  1.5680837 -0.0043815  0.0097916 
    4   866     4  1.5741893 -0.0023168  0.0106646 
    4   867     1  1.5661223 -0.0045208  0.0106589 
    4   867     2  1.5665439 -0.0048165  0.0085887 
    4   867     3  1.5726836 -0.0024824  0.0111829 
    4   867     4  1.5731000 -0.0027989  0.0090179 
    4   868     1  1.5663367 -0.0025758  0.0104961 
    4   868     2  1.5613174 -0.0045635  0.0093725 
    4   868     3  1.5671026 -0.0036715  0.0090396 
    4   868     4  1.5622910 -0.0055498  0.0079940 
    4   869     1  1.5698952 -0.0037093  0.0086234 
    4   869     2  1.5691800 -0.0025809  0.0099142 
    4   869     3  1.5654840 -0.0055201  0.0075671 
    4   869     4  1.5645850 -0.0044760  0.0088047 
    4   870     1  1.5741466 -0.0049951  0.0072239 
    4   870     2  1.5789939 -0.0032066  0.0081475 
    4   870     3  1.5733962 -0.0041130  0.0086716 
    4   870     4  1.5783898 -0.0022562  0.0096429 
    4   871     1  1.5707475 -0.0042230  0.0091949 
    4   871     2  1.5715220 -0.0050464  0.0075883 
    4   871     3  1.5762104 -0.0022693  0.0101501 
    4   871     4  1.5768173 -0.0031769  0.0084756 
    4   872     1  1.5572356 -0.0060567  0.0079876 
    4   872     2  1.5608134 -0.0042606  0.0091315 
    4   872     3  1.5562370 -0.0048417  0.0088094 
    4   872     4  1.5600857 -0.0029125  0.0100381 
    4   873     1  1.5516996 -0.0050282  0.0093474 
    4   873     2  1.5528627 -0.0062531  0.0082409 
    4   873     3  1.5563523 -0.0028546  0.0107044 
    4   873     4  1.5572942 -0.0042245  0.0094994 
    4   874     1  1.5463368 -0.0030682  0.0105919 
    4   874     2  1.5435216 -0.0054431  0.0091529 
    4   874     3  1.5467832 -0.0050998  0.0103266 
    4   874     4  1.5443914 -0.0069568  0.0091369 
    4   875     1  1.5517909 -0.0049073  0.0096993 
    4   875     2  1.5515321 -0.0032728  0.0098476 
    4   875     3  1.5499372 -0.0066047  0.0086955 
    4   875     4  1.5494756 -0.0050659  0.0087478 
    4   876     1  1.5598396 -0.0046578  0.0084426 
    4   876     2  1.5606345 -0.0058031  0.0075227 
    4   876     3  1.5635594 -0.0029259  0.0095255 
    4   876     4  1.5641853 -0.0041106  0.0085863 
    4   877     1  1.5557624 -0.0033796  0.0095248 
    4   877     2  1.5528613 -0.0049398  0.0085216 
    4   877     3  1.5563505 -0.0044797  0.0089145 
    4   877     4  1.5536377 -0.0060380  0.0079192 
    4   878     1  1.5595320 -0.0043769  0.0082470 
    4   878     2  1.5590188 -0.0033290  0.0091517 
    4   878     3  1.5561247 -0.0059431  0.0072742 
    4   878     4  1.5555890 -0.0048217  0.0082412 
    4   879     1  1.5632079 -0.0055995  0.0070099 
    4   879     2  1.5670198 -0.0039499  0.0080066 
    4   879     3  1.5625715 -0.0045250  0.0080960 
    4   879     4  1.5664537 -0.0028813  0.0090774 
    4   880     1  1.5491407 -0.0060151  0.0074186 
    4   880     2  1.5529185 -0.0045409  0.0082559 
    4   880     3  1.5492749 -0.0051014  0.0086929 
    4   880     4  1.5524503 -0.0039835  0.0092215 
    4   881     1  1.5478026 -0.0052843  0.0083095 
    4   881     2  1.5482379 -0.0064325  0.0084897 
    4   881     3  1.5493148 -0.0038289  0.0092163 
    4   881     4  1.5494226 -0.0050506  0.0092126 
    4   882     1  1.5461950 -0.0039042  0.0078470 
    4   882     2  1.5466781 -0.0049854  0.0091027 
    4   882     3  1.5426571 -0.0055249  0.0088749 
    4   882     4  1.5438783 -0.0059473  0.0095724 
    4   883     1  1.5371455 -0.0056717  0.0093622 
    4   883     2  1.5387119 -0.0038109  0.0084167 
    4   883     3  1.5376016 -0.0072327  0.0092349 
    4   883     4  1.5390268 -0.0054131  0.0083657 
    4   884     1  1.5440296 -0.0067134  0.0091211 
    4   884     2  1.5444817 -0.0052662  0.0096560 
    4   884     3  1.5444343 -0.0053035  0.0085929 
    4   884     4  1.5449340 -0.0037067  0.0092046 
    4   885     1  1.5381627 -0.0052928  0.0094184 
    4   885     2  1.5359305 -0.0074809  0.0106435 
    4   885     3  1.5373217 -0.0036725  0.0094815 
    4   885     4  1.5355357 -0.0056542  0.0104994 
    4   886     1  1.5315042 -0.0043994  0.0091012 
    4   886     2  1.5321559 -0.0055531  0.0091211 
    4   886     3  1.5299265 -0.0058025  0.0099216 
    4   886     4  1.5304515 -0.0071439  0.0100229 
    4   887     1  1.5307440 -0.0074462  0.0084099 
    4   887     2  1.5329632 -0.0054589  0.0095517 
    4   887     3  1.5307084 -0.0055941  0.0088416 
    4   887     4  1.5324014 -0.0044600  0.0096214 
    4   888     1  1.5287712 -0.0058170  0.0091921 
    4   888     2  1.5268312 -0.0072568  0.0101366 
    4   888     3  1.5279599 -0.0045448  0.0091863 
    4   888     4  1.5263712 -0.0059670  0.0100118 
    4   889     1  1.5275723 -0.0049712  0.0085228 
    4   889     2  1.5274049 -0.0057460  0.0103220 
    4   889     3  1.5224139 -0.0066961  0.0092402 
    4   889     4  1.5235276 -0.0068917  0.0104886 
    4   890     1  1.5499016 -0.0050757  0.0085055 
    4   890     2  1.5500013 -0.0056214  0.0070516 
    4   890     3  1.5540638 -0.0037056  0.0090328 
    4   890     4  1.5544917 -0.0041600  0.0075782 
    4   891     1  1.5464399 -0.0038100  0.0092986 
    4   891     2  1.5407562 -0.0056291  0.0087084 
    4   891     3  1.5465333 -0.0045555  0.0071780 
    4   891     4  1.5410012 -0.0062115  0.0069185 
    4   892     1  1.5478519 -0.0047573  0.0073303 
    4   892     2  1.5474389 -0.0037985  0.0089452 
    4   892     3  1.5430448 -0.0064501  0.0065315 
    4   892     4  1.5426376 -0.0055234  0.0080952 
    4   893     1  1.5512675 -0.0060272  0.0063706 
    4   893     2  1.5559322 -0.0043674  0.0071728 
    4   893     3  1.5508885 -0.0050857  0.0078516 
    4   893     4  1.5554778 -0.0034119  0.0086994 
    4   894     1  1.5322219 -0.0061995  0.0089904 
    4   894     2  1.5327466 -0.0069555  0.0071373 
    4   894     3  1.5376245 -0.0043534  0.0098045 
    4   894     4  1.5379101 -0.0051198  0.0080626 
    4   895     1  1.5278182 -0.0046531  0.0100285 
    4   895     2  1.5225428 -0.0065708  0.0090597 
    4   895     3  1.5283286 -0.0059217  0.0082424 
    4   895     4  1.5231503 -0.0076558  0.0074832 
    4   896     1  1.5306028 -0.0057584  0.0077924 
    4   896     2  1.5300832 -0.0046152  0.0093934 
    4   896     3  1.5257442 -0.0075848  0.0068223 
    4   896     4  1.5251697 -0.0064657  0.0084080 
    4   897     1  1.5343978 -0.0070403  0.0065793 
    4   897     2  1.5394507 -0.0052465  0.0074427 
    4   897     3  1.5338745 -0.0060161  0.0082206 
    4   897     4  1.5389901 -0.0041535  0.0091612 
    4   898     1  1.5527939 -0.0049859  0.0073130 
    4   898     2  1.5533149 -0.0060412  0.0059405 
    4   898     3  1.5571890 -0.0032693  0.0082691 
    4   898     4  1.5577293 -0.0043464  0.0068662 
    4   899     1  1.5491145 -0.0036379  0.0084491 
    4   899     2  1.5445511 -0.0054110  0.0074672 
    4   899     3  1.5496720 -0.0047606  0.0069795 
    4   899     4  1.5450953 -0.0065041  0.0060361 
    4   900     1  1.5518452 -0.0046917  0.0066130 
    4   900     2  1.5512146 -0.0034810  0.0079550 
    4   900     3  1.5475161 -0.0064571  0.0055880 
    4   900     4  1.5468871 -0.0052777  0.0068979 
    4   901     1  1.5556154 -0.0060360  0.0055057 
    4   901     2  1.5598317 -0.0043094  0.0065115 
    4   901     3  1.5550246 -0.0048777  0.0067791 
    4   901     4  1.5592305 -0.0031268  0.0078113 
    4   902     1  1.5361267 -0.0058406  0.0076007 
    4   902     2  1.5367249 -0.0069778  0.0061352 
    4   902     3  1.5407867 -0.0040174  0.0086181 
    4   902     4  1.5413665 -0.0051942  0.0071108 
    4   903     1  1.5322041 -0.0044298  0.0087717 
    4   903     2  1.5274697 -0.0062974  0.0077206 
    4   903     3  1.5328358 -0.0056460  0.0072470 
    4   903     4  1.5281018 -0.0074818  0.0062319 
    4   904     1  1.5352624 -0.0055545  0.0068046 
    4   904     2  1.5345563 -0.0042323  0.0081892 
    4   904     3  1.5307973 -0.0074088  0.0057120 
    4   904     4  1.5300800 -0.0061284  0.0070581 
    4   905     1  1.5392687 -0.0069130  0.0056667 
    4   905     2  1.5436395 -0.0051170  0.0067161 
    4   905     3  1.5385980 -0.0056863  0.0069992 
    4   905     4  1.5429764 -0.0038538  0.0080835 
    4   906     1  1.5576305 -0.0047526  0.0062448 
    4   906     2  1.5583262 -0.0059502  0.0051103 
    4   906     3  1.5615546 -0.0030064  0.0073148 
    4   906     4  1.5622485 -0.0042359  0.0061525 
    4   907     1  1.5536224 -0.0033767  0.0074302 
    4   907     2  1.5496042 -0.0051573  0.0063411 
    4   907     3  1.5543637 -0.0046182  0.0062426 
    4   907     4  1.5503403 -0.0063717  0.0051782 
    4   908     1  1.5572332 -0.0045306  0.0058525 
    4   908     2  1.5564640 -0.0032021  0.0069100 
    4   908     3  1.5534593 -0.0063004  0.0047441 
    4   908     4  1.5527018 -0.0049995  0.0057799 
    4   909     1  1.5613291 -0.0058888  0.0047118 
    4   909     2  1.5649903 -0.0041713  0.0057870 
    4   909     3  1.5605965 -0.0046371  0.0057200 
    4   909     4  1.5642475 -0.0028921  0.0068169 
    4   910     1  1.5414377 -0.0055549  0.0064187 
    4   910     2  1.5422070 -0.0068152  0.0052357 
    4   910     3  1.5455058 -0.0037389  0.0075332 
    4   910     4  1.5462750 -0.0050289  0.0063244 
    4   911     1  1.5372182 -0.0041269  0.0076163 
    4   911     2  1.5330489 -0.0060034  0.0064604 
    4   911     3  1.5380267 -0.0054543  0.0063954 
    4   911     4  1.5338756 -0.0072939  0.0052692 
    4   912     1  1.5411274 -0.0053707  0.0059709 
    4   912     2  1.5402908 -0.0040106  0.0070616 
    4   912     3  1.5372417 -0.0071967  0.0048270 
    4   912     4  1.5363863 -0.0058666  0.0058961 
    4   913     1  1.5454275 -0.0067396  0.0047948 
    4   913     2  1.5492600 -0.0049497  0.0059138 
    4   913     3  1.5446216 -0.0054278  0.0058635 
    4   913     4  1.5484532 -0.0036137  0.0070012 
    4   914     1  1.5642000 -0.0044074  0.0050852 
    4   914     2  1.5649164 -0.0057427  0.0043306 
    4   914     3  1.5672979 -0.0026952  0.0061821 
    4   914     4  1.5680407 -0.0040792  0.0054000 
    4   915     1  1.5596501 -0.0030900  0.0064062 
    4   915     2  1.5560973 -0.0048668  0.0052770 
    4   915     3  1.5605574 -0.0044017  0.0054834 
    4   915     4  1.5569816 -0.0061807  0.0043532 
    4   916     1  1.5640378 -0.0042211  0.0049601 
    4   916     2  1.5631582 -0.0027284  0.0057524 
    4   916     3  1.5608711 -0.0060001  0.0038194 
    4   916     4  1.5601067 -0.0046699  0.0045263 
    4   917     1  1.5688949 -0.0057095  0.0039948 
    4   917     2  1.5719594 -0.0039941  0.0051010 
    4   917     3  1.5680685 -0.0042509  0.0047076 
    4   917     4  1.5711453 -0.0026892  0.0057337 
    4   918     1  1.5483065 -0.0052439  0.0052186 
    4   918     2  1.5491099 -0.0066028  0.0043370 
    4   918     3  1.5517123 -0.0034765  0.0063473 
    4   918     4  1.5525442 -0.0048609  0.0054490 
    4   919     1  1.5437005 -0.0039371  0.0065320 
    4   919     2  1.5399214 -0.0057514  0.0053882 
    4   919     3  1.5446425 -0.0052563  0.0055268 
    4   919     4  1.5408671 -0.0070800  0.0043759 
    4   920     1  1.5481132 -0.0050314  0.0048999 
    4   920     2  1.5471740 -0.0035536  0.0058524 
    4   920     3  1.5445971 -0.0068581  0.0037330 
    4   920     4  1.5437817 -0.0055241  0.0045928 
    4   921     1  1.5530441 -0.0065290  0.0039195 
    4   921     2  1.5565362 -0.0047529  0.0050559 
    4   921     3  1.5521111 -0.0050713  0.0048330 
    4   921     4  1.5556519 -0.0034472  0.0058739 
    4   922     1  1.5319393 -0.0062060  0.0053323 
    4   922     2  1.5328188 -0.0075218  0.0043927 
    4   922     3  1.5354846 -0.0044523  0.0064451 
    4   922     4  1.5363568 -0.0057733  0.0055020 
    4   923     1  1.5275238 -0.0050056  0.0065340 
    4   923     2  1.5238616 -0.0067104  0.0054648 
    4   923     3  1.5284330 -0.0062046  0.0056131 
    4   923     4  1.5249107 -0.0079539  0.0045045 
    4   924     1  1.5318768 -0.0058271  0.0047732 
    4   924     2  1.5308768 -0.0047873  0.0060063 
    4   924     3  1.5278011 -0.0075658  0.0037303 
    4   924     4  1.5270935 -0.0065022  0.0049358 
    4   925     1  1.5365781 -0.0073977  0.0038469 
    4   925     2  1.5403803 -0.0056186  0.0049643 
    4   925     3  1.5356390 -0.0059574  0.0049364 
    4   925     4  1.5394783 -0.0043580  0.0059215 
    4   926     1  1.5537582 -0.0057870  0.0049610 
    4   926     2  1.5550552 -0.0055808  0.0032800 
    4   926     3  1.5590533 -0.0042030  0.0049962 
    4   926     4  1.5587456 -0.0044416  0.0036319 
    4   927     1  1.5512476 -0.0033403  0.0044574 
    4   927     2  1.5509166 -0.0052250  0.0040559 
    4   927     3  1.5504373 -0.0053247  0.0050508 
    4   927     4  1.5503561 -0.0063198  0.0046330 
    4   928     1  1.5538575 -0.0051015  0.0041244 
    4   928     2  1.5572658 -0.0038137  0.0034151 
    4   928     3  1.5548980 -0.0058382  0.0050087 
    4   928     4  1.5577251 -0.0046347  0.0042885 
    4   929     1  1.5490978 -0.0047539  0.0042848 
    4   929     2  1.5448903 -0.0064977  0.0053096 
    4   929     3  1.5480914 -0.0037373  0.0030369 
    4   929     4  1.5443831 -0.0054413  0.0041141 
    4   930     1  1.5463323 -0.0041679  0.0027572 
    4   930     2  1.5471110 -0.0049241  0.0038932 
    4   930     3  1.5425008 -0.0056470  0.0035705 
    4   930     4  1.5432954 -0.0064342  0.0047489 
    4   931     1  1.5496324 -0.0053410  0.0034561 
    4   931     2  1.5534114 -0.0038063  0.0025671 
    4   931     3  1.5503640 -0.0061764  0.0045709 
    4   931     4  1.5541108 -0.0046726  0.0037098 
    4   932     1  1.5530498 -0.0061090  0.0048255 
    4   932     2  1.5524267 -0.0050586  0.0040600 
    4   932     3  1.5559403 -0.0047600  0.0039763 
    4   932     4  1.5554749 -0.0035979  0.0031374 
    4   933     1  1.5367408 -0.0058876  0.0041913 
    4   933     2  1.5398766 -0.0045077  0.0033269 
    4   933     3  1.5378232 -0.0068070  0.0048679 
    4   933     4  1.5403943 -0.0055114  0.0040445 
    4   934     1  1.5370685 -0.0066780  0.0050074 
    4   934     2  1.5381267 -0.0062782  0.0032229 
    4   934     3  1.5424242 -0.0050627  0.0047885 
    4   934     4  1.5419496 -0.0051416  0.0034196 
    4   935     1  1.5342786 -0.0041631  0.0045580 
    4   935     2  1.5333288 -0.0060909  0.0038272 
    4   935     3  1.5339594 -0.0061559  0.0048064 
    4   935     4  1.5333066 -0.0071887  0.0041967 
    4   936     1  1.5310141 -0.0057325  0.0040969 
    4   936     2  1.5275631 -0.0075804  0.0052822 
    4   936     3  1.5299934 -0.0042728  0.0032551 
    4   936     4  1.5268771 -0.0062145  0.0044878 
    4   937     1  1.5274311 -0.0049520  0.0027133 
    4   937     2  1.5283502 -0.0059679  0.0037145 
    4   937     3  1.5238971 -0.0065330  0.0036844 
    4   937     4  1.5247350 -0.0075867  0.0047092 
    4   938     1  1.5312749 -0.0062217  0.0035288 
    4   938     2  1.5347323 -0.0045985  0.0025139 
    4   938     3  1.5321106 -0.0072676  0.0044443 
    4   938     4  1.5355409 -0.0056975  0.0034699 
    4   939     1  1.5354474 -0.0070366  0.0046520 
    4   939     2  1.5347682 -0.0058829  0.0040970 
    4   939     3  1.5379999 -0.0056306  0.0037416 
    4   939     4  1.5374694 -0.0043417  0.0031058 
    4   940     1  1.5450009 -0.0051304  0.0036305 
    4   940     2  1.5414931 -0.0066682  0.0045668 
    4   940     3  1.5443306 -0.0040779  0.0026261 
    4   940     4  1.5406984 -0.0056593  0.0035860 
    4   941     1  1.5421732 -0.0042532  0.0023087 
    4   941     2  1.5428875 -0.0053203  0.0033369 
    4   941     3  1.5384843 -0.0058632  0.0032868 
    4   941     4  1.5392773 -0.0068731  0.0042739 
    4   942     1  1.5456408 -0.0055291  0.0029208 
    4   942     2  1.5496054 -0.0039072  0.0019772 
    4   942     3  1.5463937 -0.0064756  0.0040356 
    4   942     4  1.5503095 -0.0048809  0.0031111 
    4   943     1  1.5483266 -0.0063234  0.0043084 
    4   943     2  1.5476083 -0.0053856  0.0031846 
    4   943     3  1.5521656 -0.0047582  0.0034003 
    4   943     4  1.5515160 -0.0037948  0.0022628 
    4   944     1  1.5443226 -0.0065177  0.0037130 
    4   944     2  1.5435842 -0.0056805  0.0025689 
    4   944     3  1.5483423 -0.0049570  0.0028494 
    4   944     4  1.5475986 -0.0040995  0.0016804 
    4   945     1  1.5407992 -0.0053981  0.0030534 
    4   945     2  1.5367688 -0.0069864  0.0039468 
    4   945     3  1.5400144 -0.0044736  0.0018644 
    4   945     4  1.5359451 -0.0061092  0.0028018 
    4   946     1  1.5380802 -0.0046293  0.0014567 
    4   946     2  1.5388528 -0.0053827  0.0027991 
    4   946     3  1.5336925 -0.0062463  0.0022913 
    4   946     4  1.5344804 -0.0069565  0.0035769 
    4   947     1  1.5415775 -0.0057897  0.0021227 
    4   947     2  1.5457935 -0.0042331  0.0013173 
    4   947     3  1.5422693 -0.0065043  0.0033557 
    4   947     4  1.5465201 -0.0049675  0.0025898 
    4   948     1  1.5372276 -0.0053874  0.0025663 
    4   948     2  1.5324730 -0.0069687  0.0031932 
    4   948     3  1.5365738 -0.0047823  0.0010614 
    4   948     4  1.5318407 -0.0063916  0.0017534 
    4   949     1  1.5355529 -0.0049861  0.0006939 
    4   949     2  1.5360140 -0.0053666  0.0022907 
    4   949     3  1.5306583 -0.0065378  0.0011639 
    4   949     4  1.5310824 -0.0069063  0.0026907 
    4   950     1  1.5387206 -0.0060694  0.0011188 
    4   950     2  1.5433441 -0.0045926  0.0006447 
    4   950     3  1.5391311 -0.0064401  0.0025441 
    4   950     4  1.5437782 -0.0049763  0.0021273 
    4   951     1  1.5404951 -0.0064813  0.0029633 
    4   951     2  1.5399211 -0.0059220  0.0016322 
    4   951     3  1.5449536 -0.0049878  0.0023545 
    4   951     4  1.5443426 -0.0044095  0.0009697 
    4   952     1  1.5530034 -0.0038214  0.0012130 
    4   952     2  1.5537825 -0.0045837  0.0023240 
    4   952     3  1.5491613 -0.0053107  0.0020356 
    4   952     4  1.5497962 -0.0060870  0.0031270 
    4   953     1  1.5563016 -0.0048997  0.0020947 
    4   953     2  1.5592483 -0.0035979  0.0012993 
    4   953     3  1.5568587 -0.0056250  0.0028548 
    4   953     4  1.5599563 -0.0043635  0.0021190 
    4   954     1  1.5595657 -0.0058604  0.0031737 
    4   954     2  1.5588772 -0.0046982  0.0024504 
    4   954     3  1.5631210 -0.0040438  0.0020109 
    4   954     4  1.5618510 -0.0032030  0.0014930 
    4   955     1  1.5559958 -0.0045182  0.0025846 
    4   955     2  1.5518657 -0.0061417  0.0034956 
    4   955     3  1.5551537 -0.0037265  0.0014363 
    4   955     4  1.5511004 -0.0053293  0.0023416 
    4   956     1  1.5521332 -0.0046571  0.0021858 
    4   956     2  1.5480148 -0.0060489  0.0027709 
    4   956     3  1.5515558 -0.0041058  0.0009174 
    4   956     4  1.5474780 -0.0055189  0.0015602 
    4   957     1  1.5506810 -0.0042539  0.0006154 
    4   957     2  1.5510517 -0.0046448  0.0020008 
    4   957     3  1.5463318 -0.0056505  0.0010805 
    4   957     4  1.5467093 -0.0060196  0.0024103 
    4   958     1  1.5534873 -0.0052709  0.0009927 
    4   958     2  1.5576724 -0.0039346  0.0005655 
    4   958     3  1.5537997 -0.0056259  0.0022664 
    4   958     4  1.5579262 -0.0043246  0.0018918 
    4   959     1  1.5549588 -0.0056147  0.0025754 
    4   959     2  1.5544636 -0.0051850  0.0014711 
    4   959     3  1.5586885 -0.0043706  0.0020767 
    4   959     4  1.5582422 -0.0038868  0.0008914 
    4   960     1  1.5661180 -0.0045641  0.0020610 
    4   960     2  1.5667193 -0.0052582  0.0021835 
    4   960     3  1.5672994 -0.0036790  0.0026656 
    4   960     4  1.5674332 -0.0044313  0.0025961 
    4   961     1  1.5649182 -0.0037145  0.0010784 
    4   961     2  1.5651897 -0.0042013  0.0020633 
    4   961     3  1.5620029 -0.0048472  0.0017539 
    4   961     4  1.5626130 -0.0051015  0.0024818 
    4   962     1  1.5675231 -0.0045067  0.0011845 
    4   962     2  1.5708498 -0.0035462  0.0012519 
    4   962     3  1.5674448 -0.0047874  0.0023354 
    4   962     4  1.5703427 -0.0039116  0.0022193 
    4   963     1  1.5648731 -0.0040687  0.0019791 
    4   963     2  1.5612470 -0.0052346  0.0023684 
    4   963     3  1.5647114 -0.0036106  0.0007666 
    4   963     4  1.5608884 -0.0048584  0.0012219 
    4   964     1  1.5644024 -0.0036549  0.0005008 
    4   964     2  1.5644920 -0.0040255  0.0018074 
    4   964     3  1.5603057 -0.0049402  0.0008530 
    4   964     4  1.5605014 -0.0052681  0.0021195 
    4   965     1  1.5669005 -0.0046556  0.0007345 
    4   965     2  1.5709510 -0.0034117  0.0004845 
    4   965     3  1.5669358 -0.0049465  0.0020107 
    4   965     4  1.5708781 -0.0037380  0.0017764 
    4   966     1  1.5671987 -0.0049072  0.0022317 
    4   966     2  1.5671256 -0.0046334  0.0010138 
    4   966     3  1.5708468 -0.0037861  0.0020027 
    4   966     4  1.5709767 -0.0034517  0.0007796 
    4   967     1  1.5745922 -0.0033084  0.0027722 
    4   967     2  1.5696296 -0.0048324  0.0024656 
    4   967     3  1.5752458 -0.0034687  0.0012797 
    4   967     4  1.5711181 -0.0047187  0.0010994 
    4   968     1  1.5765139 -0.0033777  0.0011650 
    4   968     2  1.5760121 -0.0034940  0.0023331 
    4   968     3  1.5729640 -0.0044459  0.0010426 
    4   968     4  1.5722869 -0.0046122  0.0022963 
    4   969     1  1.5788186 -0.0042114  0.0009666 
    4   969     2  1.5829484 -0.0029689  0.0008775 
    4   969     3  1.5782877 -0.0044891  0.0023510 
    4   969     4  1.5825890 -0.0031950  0.0022574 
    4   970     1  1.5774715 -0.0046433  0.0028268 
    4   970     2  1.5779499 -0.0041179  0.0013458 
    4   970     3  1.5820587 -0.0032512  0.0026050 
    4   970     4  1.5824310 -0.0027475  0.0010888 
    4   971     1  1.5768213 -0.0034861  0.0020285 
    4   971     2  1.5730719 -0.0046221  0.0021821 
    4   971     3  1.5771014 -0.0031772  0.0007940 
    4   971     4  1.5732858 -0.0043267  0.0009143 
    4   972     1  1.5773231 -0.0031493  0.0004737 
    4   972     2  1.5771427 -0.0034578  0.0017600 
    4   972     3  1.5733502 -0.0043570  0.0006590 
    4   972     4  1.5732311 -0.0046474  0.0019459 
    4   973     1  1.5796778 -0.0040733  0.0005867 
    4   973     2  1.5836722 -0.0028623  0.0004183 
    4   973     3  1.5794721 -0.0043767  0.0018887 
    4   973     4  1.5834518 -0.0031695  0.0017177 
    4   974     1  1.5790841 -0.0043948  0.0021235 
    4   974     2  1.5793894 -0.0040877  0.0007990 
    4   974     3  1.5831153 -0.0031753  0.0019728 
    4   974     4  1.5833798 -0.0028831  0.0006650 
    4   975     1  1.5889673 -0.0029953  0.0024023 
    4   975     2  1.5846788 -0.0043219  0.0027102 
    4   975     3  1.5891999 -0.0024832  0.0009812 
    4   975     4  1.5849794 -0.0037970  0.0013105 
    4   976     1  1.5894844 -0.0025778  0.0007623 
    4   976     2  1.5892125 -0.0029839  0.0021415 
    4   976     3  1.5853767 -0.0038358  0.0010016 
    4   976     4  1.5850394 -0.0042590  0.0023721 
    4   977     1  1.5918734 -0.0035399  0.0009759 
    4   977     2  1.5959486 -0.0022753  0.0006719 
    4   977     3  1.5916213 -0.0040088  0.0023159 
    4   977     4  1.5957311 -0.0027381  0.0020252 
    4   978     1  1.5914426 -0.0040579  0.0026104 
    4   978     2  1.5916481 -0.0035152  0.0012551 
    4   978     3  1.5956022 -0.0027533  0.0022524 
    4   978     4  1.5957837 -0.0022102  0.0008772 
    4   979     1  1.5918806 -0.0039338  0.0020306 
    4   979     2  1.5920831 -0.0035612  0.0007149 
    4   979     3  1.5959180 -0.0026976  0.0017968 
    4   979     4  1.5960859 -0.0023330  0.0004720 
    4   980     1  1.5895190 -0.0029320  0.0018876 
    4   980     2  1.5854581 -0.0041665  0.0020768 
    4   980     3  1.5897329 -0.0026121  0.0005498 
    4   980     4  1.5857121 -0.0038352  0.0007417 
    4   981     1  1.5899740 -0.0026004  0.0003369 
    4   981     2  1.5897659 -0.0029153  0.0016496 
    4   981     3  1.5860075 -0.0038057  0.0005195 
    4   981     4  1.5857830 -0.0041249  0.0018296 
    4   982     1  1.5922967 -0.0035571  0.0004743 
    4   982     2  1.5962662 -0.0023464  0.0002676 
    4   982     3  1.5920950 -0.0038875  0.0017749 
    4   982     4  1.5960765 -0.0026751  0.0015771 
    4   983     1  1.6021692 -0.0024797  0.0017102 
    4   983     2  1.5982497 -0.0036869  0.0019684 
    4   983     3  1.6023086 -0.0020883  0.0004066 
    4   983     4  1.5984065 -0.0032940  0.0006779 
    4   984     1  1.6024339 -0.0021166  0.0002131 
    4   984     2  1.6022691 -0.0024580  0.0015067 
    4   984     3  1.5985629 -0.0033018  0.0004367 
    4   984     4  1.5983810 -0.0036457  0.0017196 
    4   985     1  1.6046882 -0.0030673  0.0004031 
    4   985     2  1.6085112 -0.0018924  0.0001634 
    4   985     3  1.6045330 -0.0034187  0.0016638 
    4   985     4  1.6083695 -0.0022431  0.0014370 
    4   986     1  1.6044564 -0.0034582  0.0018989 
    4   986     2  1.6045861 -0.0030547  0.0006339 
    4   986     3  1.6083220 -0.0022618  0.0016222 
    4   986     4  1.6084335 -0.0018597  0.0003438 
    4   987     1  1.6045264 -0.0030220  0.0008706 
    4   987     2  1.6084174 -0.0017949  0.0005174 
    4   987     3  1.6043551 -0.0035212  0.0021517 
    4   987     4  1.6082623 -0.0022949  0.0018136 
    4   988     1  1.6043293 -0.0035633  0.0023977 
    4   988     2  1.6044655 -0.0030030  0.0011144 
    4   988     3  1.6082533 -0.0023115  0.0020008 
    4   988     4  1.6083787 -0.0017475  0.0007012 
    4   989     1  1.6019985 -0.0025303  0.0021219 
    4   989     2  1.5979952 -0.0037980  0.0025017 
    4   989     3  1.6021447 -0.0019734  0.0007877 
    4   989     4  1.5981632 -0.0032419  0.0011850 
    4   990     1  1.6022381 -0.0020289  0.0005931 
    4   990     2  1.6020553 -0.0025176  0.0019177 
    4   990     3  1.5982912 -0.0032650  0.0009253 
    4   990     4  1.5980877 -0.0037550  0.0022360 
    4   991     1  1.6143339 -0.0021034  0.0018966 
    4   991     2  1.6105314 -0.0033186  0.0022865 
    4   991     3  1.6144327 -0.0015556  0.0006280 
    4   991     4  1.6106438 -0.0027734  0.0010335 
    4   992     1  1.6144310 -0.0016050  0.0004548 
    4   992     2  1.6143038 -0.0020947  0.0017224 
    4   992     3  1.6106598 -0.0027969  0.0008046 
    4   992     4  1.6105192 -0.0032856  0.0020590 
    4   993     1  1.6166295 -0.0025906  0.0007457 
    4   993     2  1.6203559 -0.0014089  0.0003888 
    4   993     3  1.6165115 -0.0030743  0.0019742 
    4   993     4  1.6202461 -0.0018955  0.0016314 
    4   994     1  1.6165645 -0.0031080  0.0021858 
    4   994     2  1.6166550 -0.0025703  0.0009597 
    4   994     3  1.6203048 -0.0019086  0.0017918 
    4   994     4  1.6203885 -0.0013669  0.0005518 
    4   995     1  1.6143206 -0.0020625  0.0015447 
    4   995     2  1.6105677 -0.0032267  0.0018234 
    4   995     3  1.6144128 -0.0016631  0.0002914 
    4   995     4  1.6106685 -0.0028290  0.0005841 
    4   996     1  1.6144478 -0.0016986  0.0001212 
    4   996     2  1.6143326 -0.0020458  0.0013717 
    4   996     3  1.6107243 -0.0028452  0.0003643 
    4   996     4  1.6105945 -0.0031935  0.0016023 
    4   997     1  1.6166215 -0.0026416  0.0003286 
    4   997     2  1.6203002 -0.0015062  0.0000782 
    4   997     3  1.6165168 -0.0029862  0.0015431 
    4   997     4  1.6202072 -0.0018509  0.0013059 
    4   998     1  1.6165211 -0.0030209  0.0017514 
    4   998     2  1.6166060 -0.0026227  0.0005363 
    4   998     3  1.6202309 -0.0018668  0.0014644 
    4   998     4  1.6203024 -0.0014683  0.0002361 
    4   999     1  1.6261576 -0.0012490  0.0003351 
    4   999     2  1.6260749 -0.0017089  0.0015528 
    4   999     3  1.6225186 -0.0024008  0.0006775 
    4   999     4  1.6224235 -0.0028600  0.0018834 
    4  1000     1  1.6282941 -0.0022212  0.0006209 
    4  1000     2  1.6319059 -0.0010759  0.0002753 
    4  1000     3  1.6282196 -0.0026707  0.0018039 
    4  1000     4  1.6318375 -0.0015284  0.0014711 
    4  1001     1  1.6283141 -0.0027021  0.0019893 
    4  1001     2  1.6283750 -0.0022022  0.0008070 
    4  1001     3  1.6319359 -0.0015420  0.0016114 
    4  1001     4  1.6319923 -0.0010384  0.0004170 
    4  1002     1  1.6261560 -0.0017182  0.0017042 
    4  1002     2  1.6224985 -0.0028876  0.0020804 
    4  1002     3  1.6262217 -0.0012066  0.0004877 
    4  1002     4  1.6225698 -0.0023799  0.0008773 
    4  1003     1  1.6281657 -0.0026288  0.0016075 
    4  1003     2  1.6282149 -0.0022525  0.0004354 
    4  1003     3  1.6317663 -0.0015069  0.0013231 
    4  1003     4  1.6318056 -0.0011298  0.0001395 
    4  1004     1  1.6260279 -0.0016843  0.0013956 
    4  1004     2  1.6224023 -0.0028121  0.0016756 
    4  1004     3  1.6260830 -0.0013014  0.0001905 
    4  1004     4  1.6224631 -0.0024314  0.0004832 
    4  1005     1  1.6260414 -0.0013400  0.0000408 
    4  1005     2  1.6259766 -0.0016712  0.0012449 
    4  1005     3  1.6224410 -0.0024517  0.0002880 
    4  1005     4  1.6223608 -0.0027843  0.0014803 
    4  1006     1  1.6281587 -0.0022747  0.0002522 
    4  1006     2  1.6317346 -0.0011685 -1.16e-006 
    4  1006     3  1.6281026 -0.0026029  0.0014234 
    4  1006     4  1.6316885 -0.0014968  0.0011813 
    4  1007     1  1.6374449 -0.0013367  0.0012651 
    4  1007     2  1.6338915 -0.0024418  0.0015381 
    4  1007     3  1.6374717 -0.0009828  0.0000995 
    4  1007     4  1.6339206 -0.0020901  0.0003825 
    4  1008     1  1.6373650 -0.0010172 -0.0000380 
    4  1008     2  1.6373430 -0.0013299  0.0011242 
    4  1008     3  1.6338353 -0.0021087  0.0002105 
    4  1008     4  1.6338000 -0.0024230  0.0013644 
    4  1009     1  1.6394629 -0.0019542  0.0001748 
    4  1009     2  1.6430044 -0.0008595 -0.0000731 
    4  1009     3  1.6394499 -0.0022528  0.0013196 
    4  1009     4  1.6429953 -0.0011585  0.0010779 
    4  1010     1  1.6395505 -0.0022773  0.0014777 
    4  1010     2  1.6395738 -0.0019354  0.0003354 
    4  1010     3  1.6431009 -0.0011736  0.0012065 
    4  1010     4  1.6431226 -0.0008293  0.0000545 
    4  1011     1  1.6396836 -0.0019079  0.0004973 
    4  1011     2  1.6432363 -0.0007876  0.0001749 
    4  1011     3  1.6396415 -0.0023093  0.0016452 
    4  1011     4  1.6431939 -0.0011931  0.0013348 
    4  1012     1  1.6397587 -0.0023378  0.0018061 
    4  1012     2  1.6397950 -0.0018887  0.0006607 
    4  1012     3  1.6433078 -0.0012083  0.0014551 
    4  1012     4  1.6433433 -0.0007550  0.0002982 
    4  1013     1  1.6376448 -0.0013649  0.0015378 
    4  1013     2  1.6340742 -0.0025009  0.0018902 
    4  1013     3  1.6376843 -0.0009018  0.0003621 
    4  1013     4  1.6341169 -0.0020418  0.0007269 
    4  1014     1  1.6375823 -0.0009413  0.0002292 
    4  1014     2  1.6375356 -0.0013559  0.0014052 
    4  1014     3  1.6340210 -0.0020643  0.0005521 
    4  1014     4  1.6339674 -0.0024774  0.0017179 
    4  1015     1  1.6489371 -0.0010452  0.0013907 
    4  1015     2  1.6454107 -0.0021581  0.0017133 
    4  1015     3  1.6489629 -0.0006343  0.0002494 
    4  1015     4  1.6454346 -0.0017523  0.0005848 
    4  1016     1  1.6488587 -0.0006699  0.0001344 
    4  1016     2  1.6488281 -0.0010349  0.0012785 
    4  1016     3  1.6453256 -0.0017758  0.0004297 
    4  1016     4  1.6452947 -0.0021378  0.0015637 
    4  1017     1  1.6509406 -0.0016390  0.0003755 
    4  1017     2  1.6544696 -0.0005363  0.0000867 
    4  1017     3  1.6509116 -0.0019868  0.0014933 
    4  1017     4  1.6544345 -0.0008895  0.0012168 
    4  1018     1  1.6510239 -0.0020107  0.0016334 
    4  1018     2  1.6510479 -0.0016188  0.0005215 
    4  1018     3  1.6545370 -0.0009039  0.0013178 
    4  1018     4  1.6545635 -0.0005072  0.0001941 
    4  1019     1  1.6487393 -0.0010168  0.0011610 
    4  1019     2  1.6452032 -0.0021109  0.0014122 
    4  1019     3  1.6487615 -0.0007007  0.0000201 
    4  1019     4  1.6452182 -0.0017993  0.0002806 
    4  1020     1  1.6486610 -0.0007239 -0.0001021 
    4  1020     2  1.6486499 -0.0010047  0.0010443 
    4  1020     3  1.6451036 -0.0018196  0.0001316 
    4  1020     4  1.6450994 -0.0020970  0.0012720 
    4  1021     1  1.6507601 -0.0016892  0.0000836 
    4  1021     2  1.6543393 -0.0005920 -0.0001292 
    4  1021     3  1.6507486 -0.0019383  0.0012152 
    4  1021     4  1.6543072 -0.0008493  0.0010126 
    4  1022     1  1.6508246 -0.0019618  0.0013491 
    4  1022     2  1.6508482 -0.0016642  0.0002309 
    4  1022     3  1.6543609 -0.0008713  0.0011113 
    4  1022     4  1.6543940 -0.0005678 -0.0000186 
    4  1023     1  1.6600605 -0.0004271  0.0000509 
    4  1023     2  1.6600304 -0.0007447  0.0011654 
    4  1023     3  1.6565405 -0.0015199  0.0003147 
    4  1023     4  1.6565130 -0.0018334  0.0014171 
    4  1024     1  1.6621267 -0.0013975  0.0002669 
    4  1024     2  1.6656377 -0.0003092  9.66e-006 
    4  1024     3  1.6620976 -0.0016996  0.0013520 
    4  1024     4  1.6656046 -0.0006158  0.0011076 
    4  1025     1  1.6621933 -0.0017225  0.0014769 
    4  1025     2  1.6622142 -0.0013789  0.0003961 
    4  1025     3  1.6656916 -0.0006300  0.0011925 
    4  1025     4  1.6657143 -0.0002822  0.0001003 
    4  1026     1  1.6601241 -0.0007579  0.0012585 
    4  1026     2  1.6566173 -0.0018549  0.0015495 
    4  1026     3  1.6601462 -0.0003973  0.0001500 
    4  1026     4  1.6566357 -0.0014993  0.0004532 
    4  1027     1  1.6620344 -0.0016756  0.0012220 
    4  1027     2  1.6620754 -0.0014198  0.0001374 
    4  1027     3  1.6655538 -0.0005988  0.0010224 
    4  1027     4  1.6656001 -0.0003382 -0.0000770 
    4  1028     1  1.6599689 -0.0007276  0.0010702 
    4  1028     2  1.6564416 -0.0018092  0.0012812 
    4  1028     3  1.6600089 -0.0004554 -0.0000458 
    4  1028     4  1.6564713 -0.0015430  0.0001780 
    4  1029     1  1.6599941 -0.0004796 -0.0001462 
    4  1029     2  1.6599401 -0.0007099  0.0009845 
    4  1029     3  1.6564247 -0.0015678  0.0000362 
    4  1029     4  1.6563895 -0.0017894  0.0011506 
    4  1030     1  1.6620685 -0.0014441  6.03e-007 
    4  1030     2  1.6656110 -0.0003676 -0.0001616 
    4  1030     3  1.6620148 -0.0016433  0.0010916 
    4  1030     4  1.6655486 -0.0005725  0.0009479 
    4  1031     1  1.6711226 -0.0004746  0.0009733 
    4  1031     2  1.6676161 -0.0015450  0.0011602 
    4  1031     3  1.6711618 -0.0002364 -0.0001045 
    4  1031     4  1.6676569 -0.0013090  0.0000952 
    4  1032     1  1.6711611 -0.0002662 -0.0001833 
    4  1032     2  1.6711100 -0.0004575  0.0008964 
    4  1032     3  1.6676663 -0.0013271 -0.0000296 
    4  1032     4  1.6676082 -0.0015179  0.0010337 
    4  1033     1  1.6732010 -0.0012109 -0.0000537 
    4  1033     2  1.6766637 -0.0001587 -0.0002119 
    4  1033     3  1.6731591 -0.0013958  0.0009865 
    4  1033     4  1.6766360 -0.0003413  0.0008399 
    4  1034     1  1.6731745 -0.0014285  0.0011071 
    4  1034     2  1.6732101 -0.0011963  0.0000612 
    4  1034     3  1.6766679 -0.0003614  0.0009173 
    4  1034     4  1.6766977 -0.0001285 -0.0001398 
    4  1035     1  1.6732546 -0.0011798  0.0001729 
    4  1035     2  1.6767491 -0.0001009 -0.0000664 
    4  1035     3  1.6732322 -0.0014502  0.0012240 
    4  1035     4  1.6767269 -0.0003742  0.0009960 
    4  1036     1  1.6733220 -0.0014728  0.0013351 
    4  1036     2  1.6733367 -0.0011647  0.0002838 
    4  1036     3  1.6768154 -0.0003875  0.0010706 
    4  1036     4  1.6768289 -0.0000769  9.43e-006 
    4  1037     1  1.6712608 -0.0004997  0.0011354 
    4  1037     2  1.6677595 -0.0015876  0.0014009 
    4  1037     3  1.6712767 -0.0001822  0.0000586 
    4  1037     4  1.6677747 -0.0012734  0.0003349 
    4  1038     1  1.6711993 -0.0002090 -0.0000249 
    4  1038     2  1.6711751 -0.0004880  0.0010551 
    4  1038     3  1.6676951 -0.0012907  0.0002146 
    4  1038     4  1.6676689 -0.0015674  0.0012832 
    4  1039     1  1.6823032 -0.0000109 -0.0001007 
    4  1039     2  1.6822942 -0.0002598  0.0009456 
    4  1039     3  1.6788020 -0.0010883  0.0001250 
    4  1039     4  1.6787878 -0.0013368  0.0011630 
    4  1040     1  1.6843607 -0.0009936  0.0000862 
    4  1040     2  1.6878671  0.0000856 -0.0001406 
    4  1040     3  1.6843543 -0.0012366  0.0011123 
    4  1040     4  1.6878613 -0.0001591  0.0008938 
    4  1041     1  1.6844470 -0.0012556  0.0012040 
    4  1041     2  1.6844531 -0.0009805  0.0001786 
    4  1041     3  1.6879525 -0.0001714  0.0009564 
    4  1041     4  1.6879585  0.0001059 -0.0000775 
    4  1042     1  1.6823839 -0.0002697  0.0010164 
    4  1042     2  1.6788789 -0.0013540  0.0012647 
    4  1042     3  1.6823908  0.0000142 -0.0000311 
    4  1042     4  1.6788851 -0.0010729  0.0002272 
    4  1043     1  1.6822189 -0.0002483  0.0008700 
    4  1043     2  1.6787222 -0.0013161  0.0010581 
    4  1043     3  1.6822323 -0.0000315 -0.0001699 
    4  1043     4  1.6787436 -0.0010986  0.0000260 
    4  1044     1  1.6821542 -0.0000569 -0.0002403 
    4  1044     2  1.6821525 -0.0002393  0.0007924 
    4  1044     3  1.6786955 -0.0011095 -0.0000731 
    4  1044     4  1.6786765 -0.0012958  0.0009526 
    4  1045     1  1.6841976 -0.0010173 -0.0000918 
    4  1045     2  1.6876823  0.0000443 -0.0002666 
    4  1045     3  1.6842050 -0.0011970  0.0009279 
    4  1045     4  1.6876996 -0.0001331  0.0007565 
    4  1046     1  1.6842737 -0.0012196  0.0010191 
    4  1046     2  1.6842832 -0.0010056 -3.26e-006 
    4  1046     3  1.6877801 -0.0001479  0.0008261 
    4  1046     4  1.6877855  0.0000662 -0.0002028 
    4  1047     1  1.6935417 -0.0000711  0.0009061 
    4  1047     2  1.6900194 -0.0011567  0.0011398 
    4  1047     3  1.6935443  0.0001850 -0.0001169 
    4  1047     4  1.6900202 -0.0009032  0.0001254 
    4  1048     1  1.6934549  0.0001651 -0.0001743 
    4  1048     2  1.6934546 -0.0000612  0.0008497 
    4  1048     3  1.6899285 -0.0009171  0.0000406 
    4  1048     4  1.6899279 -0.0011420  0.0010577 
    4  1049     1  1.6955233 -0.0008397 -3.45e-007 
    4  1049     2  1.6990608  0.0002449 -0.0002115 
    4  1049     3  1.6955232 -0.0010576  0.0010073 
    4  1049     4  1.6990568  0.0000243  0.0008037 
    4  1050     1  1.6956103 -0.0010723  0.0010817 
    4  1050     2  1.6956124 -0.0008270  0.0000773 
    4  1050     3  1.6991374  0.0000135  0.0008528 
    4  1050     4  1.6991421  0.0002614 -0.0001594 
    4  1051     1  1.6933745 -0.0000513  0.0007900 
    4  1051     2  1.6898452 -0.0011285  0.0009767 
    4  1051     3  1.6933748  0.0001495 -0.0002312 
    4  1051     4  1.6898456 -0.0009286 -0.0000391 
    4  1052     1  1.6932720  0.0001322 -0.0002919 
    4  1052     2  1.6932922 -0.0000439  0.0007291 
    4  1052     3  1.6897425 -0.0009428 -0.0001166 
    4  1052     4  1.6897632 -0.0011183  0.0009019 
    4  1053     1  1.6953486 -0.0008715 -0.0001510 
    4  1053     2  1.6989168  0.0002130 -0.0003160 
    4  1053     3  1.6953690 -0.0010318  0.0008645 
    4  1053     4  1.6989252  0.0000484  0.0007044 
    4  1054     1  1.6954426 -0.0010476  0.0009329 
    4  1054     2  1.6954434 -0.0008536 -0.0000748 
    4  1054     3  1.6989849  0.0000323  0.0007517 
    4  1054     4  1.6989912  0.0002293 -0.0002629 
    4  1055     1  1.7046906  0.0003090 -0.0002405 
    4  1055     2  1.7046855  0.0001096  0.0007663 
    4  1055     3  1.7011323 -0.0007780 -0.0000469 
    4  1055     4  1.7011318 -0.0009746  0.0009523 
    4  1056     1  1.7067689 -0.0007153 -0.0000863 
    4  1056     2  1.7103344  0.0003726 -0.0002735 
    4  1056     3  1.7067622 -0.0009058  0.0009051 
    4  1056     4  1.7103220  0.0001791  0.0007251 
    4  1057     1  1.7068315 -0.0009165  0.0009649 
    4  1057     2  1.7068347 -0.0007019 -0.0000216 
    4  1057     3  1.7103788  0.0001696  0.0007607 
    4  1057     4  1.7103880  0.0003878 -0.0002343 
    4  1058     1  1.7047592  0.0000997  0.0008092 
    4  1058     2  1.7012120 -0.0009876  0.0010194 
    4  1058     3  1.7047611  0.0003230 -0.0001942 
    4  1058     4  1.7012114 -0.0007667  0.0000233 
    4  1059     1  1.7046262  0.0001179  0.0007210 
    4  1059     2  1.7010629 -0.0009650  0.0008849 
    4  1059     3  1.7046350  0.0002948 -0.0002866 
    4  1059     4  1.7010667 -0.0007908 -0.0001161 
    4  1060     1  1.7045800  0.0002797 -0.0003378 
    4  1060     2  1.7045720  0.0001200  0.0006771 
    4  1060     3  1.7009970 -0.0008070 -0.0001869 
    4  1060     4  1.7009998 -0.0009621  0.0008191 
    4  1061     1  1.7066701 -0.0007417 -0.0002182 
    4  1061     2  1.7102632  0.0003454 -0.0003517 
    4  1061     3  1.7066638 -0.0008746  0.0007796 
    4  1061     4  1.7102504  0.0002095  0.0006546 
    4  1062     1  1.7067040 -0.0008946  0.0008437 
    4  1062     2  1.7067150 -0.0007262 -0.0001486 
    4  1062     3  1.7102771  0.0001899  0.0006881 
    4  1062     4  1.7102957  0.0003619 -0.0003128 
    4  1063     1  1.6957216 -0.0008166  0.0001515 
    4  1063     2  1.6992358  0.0002741 -0.0001110 
    4  1063     3  1.6957537 -0.0010765  0.0011575 
    4  1063     4  1.6992616  9.77e-006  0.0009049 
    4  1064     1  1.6959320 -0.0010904  0.0012316 
    4  1064     2  1.6958882 -0.0008060  0.0002293 
    4  1064     3  1.6994283  4.87e-007  0.0009507 
    4  1064     4  1.6993853  0.0002877 -0.0000600 
    4  1065     1  1.6938541 -0.0000814  0.0010184 
    4  1065     2  1.6903536 -0.0011751  0.0013044 
    4  1065     3  1.6938100  0.0002153 -4.29e-006 
    4  1065     4  1.6903075 -0.0008818  0.0002911 
    4  1066     1  1.6936468  0.0001958 -0.0000613 
    4  1066     2  1.6936802 -0.0000751  0.0009650 
    4  1066     3  1.6901363 -0.0008951  0.0002055 
    4  1066     4  1.6901697 -0.0011636  0.0012234 
    4  1067     1  1.7050332  0.0000905  0.0008964 
    4  1067     2  1.7015118 -0.0010005  0.0011524 
    4  1067     3  1.7049856  0.0003441 -0.0001050 
    4  1067     4  1.7014615 -0.0007500  0.0001594 
    4  1068     1  1.7048470  0.0003311 -0.0001502 
    4  1068     2  1.7048751  0.0000967  0.0008550 
    4  1068     3  1.7013103 -0.0007600  0.0000891 
    4  1068     4  1.7013408 -0.0009917  0.0010862 
    4  1069     1  1.7069256 -0.0006950  0.0000382 
    4  1069     2  1.7104597  0.0003942 -0.0001966 
    4  1069     3  1.7069511 -0.0009221  0.0010260 
    4  1069     4  1.7104786  0.0001632  0.0007993 
    4  1070     1  1.7071085 -0.0009290  0.0010847 
    4  1070     2  1.7070650 -0.0006822  0.0001030 
    4  1070     3  1.7106152  0.0001566  0.0008332 
    4  1070     4  1.7105793  0.0004082 -0.0001583 
    4  1071     1  1.7051670  0.0003465 -0.0000621 
    4  1071     2  1.7052774  0.0000948  0.0009400 
    4  1071     3  1.7016703 -0.0007457  0.0002235 
    4  1071     4  1.7017837 -0.0009939  0.0012160 
    4  1072     1  1.7072618 -0.0006782  0.0001617 
    4  1072     2  1.7107406  0.0004080 -0.0001208 
    4  1072     3  1.7073653 -0.0009255  0.0011432 
    4  1072     4  1.7108356  0.0001555  0.0008702 
    4  1073     1  1.7076962 -0.0009254  0.0011987 
    4  1073     2  1.7075553 -0.0006627  0.0002286 
    4  1073     3  1.7111271  0.0001525  0.0008993 
    4  1073     4  1.7109957  0.0004217 -0.0000829 
    4  1074     1  1.7056029  0.0000919  0.0009763 
    4  1074     2  1.7021359 -0.0009973  0.0012789 
    4  1074     3  1.7054524  0.0003574 -0.0000182 
    4  1074     4  1.7019835 -0.0007355  0.0002943 
    4  1075     1  1.6961088 -0.0007978  0.0003012 
    4  1075     2  1.6995767  0.0002952 -0.0000123 
    4  1075     3  1.6962250 -0.0010817  0.0013032 
    4  1075     4  1.6996859  5.77e-006  0.0010008 
    4  1076     1  1.6965835 -0.0010897  0.0013722 
    4  1076     2  1.6964392 -0.0007869  0.0003766 
    4  1076     3  1.7000241  1.84e-006  0.0010410 
    4  1076     4  1.6998786  0.0003076  0.0000361 
    4  1077     1  1.6944744 -0.0000737  0.0011255 
    4  1077     2  1.6910187 -0.0011709  0.0014602 
    4  1077     3  1.6943268  0.0002403  0.0001068 
    4  1077     4  1.6908691 -0.0008612  0.0004524 
    4  1078     1  1.6940090  0.0002185  0.0000519 
    4  1078     2  1.6941285 -0.0000765  0.0010756 
    4  1078     3  1.6905353 -0.0008773  0.0003688 
    4  1078     4  1.6906522 -0.0011704  0.0013841 
    4  1079     1  1.6968670 -0.0007804  0.0004434 
    4  1079     2  1.7002572  0.0003085  0.0000806 
    4  1079     3  1.6971244 -0.0010660  0.0014337 
    4  1079     4  1.7005092  0.0000168  0.0010836 
    4  1080     1  1.6977723 -0.0010691  0.0014927 
    4  1080     2  1.6974700 -0.0007685  0.0005137 
    4  1080     3  1.7011225  0.0000164  0.0011119 
    4  1080     4  1.7008178  0.0003207  0.0001219 
    4  1081     1  1.6955890 -0.0000469  0.0012158 
    4  1081     2  1.6921983 -0.0011443  0.0015982 
    4  1081     3  1.6952754  0.0002604  0.0002052 
    4  1081     4  1.6918882 -0.0008414  0.0006013 
    4  1082     1  1.6947106  0.0002392  0.0001614 
    4  1082     2  1.6949743 -0.0000590  0.0011758 
    4  1082     3  1.6913040 -0.0008554  0.0005266 
    4  1082     4  1.6915613 -0.0011521  0.0015321 
    4  1083     1  1.7066571  0.0001019  0.0010463 
    4  1083     2  1.7032988 -0.0009734  0.0013965 
    4  1083     3  1.7063506  0.0003627  0.0000747 
    4  1083     4  1.7029934 -0.0007160  0.0004355 
    4  1084     1  1.7058176  0.0003541  0.0000252 
    4  1084     2  1.7060676  0.0001037  0.0010144 
    4  1084     3  1.7024023 -0.0007306  0.0003588 
    4  1084     4  1.7026543 -0.0009766  0.0013363 
    4  1085     1  1.7079529 -0.0006565  0.0002902 
    4  1085     2  1.7113260  0.0004164 -0.0000432 
    4  1085     3  1.7081884 -0.0009086  0.0012520 
    4  1085     4  1.7115542  0.0001581  0.0009306 
    4  1086     1  1.7087960 -0.0008987  0.0013058 
    4  1086     2  1.7085071 -0.0006247  0.0003638 
    4  1086     3  1.7121001  0.0001634  0.0009512 
    4  1086     4  1.7118118  0.0004423 -3.34e-006 
    4  1087     1  1.7070293  0.0004080  0.0001371 
    4  1087     2  1.7074190  0.0001305  0.0010826 
    4  1087     3  1.7037330 -0.0006583  0.0005067 
    4  1087     4  1.7041323 -0.0009356  0.0014583 
    4  1088     1  1.7091707 -0.0006265  0.0004055 
    4  1088     2  1.7124101  0.0004275  0.0000240 
    4  1088     3  1.7095756 -0.0008682  0.0013468 
    4  1088     4  1.7128494  0.0001923  0.0009737 
    4  1089     1  1.7102922 -0.0009706  0.0013779 
    4  1089     2  1.7099452 -0.0006569  0.0002481 
    4  1089     3  1.7141585  0.0002692  0.0009697 
    4  1089     4  1.7135019  0.0004477 -0.0000285 
    4  1090     1  1.7080089  0.0001277  0.0012191 
    4  1090     2  1.7047390 -0.0008907  0.0014865 
    4  1090     3  1.7077610  0.0002651  0.0002555 
    4  1090     4  1.7043555 -0.0007851  0.0004866 
    4  1091     1  1.6982756 -0.0007764  0.0006181 
    4  1091     2  1.7014609  0.0002794  0.0001979 
    4  1091     3  1.6987305 -0.0010239  0.0015460 
    4  1091     4  1.7018855  0.0000102  0.0011586 
    4  1092     1  1.7002112 -0.0009703  0.0015610 
    4  1092     2  1.6996929 -0.0006573  0.0008543 
    4  1092     3  1.7026811 -0.0001028  0.0011542 
    4  1092     4  1.7023649  0.0002901  0.0004000 
    4  1093     1  1.6974915  0.0000253  0.0012032 
    4  1093     2  1.6944043 -0.0010933  0.0017651 
    4  1093     3  1.6967387  0.0004542  0.0002496 
    4  1093     4  1.6938608 -0.0007024  0.0009502 
    4  1094     1  1.6959606  0.0002506  0.0002186 
    4  1094     2  1.6964620 -0.0000235  0.0012295 
    4  1094     3  1.6926225 -0.0008516  0.0006475 
    4  1094     4  1.6930909 -0.0011289  0.0016437 
    4  1095     1  1.6986841  0.0003157  0.0009962 
    4  1095     2  1.6984715 -0.0005079  0.0007846 
    4  1095     3  1.6983903 -0.0005465  0.0012462 
    4  1095     4  1.6983063 -0.0009429  0.0010233 
    4  1096     1  1.7001744 -0.0008179  0.0007386 
    4  1096     2  1.7031346  0.0000995  0.0005023 
    4  1096     3  1.7009541 -0.0009411  0.0015403 
    4  1096     4  1.7033163 -0.0001571  0.0012285 
    4  1097     1  1.7001205 -0.0008020  0.0011729 
    4  1097     2  1.7009224 -0.0008751  0.0004047 
    4  1097     3  1.7029112  0.0000613  0.0013849 
    4  1097     4  1.7031742 -0.0001330  0.0006932 
    4  1098     1  1.7076951  0.0001555  0.0014792 
    4  1098     2  1.7045816 -0.0007845  0.0013783 
    4  1098     3  1.7079794  0.0001361  0.0005678 
    4  1098     4  1.7048711 -0.0008105  0.0003966 
    4  1099     1  1.7081349  0.0001659  0.0002967 
    4  1099     2  1.7081574  0.0000767  0.0012364 
    4  1099     3  1.7048464 -0.0008208  0.0003432 
    4  1099     4  1.7049701 -0.0008875  0.0013591 
    4  1100     1  1.7103292 -0.0008892  0.0001888 
    4  1100     2  1.7142786  0.0003060  0.0003385 
    4  1100     3  1.7102032 -0.0007756  0.0013829 
    4  1100     4  1.7137252  0.0002762  0.0014052 
    4  1101     1  1.7095565 -0.0007283  0.0012477 
    4  1101     2  1.7098821 -0.0007800  0.0002600 
    4  1101     3  1.7126878  0.0002281  0.0014246 
    4  1101     4  1.7130693  0.0001954  0.0004528 
    4  1102     1  1.7072249  0.0000791  0.0006401 
    4  1102     2  1.7069386  0.0002954  0.0015574 
    4  1102     3  1.7042531 -0.0008677  0.0003405 
    4  1102     4  1.7038787 -0.0006726  0.0012700 
    4  1103     1  1.7091821 -0.0008049  0.0002862 
    4  1103     2  1.7122923  0.0001624  0.0005298 
    4  1103     3  1.7088854 -0.0006606  0.0012667 
    4  1103     4  1.7120137  0.0003096  0.0015004 
    4  1104     1  1.7082026 -0.0006409  0.0012957 
    4  1104     2  1.7084882 -0.0008357  0.0003059 
    4  1104     3  1.7113690  0.0003518  0.0015675 
    4  1104     4  1.7116162  0.0001456  0.0005769 
    4  1105     1  1.7061879  0.0003226  0.0016451 
    4  1105     2  1.7031260 -0.0006639  0.0013104 
    4  1105     3  1.7064681  0.0000488  0.0007039 
    4  1105     4  1.7034662 -0.0009171  0.0003788 
    4  1106     1  1.6979623 -0.0007662  0.0014216 
    4  1106     2  1.6983747 -0.0010014  0.0004966 
    4  1106     3  1.7009603  0.0002186  0.0017989 
    4  1106     4  1.7013466 -0.0000356  0.0008432 
    4  1107     1  1.6957497  0.0001673  0.0019566 
    4  1107     2  1.6925897 -0.0008560  0.0015947 
    4  1107     3  1.6962010 -0.0000630  0.0009542 
    4  1107     4  1.6929932 -0.0010984  0.0005961 
    4  1108     1  1.6973319  0.0000126  0.0009103 
    4  1108     2  1.6966142  0.0003925  0.0018773 
    4  1108     3  1.6943203 -0.0010477  0.0004083 
    4  1108     4  1.6938380 -0.0006833  0.0012454 
    4  1109     1  1.6999912 -0.0009238  0.0004285 
    4  1109     2  1.7022890 -0.0001163  0.0008077 
    4  1109     3  1.6995070 -0.0005999  0.0011134 
    4  1109     4  1.7019698  0.0002776  0.0015385 
    4  1110     1  1.6952352 -0.0001003  0.0010080 
    4  1110     2  1.6949676  0.0002036  0.0020273 
    4  1110     3  1.6920478 -0.0011301  0.0006514 
    4  1110     4  1.6917727 -0.0008291  0.0016685 
    4  1111     1  1.6973155 -0.0010567  0.0005528 
    4  1111     2  1.7004880 -0.0000372  0.0008940 
    4  1111     3  1.6970545 -0.0007677  0.0015685 
    4  1111     4  1.7002454  0.0002601  0.0019184 
    4  1112     1  1.6963369 -0.0007635  0.0016517 
    4  1112     2  1.6965666 -0.0010703  0.0006156 
    4  1112     3  1.6995730  0.0002754  0.0019970 
    4  1112     4  1.6997830 -0.0000386  0.0009562 
    4  1113     1  1.6942589  0.0002211  0.0021031 
    4  1113     2  1.6910467 -0.0008201  0.0017367 
    4  1113     3  1.6944888 -0.0001146  0.0010764 
    4  1113     4  1.6912900 -0.0011517  0.0007111 
    4  1114     1  1.7057480  0.0000385  0.0007610 
    4  1114     2  1.7055408  0.0003267  0.0017789 
    4  1114     3  1.7025532 -0.0009801  0.0004388 
    4  1114     4  1.7023248 -0.0007008  0.0014481 
    4  1115     1  1.7077919 -0.0008912  0.0003399 
    4  1115     2  1.7109958  0.0001175  0.0006265 
    4  1115     3  1.7075926 -0.0006358  0.0013642 
    4  1115     4  1.7108300  0.0003839  0.0016555 
    4  1116     1  1.7070109 -0.0006539  0.0014539 
    4  1116     2  1.7071799 -0.0009132  0.0003962 
    4  1116     3  1.7103166  0.0003841  0.0017421 
    4  1116     4  1.7104617  0.0001167  0.0006803 
    4  1117     1  1.7049510  0.0003363  0.0018737 
    4  1117     2  1.7016526 -0.0007116  0.0015505 
    4  1117     3  1.7051263  0.0000425  0.0008229 
    4  1117     4  1.7018559 -0.0009955  0.0005055 
    4  1118     1  1.6938174 -0.0001417  0.0011457 
    4  1118     2  1.6936821  0.0002584  0.0022061 
    4  1118     3  1.6905644 -0.0012004  0.0007657 
    4  1118     4  1.6904053 -0.0008085  0.0018223 
    4  1119     1  1.6958732 -0.0011131  0.0006633 
    4  1119     2  1.6991627 -0.0000566  0.0010144 
    4  1119     3  1.6957392 -0.0007516  0.0017370 
    4  1119     4  1.6990505  0.0003125  0.0020918 
    4  1120     1  1.6951949 -0.0007545  0.0018199 
    4  1120     2  1.6953150 -0.0011291  0.0007293 
    4  1120     3  1.6985405  0.0003201  0.0021770 
    4  1120     4  1.6986411 -0.0000613  0.0010829 
    4  1121     1  1.6931228  0.0002582  0.0023019 
    4  1121     2  1.6898080 -0.0008198  0.0019164 
    4  1121     3  1.6932431 -0.0001515  0.0012225 
    4  1121     4  1.6899466 -0.0012231  0.0008402 
    4  1122     1  1.7045651  0.0000313  0.0008775 
    4  1122     2  1.7044637  0.0003674  0.0019638 
    4  1122     3  1.7012154 -0.0010318  0.0005534 
    4  1122     4  1.7011025 -0.0007003  0.0016359 
    4  1123     1  1.7066200 -0.0009475  0.0004423 
    4  1123     2  1.7099692  0.0001042  0.0007334 
    4  1123     3  1.7065183 -0.0006485  0.0015330 
    4  1123     4  1.7098894  0.0004105  0.0018276 
    4  1124     1  1.7060718 -0.0006528  0.0016106 
    4  1124     2  1.7061511 -0.0009596  0.0004967 
    4  1124     3  1.7094864  0.0004183  0.0019040 
    4  1124     4  1.7095472  0.0001052  0.0007871 
    4  1125     1  1.7040097  0.0003747  0.0020444 
    4  1125     2  1.7006082 -0.0007036  0.0017187 
    4  1125     3  1.7040901  0.0000300  0.0009374 
    4  1125     4  1.7007096 -0.0010410  0.0006157 
    4  1126     1  1.6926997 -0.0001610  0.0012994 
    4  1126     2  1.6926321  0.0002763  0.0024061 
    4  1126     3  1.6893456 -0.0012502  0.0009135 
    4  1126     4  1.6892587 -0.0008202  0.0020155 
    4  1127     1  1.6947703 -0.0011576  0.0007931 
    4  1127     2  1.6981524 -0.0000723  0.0011513 
    4  1127     3  1.6947041 -0.0007561  0.0019081 
    4  1127     4  1.6981061  0.0003361  0.0022697 
    4  1128     1  1.6942351 -0.0007628  0.0019965 
    4  1128     2  1.6942956 -0.0011671  0.0008653 
    4  1128     3  1.6976691  0.0003380  0.0023571 
    4  1128     4  1.6977130 -0.0000723  0.0012223 
    4  1129     1  1.6921492  0.0002739  0.0025016 
    4  1129     2  1.6887384 -0.0008318  0.0021134 
    4  1129     3  1.6922101 -0.0001644  0.0013785 
    4  1129     4  1.6888176 -0.0012636  0.0009936 
    4  1130     1  1.7036471  0.0000226  0.0009977 
    4  1130     2  1.7036055  0.0003869  0.0021257 
    4  1130     3  1.7002184 -0.0010628  0.0006743 
    4  1130     4  1.7001670 -0.0007023  0.0017994 
    4  1131     1  1.7057152 -0.0009775  0.0005498 
    4  1131     2  1.7091526  0.0001002  0.0008432 
    4  1131     3  1.7056710 -0.0006505  0.0016823 
    4  1131     4  1.7091252  0.0004329  0.0019785 
    4  1132     1  1.7052864 -0.0006561  0.0017580 
    4  1132     2  1.7053222 -0.0009852  0.0006095 
    4  1132     3  1.7087666  0.0004341  0.0020522 
    4  1132     4  1.7087889  0.0001005  0.0009017 
    4  1133     1  1.7032105  0.0003869  0.0022045 
    4  1133     2  1.6997458 -0.0007082  0.0018824 
    4  1133     3  1.7032451  0.0000233  0.0010604 
    4  1133     4  1.6997953 -0.0010663  0.0007421 
    4  1134     1  1.6917264 -0.0001615  0.0014583 
    4  1134     2  1.6916792  0.0002777  0.0025930 
    4  1134     3  1.6882934 -0.0012704  0.0010772 
    4  1134     4  1.6882304 -0.0008378  0.0022064 
    4  1135     1  1.6938267 -0.0011780  0.0009428 
    4  1135     2  1.6972800 -0.0000738  0.0012983 
    4  1135     3  1.6937798 -0.0007728  0.0020812 
    4  1135     4  1.6972500  0.0003374  0.0024401 
    4  1136     1  1.6933276 -0.0007818  0.0021709 
    4  1136     2  1.6933725 -0.0011810  0.0010192 
    4  1136     3  1.6968248  0.0003340  0.0025248 
    4  1136     4  1.6968573 -0.0000701  0.0013692 
    4  1137     1  1.6912147  0.0002686  0.0026849 
    4  1137     2  1.6877311 -0.0008533  0.0023060 
    4  1137     3  1.6912598 -0.0001621  0.0015373 
    4  1137     4  1.6877940 -0.0012775  0.0011625 
    4  1138     1  1.7028492  0.0000227  0.0011297 
    4  1138     2  1.7028195  0.0003816  0.0022792 
    4  1138     3  1.6993727 -0.0010731  0.0008154 
    4  1138     4  1.6993341 -0.0007176  0.0019623 
    4  1139     1  1.7049377 -0.0009901  0.0006753 
    4  1139     2  1.7084257  0.0001015  0.0009670 
    4  1139     3  1.7049061 -0.0006609  0.0018283 
    4  1139     4  1.7084069  0.0004351  0.0021218 
    4  1140     1  1.7045188 -0.0006664  0.0019038 
    4  1140     2  1.7045536 -0.0009910  0.0007450 
    4  1140     3  1.7080319  0.0004322  0.0021946 
    4  1140     4  1.7080570  0.0001041  0.0010337 
    4  1141     1  1.7024220  0.0003762  0.0023557 
    4  1141     2  1.6989215 -0.0007250  0.0020455 
    4  1141     3  1.7024557  0.0000265  0.0011957 
    4  1141     4  1.6989642 -0.0010708  0.0008895 
    4  1142     1  1.6907856 -0.0001449  0.0016174 
    4  1142     2  1.6907261  0.0002573  0.0027639 
    4  1142     3  1.6872881 -0.0012627  0.0012588 
    4  1142     4  1.6872200 -0.0008657  0.0023975 
    4  1143     1  1.6929236 -0.0011742  0.0011088 
    4  1143     2  1.6964272 -0.0000613  0.0014500 
    4  1143     3  1.6928630 -0.0007984  0.0022506 
    4  1143     4  1.6963751  0.0003181  0.0025953 
    4  1144     1  1.6923962 -0.0008060  0.0023382 
    4  1144     2  1.6924538 -0.0011676  0.0011877 
    4  1144     3  1.6959162  0.0003087  0.0026720 
    4  1144     4  1.6959787 -0.0000521  0.0015195 
    4  1145     1  1.6902575  0.0002416  0.0028478 
    4  1145     2  1.6867285 -0.0008796  0.0025030 
    4  1145     3  1.6903105 -0.0001358  0.0016905 
    4  1145     4  1.6867833 -0.0012542  0.0013524 
    4  1146     1  1.7020526  0.0000316  0.0012751 
    4  1146     2  1.7019953  0.0003556  0.0024232 
    4  1146     3  1.6985537 -0.0010653  0.0009767 
    4  1146     4  1.6984895 -0.0007437  0.0021232 
    4  1147     1  1.7041640 -0.0009835  0.0008269 
    4  1147     2  1.7076716  0.0001112  0.0011104 
    4  1147     3  1.7041067 -0.0006790  0.0019761 
    4  1147     4  1.7076250  0.0004192  0.0022610 
    4  1148     1  1.7036659 -0.0006856  0.0020534 
    4  1148     2  1.7037417 -0.0009791  0.0009067 
    4  1148     3  1.7071904  0.0004137  0.0023361 
    4  1148     4  1.7072519  0.0001158  0.0011883 
    4  1149     1  1.7015421  0.0003470  0.0024978 
    4  1149     2  1.6980383 -0.0007497  0.0022040 
    4  1149     3  1.7016194  0.0000399  0.0013494 
    4  1149     4  1.6981173 -0.0010560  0.0010566 
    4  1150     1  1.6898378 -0.0001031  0.0017624 
    4  1150     2  1.6897663  0.0002161  0.0029049 
    4  1150     3  1.6863004 -0.0012103  0.0014668 
    4  1150     4  1.6862660 -0.0008841  0.0025964 
    4  1151     1  1.6920030 -0.0011399  0.0012861 
    4  1151     2  1.6955050 -0.0000336  0.0016110 
    4  1151     3  1.6919123 -0.0008155  0.0024046 
    4  1151     4  1.6953797  0.0002791  0.0027240 
    4  1152     1  1.6914286 -0.0007997  0.0024613 
    4  1152     2  1.6915248 -0.0011392  0.0013722 
    4  1152     3  1.6947277  0.0002487  0.0027843 
    4  1152     4  1.6949397 -0.0000482  0.0017241 
    4  1153     1  1.6893391  0.0001710  0.0029473 
    4  1153     2  1.6859597 -0.0008731  0.0027109 
    4  1153     3  1.6893851 -0.0000741  0.0018137 
    4  1153     4  1.6858820 -0.0011501  0.0015966 
    4  1154     1  1.7011378  0.0000510  0.0014577 
    4  1154     2  1.7009924  0.0003192  0.0025639 
    4  1154     3  1.6976754 -0.0010355  0.0011571 
    4  1154     4  1.6975259 -0.0007656  0.0022734 
    4  1155     1  1.7032873 -0.0009571  0.0009929 
    4  1155     2  1.7068001  0.0001379  0.0012738 
    4  1155     3  1.7031458 -0.0007042  0.0021236 
    4  1155     4  1.7066955  0.0004012  0.0024030 
    4  1156     1  1.7024395 -0.0007265  0.0021768 
    4  1156     2  1.7026953 -0.0009602  0.0010295 
    4  1156     3  1.7061259  0.0004257  0.0024823 
    4  1156     4  1.7062688  0.0001603  0.0013388 
    4  1157     1  1.7002126  0.0003153  0.0026577 
    4  1157     2  1.6968930 -0.0007352  0.0023427 
    4  1157     3  1.7004702  0.0000758  0.0016240 
    4  1157     4  1.6971610 -0.0009824  0.0012736 
    4  1158     1  1.6888684 -0.0001761  0.0018141 
    4  1158     2  1.6889615  0.0000368  0.0029010 
    4  1158     3  1.6857220 -0.0010909  0.0019125 
    4  1158     4  1.6861707 -0.0008049  0.0028108 
    4  1159     1  1.6913157 -0.0008719  0.0015448 
    4  1159     2  1.6940203  0.0000507  0.0020307 
    4  1159     3  1.6910624 -0.0006775  0.0024576 
    4  1159     4  1.6934860  0.0001051  0.0027424 
    4  1160     1  1.6901828 -0.0001892  0.0024864 
    4  1160     2  1.6890699 -0.0009591  0.0029958 
    4  1160     3  1.6894928  0.0002482  0.0025624 
    4  1160     4  1.6888613 -0.0004342  0.0029158 
    4  1161     1  1.6802665 -0.0009839  0.0029465 
    4  1161     2  1.6801278 -0.0013370  0.0017953 
    4  1161     3  1.6839097  0.0001477  0.0032217 
    4  1161     4  1.6837623 -0.0002232  0.0020142 
    4  1162     1  1.6781062  0.0000945  0.0034593 
    4  1162     2  1.6741454 -0.0011472  0.0031212 
    4  1162     3  1.6779865 -0.0003172  0.0021832 
    4  1162     4  1.6741404 -0.0015118  0.0018925 
    4  1163     1  1.6783507 -0.0003526  0.0021664 
    4  1163     2  1.6783204  0.0000916  0.0033544 
    4  1163     3  1.6747028 -0.0015184  0.0017928 
    4  1163     4  1.6746125 -0.0011019  0.0029523 
    4  1164     1  1.6805418 -0.0013666  0.0016380 
    4  1164     2  1.6841380 -0.0002290  0.0019743 
    4  1164     3  1.6805262 -0.0009725  0.0027814 
    4  1164     4  1.6841318  0.0001761  0.0031418 
    4  1165     1  1.6779757 -0.0001466  0.0021281 
    4  1165     2  1.6783289  0.0001440  0.0035126 
    4  1165     3  1.6738058 -0.0014091  0.0019660 
    4  1165     4  1.6738888 -0.0012054  0.0033026 
    4  1166     1  1.6801252 -0.0012181  0.0019791 
    4  1166     2  1.6837435 -0.0001361  0.0019111 
    4  1166     3  1.6805255 -0.0010528  0.0031230 
    4  1166     4  1.6843877  0.0001068  0.0031684 
    4  1167     1  1.6815669 -0.0012828  0.0033734 
    4  1167     2  1.6809338 -0.0011051  0.0019342 
    4  1167     3  1.6867701  0.0003189  0.0030355 
    4  1167     4  1.6851409  0.0001829  0.0016895 
    4  1168     1  1.6786734  0.0002431  0.0037520 
    4  1168     2  1.6737834 -0.0012412  0.0035348 
    4  1168     3  1.6782873 -0.0001651  0.0022388 
    4  1168     4  1.6736279 -0.0015802  0.0020279 
    4  1169     1  1.6663426 -0.0013276  0.0036230 
    4  1169     2  1.6664300 -0.0017653  0.0022076 
    4  1169     3  1.6709930  0.0001406  0.0040503 
    4  1169     4  1.6709217 -0.0003514  0.0026078 
    4  1170     1  1.6635043  0.0000363  0.0043174 
    4  1170     2  1.6590104 -0.0014454  0.0037508 
    4  1170     3  1.6636353 -0.0005481  0.0029324 
    4  1170     4  1.6592530 -0.0019842  0.0023994 
    4  1171     1  1.6644528 -0.0005467  0.0028210 
    4  1171     2  1.6642659  0.0000386  0.0041172 
    4  1171     3  1.6603296 -0.0019247  0.0022639 
    4  1171     4  1.6600048 -0.0013973  0.0035175 
    4  1172     1  1.6671290 -0.0017031  0.0020996 
    4  1172     2  1.6713240 -0.0003691  0.0025118 
    4  1172     3  1.6669962 -0.0012760  0.0034107 
    4  1172     4  1.6713519  0.0001168  0.0038604 
    4  1173     1  1.6658072 -0.0018223  0.0023218 
    4  1173     2  1.6705572 -0.0003344  0.0027230 
    4  1173     3  1.6657068 -0.0014107  0.0038107 
    4  1173     4  1.6705637  0.0001103  0.0042195 
    4  1174     1  1.6649907 -0.0014418  0.0039791 
    4  1174     2  1.6651251 -0.0018383  0.0024472 
    4  1174     3  1.6699237  0.0001016  0.0043908 
    4  1174     4  1.6699942 -0.0003132  0.0028594 
    4  1175     1  1.6619639 -0.0000163  0.0047162 
    4  1175     2  1.6571215 -0.0015654  0.0042149 
    4  1175     3  1.6621041 -0.0005129  0.0032149 
    4  1175     4  1.6573176 -0.0020428  0.0027229 
    4  1176     1  1.6628704 -0.0005256  0.0030691 
    4  1176     2  1.6627436 -7.81e-006  0.0045232 
    4  1176     3  1.6582330 -0.0020172  0.0025693 
    4  1176     4  1.6580268 -0.0015297  0.0040022 
    4  1177     1  1.6781075  0.0002716  0.0041086 
    4  1177     2  1.6729818 -0.0013040  0.0037853 
    4  1177     3  1.6781698 -0.0000873  0.0025169 
    4  1177     4  1.6730538 -0.0016673  0.0021632 
    4  1178     1  1.6782945 -0.0001154  0.0022783 
    4  1178     2  1.6784707  0.0001094  0.0038069 
    4  1178     3  1.6734591 -0.0015808  0.0020736 
    4  1178     4  1.6734746 -0.0014015  0.0036233 
    4  1179     1  1.6815815 -0.0016536  0.0017375 
    4  1179     2  1.6873801  0.0001058  0.0019872 
    4  1179     3  1.6817646 -0.0013160  0.0036296 
    4  1179     4  1.6872721  0.0003271  0.0036796 
    4  1180     1  1.6811417 -0.0011953  0.0034533 
    4  1180     2  1.6812289 -0.0015240  0.0018274 
    4  1180     3  1.6862837  0.0003884  0.0037922 
    4  1180     4  1.6864148  0.0000746  0.0021758 
    4  1181     1  1.6774798 -0.0001033  0.0026807 
    4  1181     2  1.6773522  0.0002547  0.0042578 
    4  1181     3  1.6724221 -0.0016734  0.0022997 
    4  1181     4  1.6722829 -0.0013169  0.0038840 
    4  1182     1  1.6805780 -0.0015164  0.0019696 
    4  1182     2  1.6856953  0.0000661  0.0023324 
    4  1182     3  1.6804417 -0.0011791  0.0035676 
    4  1182     4  1.6855499  0.0003998  0.0039266 
    4  1183     1  1.6796740 -0.0011901  0.0037091 
    4  1183     2  1.6798308 -0.0015162  0.0021091 
    4  1183     3  1.6847749  0.0003869  0.0040696 
    4  1183     4  1.6849287  0.0000599  0.0024692 
    4  1184     1  1.6765696  0.0002618  0.0044223 
    4  1184     2  1.6715026 -0.0013137  0.0040320 
    4  1184     3  1.6767168 -0.0001060  0.0028344 
    4  1184     4  1.6716610 -0.0016783  0.0024438 
    4  1185     1  1.6633888 -0.0014407  0.0043265 
    4  1185     2  1.6635542 -0.0018733  0.0027589 
    4  1185     3  1.6684038  0.0001381  0.0047752 
    4  1185     4  1.6685479 -0.0003012  0.0032056 
    4  1186     1  1.6602824 -9.03e-006  0.0051080 
    4  1186     2  1.6553226 -0.0015902  0.0046089 
    4  1186     3  1.6604424 -0.0005038  0.0035586 
    4  1186     4  1.6555093 -0.0020758  0.0030641 
    4  1187     1  1.6612867 -0.0005043  0.0033829 
    4  1187     2  1.6611366 -0.0000128  0.0049045 
    4  1187     3  1.6564153 -0.0020583  0.0028899 
    4  1187     4  1.6562267 -0.0015798  0.0044057 
    4  1188     1  1.6643667 -0.0018614  0.0026001 
    4  1188     2  1.6693319 -0.0002985  0.0030434 
    4  1188     3  1.6642169 -0.0014278  0.0041509 
    4  1188     4  1.6692103  0.0001427  0.0045925 
    4  1189     1  1.6595677 -0.0005057  0.0037372 
    4  1189     2  1.6594092 -0.0000158  0.0053065 
    4  1189     3  1.6545898 -0.0020880  0.0032490 
    4  1189     4  1.6544112 -0.0016058  0.0048126 
    4  1190     1  1.6626989 -0.0018798  0.0029291 
    4  1190     2  1.6677208 -0.0003012  0.0033711 
    4  1190     3  1.6625328 -0.0014523  0.0045079 
    4  1190     4  1.6675710  0.0001322  0.0049541 
    4  1191     1  1.6616624 -0.0014662  0.0047031 
    4  1191     2  1.6618281 -0.0018846  0.0031020 
    4  1191     3  1.6667240  0.0001218  0.0051397 
    4  1191     4  1.6668757 -0.0003020  0.0035338 
    4  1192     1  1.6585268 -0.0000279  0.0055101 
    4  1192     2  1.6534961 -0.0016231  0.0050269 
    4  1192     3  1.6586839 -0.0005086  0.0039158 
    4  1192     4  1.6536713 -0.0020967  0.0034385 
    4  1193     1  1.6759162 -0.0001100  0.0029884 
    4  1193     2  1.6757619  0.0002543  0.0045848 
    4  1193     3  1.6708505 -0.0016849  0.0025988 
    4  1193     4  1.6706862 -0.0013237  0.0041940 
    4  1194     1  1.6790407 -0.0015150  0.0022517 
    4  1194     2  1.6841432  0.0000609  0.0026059 
    4  1194     3  1.6788765 -0.0011973  0.0038576 
    4  1194     4  1.6839852  0.0003810  0.0042145 
    4  1195     1  1.6780611 -0.0012077  0.0040157 
    4  1195     2  1.6782272 -0.0015156  0.0023934 
    4  1195     3  1.6831812  0.0003716  0.0043639 
    4  1195     4  1.6833405  0.0000610  0.0027383 
    4  1196     1  1.6749378  0.0002506  0.0047535 
    4  1196     2  1.6698484 -0.0013299  0.0043678 
    4  1196     3  1.6750934 -0.0001082  0.0031368 
    4  1196     4  1.6700134 -0.0016849  0.0027552 
    4  1197     1  1.6577860 -0.0005054  0.0040992 
    4  1197     2  1.6576198 -0.0000452  0.0057128 
    4  1197     3  1.6527457 -0.0020958  0.0036379 
    4  1197     4  1.6525662 -0.0016414  0.0052448 
    4  1198     1  1.6609460 -0.0018808  0.0032854 
    4  1198     2  1.6660134 -0.0002974  0.0037018 
    4  1198     3  1.6607710 -0.0014825  0.0049013 
    4  1198     4  1.6658533  0.0001069  0.0053240 
    4  1199     1  1.6598665 -0.0014991  0.0051095 
    4  1199     2  1.6600392 -0.0018786  0.0034696 
    4  1199     3  1.6649777  0.0000933  0.0055148 
    4  1199     4  1.6651356 -0.0002923  0.0038679 
    4  1200     1  1.6567074 -0.0000611  0.0059217 
    4  1200     2  1.6516231 -0.0016602  0.0054710 
    4  1200     3  1.6568730 -0.0005026  0.0042845 
    4  1200     4  1.6518076 -0.0020942  0.0038406 
    4  1201     1  1.6742553 -0.0001049  0.0032891 
    4  1201     2  1.6740918  0.0002362  0.0049205 
    4  1201     3  1.6691624 -0.0016817  0.0029208 
    4  1201     4  1.6689900 -0.0013442  0.0045477 
    4  1202     1  1.6773972 -0.0015096  0.0025403 
    4  1202     2  1.6825218  0.0000669  0.0028715 
    4  1202     3  1.6772234 -0.0012201  0.0041760 
    4  1202     4  1.6823553  0.0003595  0.0045117 
    4  1203     1  1.6763720 -0.0012318  0.0043416 
    4  1203     2  1.6765444 -0.0015057  0.0026886 
    4  1203     3  1.6815136  0.0003470  0.0046625 
    4  1203     4  1.6816826  0.0000710  0.0030040 
    4  1204     1  1.6732371  0.0002256  0.0050912 
    4  1204     2  1.6681194 -0.0013553  0.0047338 
    4  1204     3  1.6733985 -0.0000996  0.0034375 
    4  1204     4  1.6682883 -0.0016767  0.0030869 
    4  1205     1  1.6559353 -0.0004884  0.0044754 
    4  1205     2  1.6557341 -0.0000875  0.0061285 
    4  1205     3  1.6508499 -0.0020787  0.0040529 
    4  1205     4  1.6506298 -0.0016852  0.0056991 
    4  1206     1  1.6591258 -0.0018651  0.0036639 
    4  1206     2  1.6642429 -0.0002798  0.0040377 
    4  1206     3  1.6589212 -0.0015246  0.0053191 
    4  1206     4  1.6640618  0.0000698  0.0057022 
    4  1207     1  1.6579491 -0.0015547  0.0055371 
    4  1207     2  1.6581530 -0.0018660  0.0038481 
    4  1207     3  1.6631677  0.0000560  0.0058965 
    4  1207     4  1.6633334 -0.0002694  0.0041947 
    4  1208     1  1.6547376 -0.0000992  0.0063457 
    4  1208     2  1.6495740 -0.0017090  0.0059318 
    4  1208     3  1.6549485 -0.0004745  0.0046668 
    4  1208     4  1.6498276 -0.0020702  0.0042594 
    4  1209     1  1.6725318 -0.0000892  0.0035881 
    4  1209     2  1.6723573  0.0002015  0.0052592 
    4  1209     3  1.6674080 -0.0016637  0.0032647 
    4  1209     4  1.6672209 -0.0013786  0.0049264 
    4  1210     1  1.6756818 -0.0014911  0.0028467 
    4  1210     2  1.6808269  0.0000821  0.0031368 
    4  1210     3  1.6754986 -0.0012500  0.0045115 
    4  1210     4  1.6806444  0.0003248  0.0048095 
    4  1211     1  1.6746431 -0.0012655  0.0046892 
    4  1211     2  1.6748004 -0.0014803  0.0030121 
    4  1211     3  1.6797881  0.0003028  0.0049565 
    4  1211     4  1.6799556  0.0000889  0.0032656 
    4  1212     1  1.6715134  0.0001823  0.0054295 
    4  1212     2  1.6663336 -0.0014034  0.0051275 
    4  1212     3  1.6716621 -0.0000826  0.0037266 
    4  1212     4  1.6664982 -0.0016608  0.0034409 
    4  1213     1  1.6538979 -0.0004467  0.0048575 
    4  1213     2  1.6536187 -0.0001159  0.0065624 
    4  1213     3  1.6487160 -0.0020570  0.0044588 
    4  1213     4  1.6483628 -0.0017491  0.0061580 
    4  1214     1  1.6571675 -0.0018626  0.0040263 
    4  1214     2  1.6624490 -0.0002455  0.0043334 
    4  1214     3  1.6569119 -0.0016120  0.0057552 
    4  1214     4  1.6622735  0.0000324  0.0060822 
    4  1215     1  1.6558338 -0.0016829  0.0060011 
    4  1215     2  1.6561014 -0.0018530  0.0041829 
    4  1215     3  1.6614940  0.0000389  0.0062787 
    4  1215     4  1.6616070 -0.0001808  0.0044345 
    4  1216     1  1.6524047 -0.0001046  0.0068199 
    4  1216     2  1.6469364 -0.0018066  0.0063906 
    4  1216     3  1.6527084 -0.0004614  0.0050568 
    4  1216     4  1.6473901 -0.0021173  0.0046374 
    4  1217     1  1.6708548 -0.0000649  0.0038480 
    4  1217     2  1.6707448  0.0001447  0.0055910 
    4  1217     3  1.6656292 -0.0016489  0.0036320 
    4  1217     4  1.6654756 -0.0014565  0.0053453 
    4  1218     1  1.6739666 -0.0014460  0.0032060 
    4  1218     2  1.6791199  0.0001111  0.0033828 
    4  1218     3  1.6738542 -0.0012938  0.0048849 
    4  1218     4  1.6789848  0.0002596  0.0050901 
    4  1219     1  1.6733391 -0.0013215  0.0051100 
    4  1219     2  1.6732612 -0.0014093  0.0034503 
    4  1219     3  1.6784377  0.0002104  0.0051977 
    4  1219     4  1.6783872  0.0001279  0.0034627 
    4  1220     1  1.6702908  0.0001309  0.0057276 
    4  1220     2  1.6647642 -0.0015331  0.0055848 
    4  1220     3  1.6702250 -4.53e-006  0.0038917 
    4  1220     4  1.6648187 -0.0016292  0.0038003 
    4  1221     1  1.6550082 -0.0018469  0.0043790 
    4  1221     2  1.6607930 -0.0000986  0.0045858 
    4  1221     3  1.6546884 -0.0017515  0.0062993 
    4  1221     4  1.6606861  0.0000627  0.0065297 
    4  1222     1  1.6534734 -0.0018409  0.0066214 
    4  1222     2  1.6538089 -0.0019078  0.0045577 
    4  1222     3  1.6598798  0.0000919  0.0068259 
    4  1222     4  1.6599873 -0.0000444  0.0047480 
    4  1223     1  1.6495632 -0.0000795  0.0074908 
    4  1223     2  1.6434062 -0.0019790  0.0070622 
    4  1223     3  1.6499775 -0.0003508  0.0055005 
    4  1223     4  1.6440438 -0.0021784  0.0051025 
    4  1224     1  1.6514024 -0.0004466  0.0052796 
    4  1224     2  1.6510233 -0.0001096  0.0071386 
    4  1224     3  1.6458222 -0.0021801  0.0048524 
    4  1224     4  1.6452307 -0.0019099  0.0066913 
    4  1225     1  1.6525752 -0.0019279  0.0047278 
    4  1225     2  1.6590957  0.0000350  0.0049019 
    4  1225     3  1.6521585 -0.0019354  0.0069048 
    4  1225     4  1.6588504  0.0000791  0.0070838 
    4  1226     1  1.6507521 -0.0019609  0.0071862 
    4  1226     2  1.6511677 -0.0019382  0.0049386 
    4  1226     3  1.6575949  0.0000979  0.0073594 
    4  1226     4  1.6579162  0.0000919  0.0051055 
    4  1227     1  1.6465296 -0.0000759  0.0081150 
    4  1227     2  1.6397947 -0.0021223  0.0077931 
    4  1227     3  1.6469575 -0.0002260  0.0058866 
    4  1227     4  1.6403189 -0.0022397  0.0055970 
    4  1228     1  1.6484801 -0.0002625  0.0056698 
    4  1228     2  1.6480196 -0.0000494  0.0078110 
    4  1228     3  1.6420977 -0.0022126  0.0053125 
    4  1228     4  1.6414742 -0.0020537  0.0074177 
    4  1229     1  1.6369598 -0.0025472  0.0053733 
    4  1229     2  1.6420295 -0.0008636  0.0060384 
    4  1229     3  1.6360441 -0.0020605  0.0069834 
    4  1229     4  1.6414286 -0.0002807  0.0076717 
    4  1230     1  1.6330250 -0.0022076  0.0074542 
    4  1230     2  1.6340400 -0.0025368  0.0055813 
    4  1230     3  1.6391712 -0.0002221  0.0081550 
    4  1230     4  1.6399155 -0.0006493  0.0062191 
    4  1231     1  1.6285076 -0.0002732  0.0086164 
    4  1231     2  1.6234858 -0.0024070  0.0073396 
    4  1231     3  1.6294079 -0.0014853  0.0073755 
    4  1231     4  1.6253059 -0.0031722  0.0063841 
    4  1232     1  1.6329170 -0.0013310  0.0069655 
    4  1232     2  1.6322593 -0.0006086  0.0080418 
    4  1232     3  1.6292502 -0.0027719  0.0061554 
    4  1232     4  1.6283457 -0.0020599  0.0072849 
    4  1233     1  1.6317380 -0.0025981  0.0058478 
    4  1233     2  1.6378242 -0.0006661  0.0064360 
    4  1233     3  1.6309432 -0.0021395  0.0077825 
    4  1233     4  1.6372105 -0.0001292  0.0084471 
    4  1234     1  1.6284633 -0.0024362  0.0085198 
    4  1234     2  1.6290338 -0.0025989  0.0062831 
    4  1234     3  1.6353350 -0.0003310  0.0089520 
    4  1234     4  1.6359100 -0.0005019  0.0066506 
    4  1235     1  1.6239878 -0.0006155  0.0097104 
    4  1235     2  1.6169354 -0.0027665  0.0093292 
    4  1235     3  1.6245727 -0.0007832  0.0073458 
    4  1235     4  1.6174466 -0.0029532  0.0069839 
    4  1236     1  1.6265237 -0.0006648  0.0070353 
    4  1236     2  1.6255714 -0.0001900  0.0094972 
    4  1236     3  1.6192204 -0.0029700  0.0063617 
    4  1236     4  1.6187421 -0.0024302  0.0085888 
    4  1237     1  1.6227406 -0.0007558  0.0076875 
    4  1237     2  1.6221611 -0.0007046  0.0100230 
    4  1237     3  1.6157209 -0.0028797  0.0074091 
    4  1237     4  1.6151410 -0.0028303  0.0097269 
    4  1238     1  1.6271868 -0.0025447  0.0066823 
    4  1238     2  1.6341764 -0.0004333  0.0069342 
    4  1238     3  1.6266207 -0.0025194  0.0089818 
    4  1238     4  1.6336345 -0.0003983  0.0092624 
    4  1239     1  1.6248826 -0.0025726  0.0093891 
    4  1239     2  1.6254142 -0.0025195  0.0070445 
    4  1239     3  1.6320275 -0.0004219  0.0095915 
    4  1239     4  1.6325093 -0.0003848  0.0072262 
    4  1240     1  1.6204113 -0.0007311  0.0103973 
    4  1240     2  1.6133106 -0.0028736  0.0101527 
    4  1240     3  1.6209622 -0.0007283  0.0080442 
    4  1240     4  1.6139006 -0.0028581  0.0078132 
    4  1241     1  1.6017479 -0.0032161  0.0109013 
    4  1241     2  1.6023874 -0.0032422  0.0085803 
    4  1241     3  1.6088070 -0.0010800  0.0111863 
    4  1241     4  1.6094053 -0.0011187  0.0088627 
    4  1242     1  1.5972265 -0.0014703  0.0119555 
    4  1242     2  1.5902891 -0.0035766  0.0116322 
    4  1242     3  1.5978715 -0.0015475  0.0096753 
    4  1242     4  1.5909892 -0.0036380  0.0093471 
    4  1243     1  1.5997688 -0.0015411  0.0092010 
    4  1243     2  1.5991999 -0.0014714  0.0114840 
    4  1243     3  1.5928777 -0.0036296  0.0089011 
    4  1243     4  1.5922689 -0.0035702  0.0111994 
    4  1244     1  1.6042198 -0.0032505  0.0081496 
    4  1244     2  1.6112535 -0.0011211  0.0084385 
    4  1244     3  1.6036482 -0.0031893  0.0104724 
    4  1244     4  1.6106767 -0.0010618  0.0107574 
    4  1245     1  1.6069398 -0.0034983  0.0073374 
    4  1245     2  1.6150621 -0.0010601  0.0074469 
    4  1245     3  1.6068619 -0.0034733  0.0101223 
    4  1245     4  1.6145605 -0.0011671  0.0099513 
    4  1246     1  1.6053743 -0.0031759  0.0100799 
    4  1246     2  1.6057990 -0.0032857  0.0077107 
    4  1246     3  1.6124717 -0.0010286  0.0103575 
    4  1246     4  1.6129682 -0.0011160  0.0079976 
    4  1247     1  1.6010276 -0.0014384  0.0110405 
    4  1247     2  1.5939723 -0.0035644  0.0108497 
    4  1247     3  1.6014224 -0.0015202  0.0087213 
    4  1247     4  1.5943624 -0.0036522  0.0084757 
    4  1248     1  1.6022014 -0.0014997  0.0081287 
    4  1248     2  1.6021764 -0.0016672  0.0103966 
    4  1248     3  1.5953671 -0.0035450  0.0081241 
    4  1248     4  1.5951633 -0.0037695  0.0104405 
    4  1249     1  1.6070574 -0.0034982  0.0096051 
    4  1249     2  1.6063798 -0.0027208  0.0074494 
    4  1249     3  1.6145934 -0.0010795  0.0088024 
    4  1249     4  1.6125477 -0.0007648  0.0068451 
    4  1250     1  1.6028277 -0.0014598  0.0101427 
    4  1250     2  1.5959559 -0.0035209  0.0101255 
    4  1250     3  1.6024373 -0.0016447  0.0079221 
    4  1250     4  1.5958173 -0.0036306  0.0078946 
    4  1251     1  1.6023166 -0.0015462  0.0075626 
    4  1251     2  1.6026854 -0.0015190  0.0096484 
    4  1251     3  1.5962146 -0.0033765  0.0075907 
    4  1251     4  1.5962717 -0.0034406  0.0096214 
    4  1252     1  1.6055575 -0.0029709  0.0073993 
    4  1252     2  1.6108587 -0.0013514  0.0070872 
    4  1252     3  1.6059791 -0.0030764  0.0091114 
    4  1252     4  1.6115754 -0.0013908  0.0089595 
    4  1253     1  1.5852795 -0.0038715  0.0105947 
    4  1253     2  1.5853742 -0.0040106  0.0084365 
    4  1253     3  1.5919328 -0.0018673  0.0107706 
    4  1253     4  1.5919017 -0.0020446  0.0086052 
    4  1254     1  1.5812954 -0.0022932  0.0113871 
    4  1254     2  1.5748036 -0.0042581  0.0111358 
    4  1254     3  1.5814183 -0.0025030  0.0092546 
    4  1254     4  1.5749549 -0.0044587  0.0090091 
    4  1255     1  1.5823242 -0.0024862  0.0088391 
    4  1255     2  1.5821764 -0.0021767  0.0109614 
    4  1255     3  1.5759287 -0.0044320  0.0085326 
    4  1255     4  1.5757467 -0.0041392  0.0106152 
    4  1256     1  1.5862211 -0.0039419  0.0080513 
    4  1256     2  1.5925050 -0.0020444  0.0082575 
    4  1256     3  1.5860979 -0.0037555  0.0101071 
    4  1256     4  1.5925084 -0.0018159  0.0103529 
    4  1257     1  1.6058890 -0.0029323  0.0086790 
    4  1257     2  1.6057838 -0.0032141  0.0069559 
    4  1257     3  1.6112240 -0.0013111  0.0089260 
    4  1257     4  1.6111504 -0.0015967  0.0071121 
    4  1258     1  1.6026208 -0.0015326  0.0094518 
    4  1258     2  1.5967635 -0.0033156  0.0091606 
    4  1258     3  1.6025257 -0.0018510  0.0074993 
    4  1258     4  1.5967718 -0.0035920  0.0072840 
    4  1259     1  1.6032933 -0.0019436  0.0073494 
    4  1259     2  1.6031334 -0.0014885  0.0091820 
    4  1259     3  1.5977880 -0.0036518  0.0069401 
    4  1259     4  1.5975826 -0.0032252  0.0087167 
    4  1260     1  1.6066682 -0.0032837  0.0065567 
    4  1260     2  1.6119934 -0.0016367  0.0069327 
    4  1260     3  1.6065243 -0.0028853  0.0082704 
    4  1260     4  1.6118357 -0.0012305  0.0086925 
    4  1261     1  1.5885123 -0.0040469  0.0072975 
    4  1261     2  1.5942373 -0.0022532  0.0077816 
    4  1261     3  1.5881773 -0.0035924  0.0091279 
    4  1261     4  1.5939825 -0.0017581  0.0096704 
    4  1262     1  1.5870134 -0.0036665  0.0096130 
    4  1262     2  1.5872049 -0.0039713  0.0076569 
    4  1262     3  1.5931755 -0.0017748  0.0099992 
    4  1262     4  1.5932459 -0.0021267  0.0079818 
    4  1263     1  1.5831375 -0.0020809  0.0105730 
    4  1263     2  1.5768916 -0.0040254  0.0100782 
    4  1263     3  1.5833774 -0.0025123  0.0085205 
    4  1263     4  1.5772086 -0.0044185  0.0080902 
    4  1264     1  1.5847174 -0.0026232  0.0082544 
    4  1264     2  1.5843199 -0.0020520  0.0101698 
    4  1264     3  1.5789199 -0.0044725  0.0076688 
    4  1264     4  1.5784125 -0.0039572  0.0095147 
    4  1265     1  1.5896416 -0.0035051  0.0086398 
    4  1265     2  1.5900329 -0.0041153  0.0069206 
    4  1265     3  1.5951651 -0.0016956  0.0093131 
    4  1265     4  1.5954687 -0.0023512  0.0075432 
    4  1266     1  1.5858332 -0.0019808  0.0097411 
    4  1266     2  1.5802935 -0.0038591  0.0089406 
    4  1266     3  1.5862694 -0.0027596  0.0079843 
    4  1266     4  1.5808493 -0.0045760  0.0072430 
    4  1267     1  1.5879965 -0.0027891  0.0076907 
    4  1267     2  1.5875217 -0.0019440  0.0092997 
    4  1267     3  1.5829320 -0.0045541  0.0068786 
    4  1267     4  1.5823484 -0.0037622  0.0084445 
    4  1268     1  1.5917136 -0.0041399  0.0065544 
    4  1268     2  1.5968856 -0.0024028  0.0072692 
    4  1268     3  1.5912681 -0.0034326  0.0081729 
    4  1268     4  1.5965173 -0.0016555  0.0089260 
    4  1269     1  1.5929887 -0.0033523  0.0077414 
    4  1269     2  1.5934182 -0.0041418  0.0061960 
    4  1269     3  1.5980368 -0.0015965  0.0085459 
    4  1269     4  1.5983929 -0.0024223  0.0069703 
    4  1270     1  1.5893377 -0.0018923  0.0088758 
    4  1270     2  1.5844136 -0.0036706  0.0079909 
    4  1270     3  1.5897803 -0.0028024  0.0073628 
    4  1270     4  1.5849429 -0.0045402  0.0065072 
    4  1271     1  1.5915571 -0.0027759  0.0070157 
    4  1271     2  1.5911267 -0.0018400  0.0084602 
    4  1271     3  1.5868897 -0.0044852  0.0061439 
    4  1271     4  1.5863877 -0.0035816  0.0075664 
    4  1272     1  1.5951236 -0.0041147  0.0058554 
    4  1272     2  1.5999305 -0.0024161  0.0066632 
    4  1272     3  1.5946982 -0.0032795  0.0073386 
    4  1272     4  1.5995669 -0.0015511  0.0081694 
    4  1273     1  1.5758954 -0.0040071  0.0081933 
    4  1273     2  1.5765429 -0.0049645  0.0068189 
    4  1273     3  1.5806281 -0.0022039  0.0091686 
    4  1273     4  1.5811573 -0.0032117  0.0077631 
    4  1274     1  1.5719572 -0.0025466  0.0093944 
    4  1274     2  1.5676075 -0.0043439  0.0083404 
    4  1274     3  1.5725651 -0.0036605  0.0081718 
    4  1274     4  1.5683596 -0.0054058  0.0071451 
    4  1275     1  1.5749867 -0.0035537  0.0076997 
    4  1275     2  1.5744424 -0.0024932  0.0089251 
    4  1275     3  1.5708152 -0.0052494  0.0067183 
    4  1275     4  1.5701860 -0.0042115  0.0079364 
    4  1276     1  1.5787451 -0.0048744  0.0064287 
    4  1276     2  1.5832182 -0.0031586  0.0073645 
    4  1276     3  1.5781700 -0.0038998  0.0077648 
    4  1276     4  1.5827233 -0.0021529  0.0087179 
    4  1277     1  1.5963953 -0.0032016  0.0069570 
    4  1277     2  1.5968079 -0.0040728  0.0055209 
    4  1277     3  1.6011252 -0.0014933  0.0078071 
    4  1277     4  1.6014831 -0.0023915  0.0063504 
    4  1278     1  1.5928910 -0.0017777  0.0080704 
    4  1278     2  1.5882776 -0.0034933  0.0071734 
    4  1278     3  1.5933061 -0.0027298  0.0066667 
    4  1278     4  1.5887431 -0.0044221  0.0057857 
    4  1279     1  1.5950289 -0.0026737  0.0063296 
    4  1279     2  1.5946171 -0.0017122  0.0076974 
    4  1279     3  1.5905609 -0.0043490  0.0054432 
    4  1279     4  1.5901081 -0.0034088  0.0067951 
    4  1280     1  1.5984827 -0.0040228  0.0052012 
    4  1280     2  1.6030446 -0.0023571  0.0060465 
    4  1280     3  1.5980718 -0.0031315  0.0065940 
    4  1280     4  1.6026756 -0.0014439  0.0074563 
    4  1281     1  1.5802620 -0.0037901  0.0073680 
    4  1281     2  1.5807773 -0.0047732  0.0060445 
    4  1281     3  1.5847205 -0.0020758  0.0083057 
    4  1281     4  1.5851791 -0.0030819  0.0069688 
    4  1282     1  1.5766636 -0.0024101  0.0085059 
    4  1282     2  1.5723991 -0.0040948  0.0075563 
    4  1282     3  1.5771635 -0.0034392  0.0072443 
    4  1282     4  1.5729331 -0.0051177  0.0062941 
    4  1283     1  1.5791697 -0.0033371  0.0068300 
    4  1283     2  1.5786916 -0.0023179  0.0081166 
    4  1283     3  1.5749060 -0.0050085  0.0058955 
    4  1283     4  1.5744125 -0.0039966  0.0071773 
    4  1284     1  1.5827017 -0.0046868  0.0056758 
    4  1284     2  1.5870516 -0.0030093  0.0065967 
    4  1284     3  1.5822214 -0.0036968  0.0069860 
    4  1284     4  1.5866038 -0.0020029  0.0079184 
    4  1285     1  1.5647603 -0.0043997  0.0077477 
    4  1285     2  1.5652739 -0.0054326  0.0065263 
    4  1285     3  1.5688433 -0.0027703  0.0086754 
    4  1285     4  1.5693527 -0.0037880  0.0074713 
    4  1286     1  1.5613111 -0.0031902  0.0088292 
    4  1286     2  1.5572916 -0.0047114  0.0080139 
    4  1286     3  1.5618243 -0.0040594  0.0075942 
    4  1286     4  1.5576815 -0.0056505  0.0067246 
    4  1287     1  1.5637056 -0.0039617  0.0071427 
    4  1287     2  1.5632035 -0.0030481  0.0084906 
    4  1287     3  1.5593659 -0.0055867  0.0062845 
    4  1287     4  1.5589410 -0.0046543  0.0076342 
    4  1288     1  1.5671639 -0.0053162  0.0060985 
    4  1288     2  1.5713857 -0.0036639  0.0070209 
    4  1288     3  1.5666874 -0.0043079  0.0073835 
    4  1288     4  1.5708905 -0.0026619  0.0083029 
    4  1289     1  1.5841788 -0.0036107  0.0065990 
    4  1289     2  1.5846901 -0.0045952  0.0053281 
    4  1289     3  1.5884478 -0.0019373  0.0075346 
    4  1289     4  1.5889286 -0.0029425  0.0062469 
    4  1290     1  1.5806241 -0.0022509  0.0077256 
    4  1290     2  1.5764098 -0.0039205  0.0067818 
    4  1290     3  1.5811422 -0.0032662  0.0064563 
    4  1290     4  1.5769320 -0.0049267  0.0055219 
    4  1291     1  1.5831793 -0.0032132  0.0061028 
    4  1291     2  1.5826426 -0.0021626  0.0073350 
    4  1291     3  1.5790645 -0.0048725  0.0051490 
    4  1291     4  1.5785152 -0.0038406  0.0063637 
    4  1292     1  1.5867339 -0.0045389  0.0049807 
    4  1292     2  1.5908580 -0.0028945  0.0059161 
    4  1292     3  1.5862095 -0.0035295  0.0062047 
    4  1292     4  1.5903552 -0.0018646  0.0071580 
    4  1293     1  1.5686698 -0.0042369  0.0069638 
    4  1293     2  1.5691902 -0.0052657  0.0056965 
    4  1293     3  1.5728493 -0.0025704  0.0079117 
    4  1293     4  1.5733771 -0.0036082  0.0066327 
    4  1294     1  1.5650766 -0.0029207  0.0080907 
    4  1294     2  1.5607897 -0.0046085  0.0071427 
    4  1294     3  1.5656227 -0.0039648  0.0067580 
    4  1294     4  1.5613024 -0.0056461  0.0058251 
    4  1295     1  1.5677208 -0.0039162  0.0063982 
    4  1295     2  1.5671329 -0.0027909  0.0076623 
    4  1295     3  1.5635444 -0.0056196  0.0054094 
    4  1295     4  1.5629650 -0.0045136  0.0066521 
    4  1296     1  1.5713721 -0.0052445  0.0052969 
    4  1296     2  1.5754544 -0.0035715  0.0062717 
    4  1296     3  1.5708134 -0.0041564  0.0065119 
    4  1296     4  1.5748991 -0.0024641  0.0075059 
    4  1297     1  1.5847429 -0.0021057  0.0069124 
    4  1297     2  1.5808191 -0.0037588  0.0059298 
    4  1297     3  1.5853625 -0.0031612  0.0057659 
    4  1297     4  1.5814517 -0.0047928  0.0048023 
    4  1298     1  1.5877329 -0.0031001  0.0054271 
    4  1298     2  1.5871007 -0.0019984  0.0064916 
    4  1298     3  1.5840208 -0.0047178  0.0044455 
    4  1298     4  1.5833653 -0.0036440  0.0054879 
    4  1299     1  1.5914006 -0.0043836  0.0043145 
    4  1299     2  1.5951426 -0.0027815  0.0052769 
    4  1299     3  1.5907788 -0.0033384  0.0053779 
    4  1299     4  1.5945342 -0.0017145  0.0063585 
    4  1300     1  1.5884037 -0.0034378  0.0057918 
    4  1300     2  1.5890062 -0.0044469  0.0046550 
    4  1300     3  1.5923396 -0.0018022  0.0067547 
    4  1300     4  1.5929184 -0.0028369  0.0055961 
    4  1301     1  1.5732200 -0.0040597  0.0060498 
    4  1301     2  1.5738676 -0.0051661  0.0049332 
    4  1301     3  1.5770928 -0.0023792  0.0070666 
    4  1301     4  1.5777294 -0.0035118  0.0059274 
    4  1302     1  1.5693883 -0.0026969  0.0072032 
    4  1302     2  1.5654453 -0.0044147  0.0061615 
    4  1302     3  1.5700692 -0.0038503  0.0060482 
    4  1302     4  1.5661251 -0.0055439  0.0050290 
    4  1303     1  1.5726795 -0.0037779  0.0056971 
    4  1303     2  1.5719707 -0.0025510  0.0067252 
    4  1303     3  1.5690170 -0.0054631  0.0046489 
    4  1303     4  1.5682995 -0.0042742  0.0056475 
    4  1304     1  1.5765851 -0.0050919  0.0045756 
    4  1304     2  1.5802276 -0.0034463  0.0055914 
    4  1304     3  1.5758955 -0.0039468  0.0055938 
    4  1304     4  1.5795633 -0.0022660  0.0066364 
    4  1305     1  1.5896413 -0.0019222  0.0060453 
    4  1305     2  1.5861056 -0.0035091  0.0050675 
    4  1305     3  1.5903362 -0.0030134  0.0050837 
    4  1305     4  1.5868377 -0.0045941  0.0041076 
    4  1306     1  1.5929564 -0.0029231  0.0046137 
    4  1306     2  1.5923251 -0.0020771  0.0057344 
    4  1306     3  1.5892868 -0.0044128  0.0037504 
    4  1306     4  1.5884442 -0.0036085  0.0048722 
    4  1307     1  1.5965919 -0.0043139  0.0036294 
    4  1307     2  1.6008801 -0.0025237  0.0046869 
    4  1307     3  1.5958216 -0.0032080  0.0049035 
    4  1307     4  1.5998516 -0.0016536  0.0057662 
    4  1308     1  1.5933925 -0.0031679  0.0049387 
    4  1308     2  1.5940684 -0.0042524  0.0039873 
    4  1308     3  1.5968628 -0.0015824  0.0059216 
    4  1308     4  1.5975537 -0.0026786  0.0049591 
    4  1309     1  1.5789798 -0.0038437  0.0051073 
    4  1309     2  1.5797230 -0.0049478  0.0042650 
    4  1309     3  1.5822309 -0.0022319  0.0061284 
    4  1309     4  1.5829240 -0.0034009  0.0052411 
    4  1310     1  1.5748104 -0.0024562  0.0062579 
    4  1310     2  1.5714591 -0.0041606  0.0051736 
    4  1310     3  1.5756198 -0.0036808  0.0053834 
    4  1310     4  1.5722828 -0.0053385  0.0043312 
    4  1311     1  1.5786817 -0.0035358  0.0050205 
    4  1311     2  1.5780240 -0.0019405  0.0054850 
    4  1311     3  1.5761934 -0.0052168  0.0039535 
    4  1311     4  1.5756578 -0.0038269  0.0043650 
    4  1312     1  1.5832677 -0.0047731  0.0040696 
    4  1312     2  1.5856117 -0.0034383  0.0049317 
    4  1312     3  1.5826288 -0.0036638  0.0045761 
    4  1312     4  1.5851724 -0.0021866  0.0055261 
    4  1313     1  1.5976153 -0.0036630  0.0048962 
    4  1313     2  1.5981603 -0.0038078  0.0031375 
    4  1313     3  1.6029760 -0.0020130  0.0052620 
    4  1313     4  1.6026907 -0.0023906  0.0035777 
    4  1314     1  1.5942363 -0.0022463  0.0055243 
    4  1314     2  1.5903097 -0.0036085  0.0049049 
    4  1314     3  1.5947477 -0.0028635  0.0043222 
    4  1314     4  1.5909991 -0.0042164  0.0036462 
    4  1315     1  1.5963643 -0.0025900  0.0037212 
    4  1315     2  1.5958558 -0.0020170  0.0051602 
    4  1315     3  1.5923851 -0.0039461  0.0031304 
    4  1315     4  1.5919635 -0.0034230  0.0044210 
    4  1316     1  1.5992066 -0.0036156  0.0030893 
    4  1316     2  1.6025558 -0.0025687  0.0033712 
    4  1316     3  1.5988876 -0.0032325  0.0043152 
    4  1316     4  1.6026914 -0.0020370  0.0046525 
    4  1317     1  1.5854933 -0.0042174  0.0037444 
    4  1317     2  1.5901000 -0.0028416  0.0038553 
    4  1317     3  1.5862958 -0.0040465  0.0053077 
    4  1317     4  1.5897568 -0.0029990  0.0050795 
    4  1318     1  1.5847747 -0.0037250  0.0045082 
    4  1318     2  1.5858275 -0.0045100  0.0038595 
    4  1318     3  1.5877407 -0.0024657  0.0052814 
    4  1318     4  1.5881765 -0.0033559  0.0045893 
    4  1319     1  1.5827775 -0.0020419  0.0042603 
    4  1319     2  1.5828973 -0.0037293  0.0043579 
    4  1319     3  1.5813279 -0.0038486  0.0051323 
    4  1319     4  1.5817422 -0.0047176  0.0050110 
    4  1320     1  1.5992417 -0.0034594  0.0042801 
    4  1320     2  1.5998354 -0.0033466  0.0030974 
    4  1320     3  1.6027359 -0.0024182  0.0041779 
    4  1320     4  1.6026250 -0.0025063  0.0031818 
    4  1321     1  1.5974794 -0.0018132  0.0040294 
    4  1321     2  1.5964565 -0.0032188  0.0033865 
    4  1321     3  1.5974719 -0.0031907  0.0039886 
    4  1321     4  1.5967156 -0.0038916  0.0035221 
    4  1322     1  1.5989218 -0.0031995  0.0036963 
    4  1322     2  1.6017080 -0.0020986  0.0030597 
    4  1322     3  1.5998271 -0.0038222  0.0043590 
    4  1322     4  1.6020507 -0.0028128  0.0037350 
    4  1323     1  1.5949516 -0.0028380  0.0037516 
    4  1323     2  1.5921355 -0.0043260  0.0047046 
    4  1323     3  1.5942143 -0.0016020  0.0030030 
    4  1323     4  1.5915793 -0.0032610  0.0040584 
    4  1324     1  1.5926852 -0.0020529  0.0025812 
    4  1324     2  1.5932876 -0.0029676  0.0036248 
    4  1324     3  1.5892442 -0.0035043  0.0034450 
    4  1324     4  1.5898338 -0.0043882  0.0044549 
    4  1325     1  1.5956398 -0.0032675  0.0032980 
    4  1325     2  1.5988625 -0.0018960  0.0024767 
    4  1325     3  1.5961501 -0.0041022  0.0042381 
    4  1325     4  1.5993188 -0.0027982  0.0034758 
    4  1326     1  1.5983744 -0.0039915  0.0042979 
    4  1326     2  1.5978588 -0.0030946  0.0037221 
    4  1326     3  1.6006521 -0.0028562  0.0035726 
    4  1326     4  1.6003237 -0.0018223  0.0029093 
    4  1327     1  1.5826424 -0.0038001  0.0036112 
    4  1327     2  1.5861898 -0.0023836  0.0028026 
    4  1327     3  1.5832126 -0.0046164  0.0047218 
    4  1327     4  1.5868553 -0.0031923  0.0039276 
    4  1328     1  1.5854019 -0.0047296  0.0050113 
    4  1328     2  1.5847652 -0.0035434  0.0039248 
    4  1328     3  1.5890993 -0.0031562  0.0040642 
    4  1328     4  1.5883005 -0.0021355  0.0031020 
    4  1329     1  1.5817631 -0.0031976  0.0046724 
    4  1329     2  1.5770501 -0.0048251  0.0054102 
    4  1329     3  1.5809406 -0.0026123  0.0031128 
    4  1329     4  1.5767258 -0.0041523  0.0039369 
    4  1330     1  1.5797760 -0.0027689  0.0029734 
    4  1330     2  1.5804111 -0.0033668  0.0042056 
    4  1330     3  1.5758619 -0.0041288  0.0035943 
    4  1330     4  1.5764081 -0.0047987  0.0049073 
    4  1331     1  1.5789044 -0.0035430  0.0039847 
    4  1331     2  1.5752591 -0.0049565  0.0047657 
    4  1331     3  1.5784497 -0.0026521  0.0028471 
    4  1331     4  1.5747292 -0.0040867  0.0036349 
    4  1332     1  1.5772132 -0.0027352  0.0025711 
    4  1332     2  1.5776342 -0.0036260  0.0037377 
    4  1332     3  1.5734422 -0.0041866  0.0033660 
    4  1332     4  1.5739165 -0.0050446  0.0045068 
    4  1333     1  1.5800249 -0.0038949  0.0031094 
    4  1333     2  1.5838808 -0.0024420  0.0023353 
    4  1333     3  1.5804337 -0.0047369  0.0043010 
    4  1333     4  1.5842493 -0.0033120  0.0035513 
    4  1334     1  1.5816580 -0.0046797  0.0045140 
    4  1334     2  1.5812001 -0.0038357  0.0033407 
    4  1334     3  1.5854099 -0.0032507  0.0037415 
    4  1334     4  1.5849562 -0.0023961  0.0025561 
    4  1335     1  1.5665770 -0.0045754  0.0034746 
    4  1335     2  1.5703914 -0.0031197  0.0026834 
    4  1335     3  1.5671482 -0.0053367  0.0046639 
    4  1335     4  1.5709596 -0.0039028  0.0039008 
    4  1336     1  1.5694517 -0.0052876  0.0049249 
    4  1336     2  1.5688884 -0.0042856  0.0040811 
    4  1336     3  1.5724253 -0.0039898  0.0041302 
    4  1336     4  1.5720060 -0.0028887  0.0032190 
    4  1337     1  1.5657783 -0.0039303  0.0044651 
    4  1337     2  1.5613239 -0.0056196  0.0053738 
    4  1337     3  1.5648409 -0.0030685  0.0030701 
    4  1337     4  1.5609264 -0.0046986  0.0040584 
    4  1338     1  1.5636374 -0.0034646  0.0028761 
    4  1338     2  1.5642610 -0.0041060  0.0041100 
    4  1338     3  1.5596788 -0.0048771  0.0035626 
    4  1338     4  1.5602917 -0.0055519  0.0048443 
    4  1339     1  1.5627204 -0.0042693  0.0038684 
    4  1339     2  1.5590089 -0.0057397  0.0046998 
    4  1339     3  1.5622172 -0.0033322  0.0027276 
    4  1339     4  1.5583849 -0.0048392  0.0035735 
    4  1340     1  1.5607164 -0.0034062  0.0024126 
    4  1340     2  1.5612362 -0.0043564  0.0035841 
    4  1340     3  1.5567910 -0.0049595  0.0032897 
    4  1340     4  1.5574191 -0.0058604  0.0044298 
    4  1341     1  1.5637978 -0.0046564  0.0029599 
    4  1341     2  1.5679871 -0.0030954  0.0021414 
    4  1341     3  1.5643173 -0.0055016  0.0042258 
    4  1341     4  1.5683977 -0.0039881  0.0034377 
    4  1342     1  1.5656546 -0.0054079  0.0044510 
    4  1342     2  1.5651367 -0.0045818  0.0032127 
    4  1342     3  1.5696034 -0.0039319  0.0036735 
    4  1342     4  1.5691624 -0.0030724  0.0024140 
    4  1343     1  1.5764942 -0.0036416  0.0035104 
    4  1343     2  1.5724802 -0.0051090  0.0042566 
    4  1343     3  1.5761472 -0.0027893  0.0022234 
    4  1343     4  1.5720794 -0.0042901  0.0029984 
    4  1344     1  1.5752542 -0.0028093  0.0019290 
    4  1344     2  1.5755317 -0.0036575  0.0032928 
    4  1344     3  1.5709538 -0.0043509  0.0026847 
    4  1344     4  1.5713264 -0.0051491  0.0040083 
    4  1345     1  1.5781019 -0.0040381  0.0024693 
    4  1345     2  1.5823872 -0.0025404  0.0017753 
    4  1345     3  1.5783357 -0.0048011  0.0038138 
    4  1345     4  1.5825526 -0.0033463  0.0031621 
    4  1346     1  1.5792884 -0.0047954  0.0040700 
    4  1346     2  1.5789862 -0.0039672  0.0028043 
    4  1346     3  1.5832898 -0.0033531  0.0033550 
    4  1346     4  1.5830414 -0.0024890  0.0020565 
    4  1347     1  1.5747478 -0.0036616  0.0030847 
    4  1347     2  1.5702862 -0.0051840  0.0037452 
    4  1347     3  1.5745852 -0.0028398  0.0016054 
    4  1347     4  1.5699796 -0.0044298  0.0023187 
    4  1348     1  1.5743635 -0.0027400  0.0013142 
    4  1348     2  1.5742040 -0.0034949  0.0032050 
    4  1348     3  1.5688230 -0.0045086  0.0018761 
    4  1348     4  1.5690846 -0.0050449  0.0034998 
    4  1349     1  1.5775507 -0.0041082  0.0016212 
    4  1349     2  1.5820460 -0.0027077  0.0012651 
    4  1349     3  1.5773435 -0.0045533  0.0030811 
    4  1349     4  1.5818818 -0.0031554  0.0027821 
    4  1350     1  1.5775480 -0.0047993  0.0035560 
    4  1350     2  1.5774403 -0.0041016  0.0021149 
    4  1350     3  1.5820390 -0.0033323  0.0030171 
    4  1350     4  1.5820206 -0.0025742  0.0015033 
    4  1351     1  1.5609459 -0.0049784  0.0022719 
    4  1351     2  1.5659090 -0.0031119  0.0012797 
    4  1351     3  1.5617062 -0.0059322  0.0037381 
    4  1351     4  1.5662045 -0.0041363  0.0027029 
    4  1352     1  1.5629208 -0.0056383  0.0039994 
    4  1352     2  1.5623988 -0.0047719  0.0026411 
    4  1352     3  1.5672822 -0.0040497  0.0031968 
    4  1352     4  1.5669243 -0.0031131  0.0017938 
    4  1353     1  1.5596877 -0.0043746  0.0032736 
    4  1353     2  1.5555949 -0.0059691  0.0041598 
    4  1353     3  1.5591361 -0.0034644  0.0020221 
    4  1353     4  1.5549225 -0.0050952  0.0029214 
    4  1354     1  1.5570039 -0.0035050  0.0016959 
    4  1354     2  1.5576454 -0.0045314  0.0027859 
    4  1354     3  1.5530753 -0.0051259  0.0026469 
    4  1354     4  1.5537184 -0.0061616  0.0037462 
    4  1355     1  1.5899820 -0.0030687  0.0031842 
    4  1355     2  1.5859744 -0.0044936  0.0038712 
    4  1355     3  1.5897941 -0.0022294  0.0018826 
    4  1355     4  1.5857545 -0.0036827  0.0026001 
    4  1356     1  1.5893016 -0.0022805  0.0016326 
    4  1356     2  1.5893858 -0.0030727  0.0030020 
    4  1356     3  1.5851057 -0.0037320  0.0022876 
    4  1356     4  1.5852297 -0.0044923  0.0036201 
    4  1357     1  1.5918993 -0.0034389  0.0021225 
    4  1357     2  1.5959673 -0.0020383  0.0014986 
    4  1357     3  1.5919609 -0.0041816  0.0034283 
    4  1357     4  1.5960050 -0.0028045  0.0028344 
    4  1358     1  1.5925805 -0.0042089  0.0036740 
    4  1358     2  1.5924196 -0.0034117  0.0024171 
    4  1358     3  1.5965036 -0.0028223  0.0030141 
    4  1358     4  1.5963752 -0.0019980  0.0017283 
    4  1359     1  1.5890083 -0.0030138  0.0028095 
    4  1359     2  1.5847438 -0.0044052  0.0033151 
    4  1359     3  1.5890285 -0.0023399  0.0013912 
    4  1359     4  1.5847502 -0.0037536  0.0019364 
    4  1360     1  1.5890298 -0.0023826  0.0011722 
    4  1360     2  1.5888645 -0.0029887  0.0026262 
    4  1360     3  1.5846879 -0.0037682  0.0016115 
    4  1360     4  1.5845047 -0.0043658  0.0030306 
    4  1361     1  1.5915433 -0.0034783  0.0015373 
    4  1361     2  1.5957116 -0.0021314  0.0010738 
    4  1361     3  1.5913817 -0.0041062  0.0028998 
    4  1361     4  1.5955594 -0.0027677  0.0024619 
    4  1362     1  1.5915541 -0.0041406  0.0031690 
    4  1362     2  1.5915919 -0.0034620  0.0018277 
    4  1362     3  1.5956910 -0.0027788  0.0026522 
    4  1362     4  1.5957360 -0.0020839  0.0012819 
    4  1363     1  1.6028605 -0.0025766  0.0028619 
    4  1363     2  1.5990066 -0.0039270  0.0034918 
    4  1363     3  1.6027685 -0.0017845  0.0015960 
    4  1363     4  1.5988947 -0.0031552  0.0022498 
    4  1364     1  1.6024160 -0.0018176  0.0013793 
    4  1364     2  1.6024281 -0.0025692  0.0026853 
    4  1364     3  1.5984578 -0.0031763  0.0019791 
    4  1364     4  1.5984818 -0.0039119  0.0032627 
    4  1365     1  1.6048261 -0.0029288  0.0018511 
    4  1365     2  1.6086956 -0.0015978  0.0012600 
    4  1365     3  1.6048267 -0.0036667  0.0031114 
    4  1365     4  1.6086862 -0.0023496  0.0025396 
    4  1366     1  1.6052866 -0.0036788  0.0033280 
    4  1366     2  1.6052109 -0.0029105  0.0020991 
    4  1366     3  1.6090683 -0.0023557  0.0027131 
    4  1366     4  1.6090108 -0.0015713  0.0014661 
    4  1367     1  1.6021476 -0.0025525  0.0025049 
    4  1367     2  1.5981458 -0.0038766  0.0030190 
    4  1367     3  1.6021996 -0.0018600  0.0011772 
    4  1367     4  1.5981964 -0.0031960  0.0017138 
    4  1368     1  1.6021398 -0.0019049  0.0009757 
    4  1368     2  1.6020078 -0.0025489  0.0023192 
    4  1368     3  1.5981232 -0.0032129  0.0014461 
    4  1368     4  1.5979775 -0.0038521  0.0027704 
    4  1369     1  1.6044836 -0.0029715  0.0013568 
    4  1369     2  1.6084128 -0.0016838  0.0008788 
    4  1369     3  1.6043566 -0.0036123  0.0026474 
    4  1369     4  1.6082876 -0.0023327  0.0021876 
    4  1370     1  1.6045245 -0.0036361  0.0028801 
    4  1370     2  1.6045805 -0.0029513  0.0016062 
    4  1370     3  1.6084295 -0.0023366  0.0023636 
    4  1370     4  1.6084857 -0.0016416  0.0010702 
    4  1371     1  1.6145540 -0.0021273  0.0022405 
    4  1371     2  1.6107497 -0.0033909  0.0027389 
    4  1371     3  1.6146036 -0.0014585  0.0009761 
    4  1371     4  1.6108001 -0.0027303  0.0014907 
    4  1372     1  1.6145057 -0.0014979  0.0007940 
    4  1372     2  1.6144008 -0.0021258  0.0020721 
    4  1372     3  1.6106933 -0.0027474  0.0012580 
    4  1372     4  1.6105781 -0.0033714  0.0025219 
    4  1373     1  1.6167380 -0.0025394  0.0011698 
    4  1373     2  1.6204836 -0.0013091  0.0007080 
    4  1373     3  1.6166411 -0.0031513  0.0024073 
    4  1373     4  1.6203915 -0.0019265  0.0019601 
    4  1374     1  1.6168183 -0.0031738  0.0026107 
    4  1374     2  1.6168658 -0.0025212  0.0013864 
    4  1374     3  1.6205553 -0.0019298  0.0021155 
    4  1374     4  1.6205988 -0.0012707  0.0008769 
    4  1375     1  1.6170982 -0.0024960  0.0015956 
    4  1375     2  1.6208142 -0.0012253  0.0010409 
    4  1375     3  1.6170903 -0.0031986  0.0028200 
    4  1375     4  1.6208051 -0.0019364  0.0022795 
    4  1376     1  1.6174764 -0.0032091  0.0030136 
    4  1376     2  1.6174288 -0.0024789  0.0018036 
    4  1376     3  1.6211587 -0.0019340  0.0024366 
    4  1376     4  1.6211103 -0.0011980  0.0012169 
    4  1377     1  1.6151648 -0.0021293  0.0025815 
    4  1377     2  1.6114303 -0.0034198  0.0031623 
    4  1377     3  1.6151123 -0.0013888  0.0013455 
    4  1377     4  1.6113715 -0.0026894  0.0019402 
    4  1378     1  1.6148125 -0.0014203  0.0011540 
    4  1378     2  1.6148066 -0.0021359  0.0024120 
    4  1378     3  1.6110321 -0.0027098  0.0017127 
    4  1378     4  1.6110264 -0.0034179  0.0029574 
    4  1379     1  1.6267028 -0.0010854  0.0009470 
    4  1379     2  1.6267218 -0.0017394  0.0021654 
    4  1379     3  1.6230525 -0.0023186  0.0014647 
    4  1379     4  1.6230596 -0.0029709  0.0026742 
    4  1380     1  1.6289171 -0.0021317  0.0013629 
    4  1380     2  1.6325115 -0.0009114  0.0008420 
    4  1380     3  1.6289384 -0.0027773  0.0025484 
    4  1380     4  1.6325378 -0.0015628  0.0020403 
    4  1381     1  1.6293424 -0.0027909  0.0027213 
    4  1381     2  1.6292701 -0.0021166  0.0015446 
    4  1381     3  1.6329280 -0.0015587  0.0021754 
    4  1381     4  1.6328426 -0.0008826  0.0009901 
    4  1382     1  1.6270907 -0.0017265  0.0023163 
    4  1382     2  1.6234442 -0.0029714  0.0028571 
    4  1382     3  1.6270186 -0.0010501  0.0011083 
    4  1382     4  1.6233795 -0.0022989  0.0016591 
    4  1383     1  1.6286405 -0.0027563  0.0023617 
    4  1383     2  1.6286633 -0.0021558  0.0011799 
    4  1383     3  1.6322569 -0.0015590  0.0018959 
    4  1383     4  1.6322737 -0.0009535  0.0007012 
    4  1384     1  1.6264513 -0.0017359  0.0020096 
    4  1384     2  1.6227858 -0.0029480  0.0024786 
    4  1384     3  1.6264779 -0.0011191  0.0007933 
    4  1384     4  1.6228165 -0.0023365  0.0012751 
    4  1385     1  1.6263342 -0.0011562  0.0006349 
    4  1385     2  1.6262697 -0.0017352  0.0018613 
    4  1385     3  1.6226722 -0.0023532  0.0010735 
    4  1385     4  1.6225957 -0.0029300  0.0022880 
    4  1386     1  1.6284975 -0.0021757  0.0009909 
    4  1386     2  1.6321183 -0.0009912  0.0005551 
    4  1386     3  1.6284407 -0.0027368  0.0021827 
    4  1386     4  1.6320647 -0.0015572  0.0017597 
    4  1387     1  1.6380007 -0.0013825  0.0018010 
    4  1387     2  1.6344294 -0.0025540  0.0022380 
    4  1387     3  1.6379981 -0.0008264  0.0006261 
    4  1387     4  1.6344311 -0.0020023  0.0010747 
    4  1388     1  1.6378199 -0.0008606  0.0004897 
    4  1388     2  1.6377918 -0.0013793  0.0016736 
    4  1388     3  1.6342512 -0.0020187  0.0008982 
    4  1388     4  1.6342137 -0.0025351  0.0020706 
    4  1389     1  1.6399399 -0.0018648  0.0008215 
    4  1389     2  1.6434816 -0.0007161  0.0004178 
    4  1389     3  1.6399179 -0.0023636  0.0019736 
    4  1389     4  1.6434604 -0.0012201  0.0015824 
    4  1390     1  1.6401407 -0.0023837  0.0021306 
    4  1390     2  1.6401357 -0.0018436  0.0009882 
    4  1390     3  1.6436717 -0.0012249  0.0016975 
    4  1390     4  1.6436642 -0.0006791  0.0005416 
    4  1391     1  1.6493103 -0.0010639  0.0016138 
    4  1391     2  1.6458014 -0.0022031  0.0020166 
    4  1391     3  1.6492909 -0.0005685  0.0004761 
    4  1391     4  1.6457812 -0.0017137  0.0008920 
    4  1392     1  1.6490989 -0.0006027  0.0003600 
    4  1392     2  1.6490962 -0.0010584  0.0015065 
    4  1392     3  1.6455816 -0.0017326  0.0007351 
    4  1392     4  1.6455743 -0.0021851  0.0018700 
    4  1393     1  1.6511919 -0.0015971  0.0006640 
    4  1393     2  1.6546921 -0.0004754  0.0002976 
    4  1393     3  1.6511936 -0.0020294  0.0017800 
    4  1393     4  1.6546916 -0.0009133  0.0014266 
    4  1394     1  1.6514177 -0.0020507  0.0019181 
    4  1394     2  1.6513966 -0.0015786  0.0008116 
    4  1394     3  1.6549009 -0.0009225  0.0015244 
    4  1394     4  1.6548804 -0.0004447  0.0004052 
    4  1395     1  1.6516807 -0.0015565  0.0009566 
    4  1395     2  1.6551266 -0.0004144  0.0005102 
    4  1395     3  1.6517697 -0.0020563  0.0020600 
    4  1395     4  1.6552099 -0.0009234  0.0016298 
    4  1396     1  1.6522264 -0.0020753  0.0021924 
    4  1396     2  1.6520943 -0.0015417  0.0011029 
    4  1396     3  1.6556322 -0.0009310  0.0017211 
    4  1396     4  1.6554978 -0.0003919  0.0006200 
    4  1397     1  1.6500620 -0.0010619  0.0018283 
    4  1397     2  1.6466032 -0.0022247  0.0023083 
    4  1397     3  1.6499277 -0.0005074  0.0007046 
    4  1397     4  1.6464719 -0.0016769  0.0011989 
    4  1398     1  1.6495437 -0.0005418  0.0005882 
    4  1398     2  1.6496341 -0.0010645  0.0017274 
    4  1398     3  1.6460660 -0.0016956  0.0010410 
    4  1398     4  1.6461497 -0.0022142  0.0021678 
    4  1399     1  1.6606980 -0.0003316  0.0004505 
    4  1399     2  1.6608010 -0.0007701  0.0015524 
    4  1399     3  1.6572432 -0.0014557  0.0008532 
    4  1399     4  1.6573413 -0.0018913  0.0019447 
    4  1400     1  1.6628139 -0.0013263  0.0007761 
    4  1400     2  1.6662409 -0.0002107  0.0003757 
    4  1400     3  1.6629140 -0.0017551  0.0018500 
    4  1400     4  1.6663381 -0.0006454  0.0014615 
    4  1401     1  1.6633322 -0.0017614  0.0019665 
    4  1401     2  1.6631975 -0.0013072  0.0009045 
    4  1401     3  1.6667261 -0.0006455  0.0015458 
    4  1401     4  1.6665921 -0.0001862  0.0004732 
    4  1402     1  1.6612031 -0.0007681  0.0016450 
    4  1402     2  1.6577855 -0.0018929  0.0020708 
    4  1402     3  1.6610622 -0.0002983  0.0005549 
    4  1402     4  1.6576378 -0.0014318  0.0009955 
    4  1403     1  1.6625745 -0.0017533  0.0017270 
    4  1403     2  1.6625427 -0.0013414  0.0006514 
    4  1403     3  1.6660376 -0.0006455  0.0013699 
    4  1403     4  1.6660089 -0.0002280  0.0002819 
    4  1404     1  1.6604883 -0.0007735  0.0014518 
    4  1404     2  1.6570043 -0.0018896  0.0018154 
    4  1404     3  1.6604562 -0.0003455  0.0003486 
    4  1404     4  1.6569721 -0.0014660  0.0007232 
    4  1405     1  1.6602662 -0.0003733  0.0002469 
    4  1405     2  1.6602789 -0.0007667  0.0013585 
    4  1405     3  1.6567726 -0.0014827  0.0005857 
    4  1405     4  1.6567831 -0.0018728  0.0016861 
    4  1406     1  1.6623443 -0.0013614  0.0005210 
    4  1406     2  1.6658275 -0.0002576  0.0001896 
    4  1406     3  1.6623593 -0.0017355  0.0016046 
    4  1406     4  1.6658398 -0.0006367  0.0012853 
    4  1407     1  1.6716070 -0.0005115  0.0013005 
    4  1407     2  1.6681257 -0.0016150  0.0016324 
    4  1407     3  1.6715677 -0.0001375  0.0002271 
    4  1407     4  1.6680874 -0.0012441  0.0005686 
    4  1408     1  1.6713863 -0.0001618  0.0001411 
    4  1408     2  1.6714086 -0.0005045  0.0012210 
    4  1408     3  1.6678980 -0.0012593  0.0004500 
    4  1408     4  1.6679186 -0.0015990  0.0015192 
    4  1409     1  1.6734584 -0.0011520  0.0003903 
    4  1409     2  1.6769393 -0.0000579  0.0000854 
    4  1409     3  1.6734817 -0.0014817  0.0014448 
    4  1409     4  1.6769616 -0.0003913  0.0011503 
    4  1410     1  1.6736847 -0.0014962  0.0015508 
    4  1410     2  1.6736463 -0.0011336  0.0005019 
    4  1410     3  1.6771501 -0.0003986  0.0012228 
    4  1410     4  1.6771146 -0.0000313  0.0001627 
    4  1411     1  1.6825003  0.0000288  0.0000376 
    4  1411     2  1.6825317 -0.0002748  0.0010886 
    4  1411     3  1.6790070 -0.0010631  0.0003245 
    4  1411     4  1.6790363 -0.0013645  0.0013663 
    4  1412     1  1.6845721 -0.0009701  0.0002682 
    4  1412     2  1.6880649  0.0001206 -0.0000155 
    4  1412     3  1.6846038 -0.0012622  0.0012966 
    4  1412     4  1.6880937 -0.0001752  0.0010229 
    4  1413     1  1.6848011 -0.0012757  0.0013873 
    4  1413     2  1.6847556 -0.0009520  0.0003634 
    4  1413     3  1.6882742 -0.0001836  0.0010815 
    4  1413     4  1.6882333  0.0001450  0.0000466 
    4  1414     1  1.6827253 -0.0002805  0.0011559 
    4  1414     2  1.6792338 -0.0013783  0.0014630 
    4  1414     3  1.6826778  0.0000488  0.0001093 
    4  1414     4  1.6791895 -0.0010508  0.0004246 
    4  1415     1  1.6738994 -0.0011220  0.0006061 
    4  1415     2  1.6773333 -0.0000188  0.0002395 
    4  1415     3  1.6740062 -0.0014944  0.0016550 
    4  1415     4  1.6774375 -0.0003962  0.0012992 
    4  1416     1  1.6744005 -0.0014999  0.0017545 
    4  1416     2  1.6742607 -0.0011050  0.0007127 
    4  1416     3  1.6778085 -0.0003959  0.0013689 
    4  1416     4  1.6776690  3.27e-006  0.0003171 
    4  1417     1  1.6722843 -0.0005026  0.0014645 
    4  1417     2  1.6688543 -0.0016136  0.0018525 
    4  1417     3  1.6721403 -0.0000978  0.0003997 
    4  1417     4  1.6687092 -0.0012135  0.0007981 
    4  1418     1  1.6717940 -0.0001235  0.0003130 
    4  1418     2  1.6719045 -0.0005044  0.0013869 
    4  1418     3  1.6683412 -0.0012324  0.0006808 
    4  1418     4  1.6684497 -0.0016099  0.0017444 
    4  1419     1  1.6828959  0.0000590  0.0001804 
    4  1419     2  1.6830107 -0.0002723  0.0012286 
    4  1419     3  1.6794294 -0.0010426  0.0005191 
    4  1419     4  1.6795427 -0.0013709  0.0015575 
    4  1420     1  1.6849984 -0.0009452  0.0004511 
    4  1420     2  1.6884417  0.0001506  0.0001104 
    4  1420     3  1.6851086 -0.0012738  0.0014755 
    4  1420     4  1.6885509 -0.0001818  0.0011446 
    4  1421     1  1.6854928 -0.0012765  0.0015608 
    4  1421     2  1.6853463 -0.0009267  0.0005440 
    4  1421     3  1.6889055 -0.0001819  0.0012013 
    4  1421     4  1.6887617  0.0001728  0.0001736 
    4  1422     1  1.6833811 -0.0002720  0.0012929 
    4  1422     2  1.6799320 -0.0013755  0.0016495 
    4  1422     3  1.6832273  0.0000756  0.0002518 
    4  1422     4  1.6797813 -0.0010302  0.0006170 
    4  1423     1  1.6747253 -0.0010958  0.0008077 
    4  1423     2  1.6780836  7.28e-006  0.0003926 
    4  1423     3  1.6749733 -0.0014772  0.0018447 
    4  1423     4  1.6783288 -0.0003795  0.0014405 
    4  1424     1  1.6756417 -0.0014774  0.0019298 
    4  1424     2  1.6753522 -0.0010833  0.0009020 
    4  1424     3  1.6789707 -0.0003751  0.0015003 
    4  1424     4  1.6786804  0.0000227  0.0004640 
    4  1425     1  1.6734526 -0.0004732  0.0016123 
    4  1425     2  1.6701038 -0.0015845  0.0020494 
    4  1425     3  1.6731578 -0.0000619  0.0005629 
    4  1425     4  1.6698093 -0.0011787  0.0010119 
    4  1426     1  1.6725602 -0.0000864  0.0004862 
    4  1426     2  1.6728144 -0.0004827  0.0015453 
    4  1426     3  1.6691851 -0.0011965  0.0009063 
    4  1426     4  1.6694398 -0.0015879  0.0019545 
    4  1427     1  1.6836403  0.0000754  0.0003251 
    4  1427     2  1.6838965 -0.0002553  0.0013623 
    4  1427     3  1.6802398 -0.0010246  0.0007073 
    4  1427     4  1.6804933 -0.0013524  0.0017352 
    4  1428     1  1.6858008 -0.0009211  0.0006306 
    4  1428     2  1.6891582  0.0001693  0.0002429 
    4  1428     3  1.6860470 -0.0012573  0.0016422 
    4  1428     4  1.6894072 -0.0001698  0.0012637 
    4  1429     1  1.6867041 -0.0012494  0.0017243 
    4  1429     2  1.6864121 -0.0008914  0.0007242 
    4  1429     3  1.6900234 -0.0001609  0.0013183 
    4  1429     4  1.6897256  0.0001990  0.0003104 
    4  1430     1  1.6845308 -0.0002524  0.0014262 
    4  1430     2  1.6811662 -0.0013484  0.0018216 
    4  1430     3  1.6842264  0.0000863  0.0004030 
    4  1430     4  1.6808663 -0.0010111  0.0008049 
    4  1431     1  1.6761737 -0.0010910  0.0010324 
    4  1431     2  1.6793458 -0.0000181  0.0005747 
    4  1431     3  1.6766138 -0.0014247  0.0020091 
    4  1431     4  1.6797525 -0.0003752  0.0015823 
    4  1432     1  1.6780608 -0.0013794  0.0020522 
    4  1432     2  1.6775645 -0.0009781  0.0012971 
    4  1432     3  1.6805531 -0.0004854  0.0016133 
    4  1432     4  1.6802654 -1.77e-006  0.0008106 
    4  1433     1  1.6753724 -0.0003848  0.0016630 
    4  1433     2  1.6723191 -0.0015283  0.0022680 
    4  1433     3  1.6746722  0.0001735  0.0006756 
    4  1433     4  1.6718112 -0.0010277  0.0014206 
    4  1434     1  1.6738633 -0.0000751  0.0006064 
    4  1434     2  1.6743440 -0.0004438  0.0016579 
    4  1434     3  1.6705572 -0.0011915  0.0010783 
    4  1434     4  1.6710124 -0.0015613  0.0021175 
    4  1435     1  1.6849459  0.0001284  0.0004949 
    4  1435     2  1.6853315 -0.0002154  0.0014996 
    4  1435     3  1.6816221 -0.0009571  0.0008910 
    4  1435     4  1.6820177 -0.0013036  0.0019078 
    4  1436     1  1.6871173 -0.0008948  0.0007838 
    4  1436     2  1.6903877  0.0001840  0.0003682 
    4  1436     3  1.6875235 -0.0012124  0.0017929 
    4  1436     4  1.6908340 -0.0001232  0.0013791 
    4  1437     1  1.6882374 -0.0013133  0.0018426 
    4  1437     2  1.6879029 -0.0009425  0.0006078 
    4  1437     3  1.6921885 -0.0000427  0.0014169 
    4  1437     4  1.6915435  0.0001839  0.0003335 
    4  1438     1  1.6859146 -0.0002084  0.0016837 
    4  1438     2  1.6826256 -0.0012349  0.0019587 
    4  1438     3  1.6856816 -0.0000428  0.0006605 
    4  1438     4  1.6822537 -0.0010996  0.0008907 
    4  1439     1  1.6766183  0.0000679  0.0014657 
    4  1439     2  1.6763822 -0.0009112  0.0012407 
    4  1439     3  1.6762518 -0.0009550  0.0017598 
    4  1439     4  1.6761685 -0.0014290  0.0015145 
    4  1440     1  1.6780664 -0.0011464  0.0011800 
    4  1440     2  1.6810061 -0.0002391  0.0009520 
    4  1440     3  1.6788279 -0.0013030  0.0020303 
    4  1440     4  1.6811717 -0.0005227  0.0017164 
    4  1441     1  1.6780245 -0.0011003  0.0016501 
    4  1441     2  1.6787927 -0.0012654  0.0008732 
    4  1441     3  1.6807453 -0.0002436  0.0019083 
    4  1441     4  1.6809914 -0.0005146  0.0012040 
    4  1442     1  1.6860291 -0.0001695  0.0007486 
    4  1442     2  1.6860430 -0.0002346  0.0017460 
    4  1442     3  1.6827173 -0.0011615  0.0007576 
    4  1442     4  1.6828395 -0.0012002  0.0018421 
    4  1443     1  1.6882477 -0.0012397  0.0005838 
    4  1443     2  1.6922272 -0.0000214  0.0008140 
    4  1443     3  1.6881199 -0.0010280  0.0018567 
    4  1443     4  1.6916590  0.0000309  0.0019356 
    4  1444     1  1.6874155 -0.0009516  0.0017117 
    4  1444     2  1.6877377 -0.0011295  0.0006905 
    4  1444     3  1.6904999  0.0000139  0.0019732 
    4  1444     4  1.6908882 -0.0001387  0.0009748 
    4  1445     1  1.6855148 -0.0001124  0.0020241 
    4  1445     2  1.6824255 -0.0010553  0.0018608 
    4  1445     3  1.6857995 -0.0002175  0.0010793 
    4  1445     4  1.6827097 -0.0011760  0.0008380 
    4  1446     1  1.6751532 -0.0004048  0.0014380 
    4  1446     2  1.6744914  0.0001193  0.0024078 
    4  1446     3  1.6722203 -0.0014866  0.0008788 
    4  1446     4  1.6717843 -0.0009968  0.0017239 
    4  1447     1  1.6778032 -0.0013599  0.0009057 
    4  1447     2  1.6800633 -0.0005169  0.0013490 
    4  1447     3  1.6773613 -0.0008975  0.0015975 
    4  1447     4  1.6797844  0.0000201  0.0020898 
    4  1448     1  1.6757868 -0.0010611  0.0019329 
    4  1448     2  1.6761756 -0.0014244  0.0010070 
    4  1448     3  1.6786936 -0.0000612  0.0023817 
    4  1448     4  1.6790644 -0.0004433  0.0014280 
    4  1449     1  1.6735684 -0.0001560  0.0025342 
    4  1449     2  1.6704950 -0.0011827  0.0021168 
    4  1449     3  1.6739997 -0.0004905  0.0015266 
    4  1449     4  1.6708743 -0.0015323  0.0011073 
    4  1450     1  1.6849648 -0.0002952  0.0011913 
    4  1450     2  1.6846961  0.0000540  0.0021248 
    4  1450     3  1.6820457 -0.0012645  0.0008082 
    4  1450     4  1.6817022 -0.0009294  0.0017557 
    4  1451     1  1.6869520 -0.0011767  0.0007477 
    4  1451     2  1.6900106 -0.0001882  0.0010909 
    4  1451     3  1.6866665 -0.0008856  0.0017509 
    4  1451     4  1.6897366  0.0001014  0.0020812 
    4  1452     1  1.6859031 -0.0008714  0.0018024 
    4  1452     2  1.6861791 -0.0012200  0.0008019 
    4  1452     3  1.6889951  0.0001410  0.0021777 
    4  1452     4  1.6892381 -0.0002166  0.0011775 
    4  1453     1  1.6838633  0.0000755  0.0022429 
    4  1453     2  1.6808812 -0.0009312  0.0018208 
    4  1453     3  1.6841317 -0.0003376  0.0012984 
    4  1453     4  1.6812086 -0.0013241  0.0008852 
    4  1454     1  1.6729746 -0.0005372  0.0016205 
    4  1454     2  1.6727102 -0.0001197  0.0026310 
    4  1454     3  1.6699010 -0.0015702  0.0011929 
    4  1454     4  1.6696297 -0.0011537  0.0022052 
    4  1455     1  1.6750540 -0.0014850  0.0010927 
    4  1455     2  1.6781317 -0.0004522  0.0015177 
    4  1455     3  1.6747971 -0.0010661  0.0021085 
    4  1455     4  1.6778937 -0.0000252  0.0025396 
    4  1456     1  1.6739796 -0.0010644  0.0022118 
    4  1456     2  1.6742205 -0.0015046  0.0011884 
    4  1456     3  1.6771095 -0.0000118  0.0026480 
    4  1456     4  1.6773277 -0.0004593  0.0016219 
    4  1457     1  1.6718887 -0.0001088  0.0027368 
    4  1457     2  1.6688048 -0.0011535  0.0022933 
    4  1457     3  1.6721329 -0.0005599  0.0017333 
    4  1457     4  1.6690671 -0.0016009  0.0012878 
    4  1458     1  1.6833227 -0.0003531  0.0013939 
    4  1458     2  1.6831199  0.0000801  0.0024134 
    4  1458     3  1.6802080 -0.0013937  0.0009733 
    4  1458     4  1.6799865 -0.0009689  0.0019859 
    4  1459     1  1.6853884 -0.0012868  0.0008676 
    4  1459     2  1.6885182 -0.0002533  0.0012656 
    4  1459     3  1.6851950 -0.0008704  0.0018982 
    4  1459     4  1.6883561  0.0001735  0.0023003 
    4  1460     1  1.6845046 -0.0008917  0.0020142 
    4  1460     2  1.6846740 -0.0013140  0.0009557 
    4  1460     3  1.6877371  0.0001731  0.0024198 
    4  1460     4  1.6878797 -0.0002585  0.0013571 
    4  1461     1  1.6824195  0.0000885  0.0025400 
    4  1461     2  1.6792101 -0.0009808  0.0021123 
    4  1461     3  1.6825989 -0.0003535  0.0014956 
    4  1461     4  1.6794191 -0.0014124  0.0010729 
    4  1462     1  1.6713292 -0.0005892  0.0018469 
    4  1462     2  1.6711528 -0.0000730  0.0028726 
    4  1462     3  1.6682179 -0.0016560  0.0013768 
    4  1462     4  1.6680112 -0.0011490  0.0024003 
    4  1463     1  1.6734079 -0.0015536  0.0012695 
    4  1463     2  1.6765850 -0.0004794  0.0017227 
    4  1463     3  1.6732373 -0.0010601  0.0023212 
    4  1463     4  1.6764432  0.0000232  0.0027769 
    4  1464     1  1.6725131 -0.0010688  0.0024285 
    4  1464     2  1.6726883 -0.0015751  0.0013712 
    4  1464     3  1.6757542  0.0000300  0.0028958 
    4  1464     4  1.6758999 -0.0004858  0.0018353 
    4  1465     1  1.6703930 -0.0000754  0.0030023 
    4  1465     2  1.6672175 -0.0011674  0.0025172 
    4  1465     3  1.6705741 -0.0006030  0.0019708 
    4  1465     4  1.6674279 -0.0016862  0.0014878 
    4  1466     1  1.6819197 -0.0003657  0.0015888 
    4  1466     2  1.6817984  0.0001169  0.0026622 
    4  1466     3  1.6786609 -0.0014525  0.0011528 
    4  1466     4  1.6785228 -0.0009759  0.0022231 
    4  1467     1  1.6839999 -0.0013521  0.0010329 
    4  1467     2  1.6872783 -0.0002709  0.0014467 
    4  1467     3  1.6838843 -0.0008915  0.0021186 
    4  1467     4  1.6871898  0.0001989  0.0025364 
    4  1468     1  1.6832914 -0.0009010  0.0022218 
    4  1468     2  1.6833955 -0.0013689  0.0011191 
    4  1468     3  1.6866494  0.0002056  0.0026439 
    4  1468     4  1.6867278 -0.0002711  0.0015371 
    4  1469     1  1.6811874  0.0001228  0.0027749 
    4  1469     2  1.6778665 -0.0009844  0.0023314 
    4  1469     3  1.6812999 -0.0003680  0.0016879 
    4  1469     4  1.6780081 -0.0014652  0.0012489 
    4  1470     1  1.6698057 -0.0006129  0.0020980 
    4  1470     2  1.6696437 -0.0000633  0.0031410 
    4  1470     3  1.6666080 -0.0017175  0.0016010 
    4  1470     4  1.6664149 -0.0011781  0.0026401 
    4  1471     1  1.6719444 -0.0016075  0.0014729 
    4  1471     2  1.6752145 -0.0004956  0.0019503 
    4  1471     3  1.6717904 -0.0010814  0.0025421 
    4  1471     4  1.6750949  0.0000416  0.0030234 
    4  1472     1  1.6710425 -0.0011001  0.0026583 
    4  1472     2  1.6712124 -0.0016300  0.0015803 
    4  1472     3  1.6744002  0.0000425  0.0031503 
    4  1472     4  1.6745313 -0.0005004  0.0020669 
    4  1473     1  1.6688500 -0.0000704  0.0032780 
    4  1473     2  1.6655828 -0.0012013  0.0027664 
    4  1473     3  1.6690296 -0.0006214  0.0022339 
    4  1473     4  1.6658003 -0.0017413  0.0017244 
    4  1474     1  1.6806872 -0.0003743  0.0017885 
    4  1474     2  1.6805932  0.0001294  0.0028883 
    4  1474     3  1.6773391 -0.0014898  0.0013429 
    4  1474     4  1.6772215 -0.0009945  0.0024385 
    4  1475     1  1.6828051 -0.0013894  0.0012052 
    4  1475     2  1.6861899 -0.0002747  0.0016290 
    4  1475     3  1.6827184 -0.0009094  0.0023195 
    4  1475     4  1.6861308  0.0002148  0.0027478 
    4  1476     1  1.6821451 -0.0009229  0.0024237 
    4  1476     2  1.6822290 -0.0014012  0.0012976 
    4  1476     3  1.6856063  0.0002148  0.0028526 
    4  1476     4  1.6856635 -0.0002735  0.0017206 
    4  1477     1  1.6799921  0.0001277  0.0030027 
    4  1477     2  1.6765684 -0.0010110  0.0025509 
    4  1477     3  1.6800865 -0.0003762  0.0018883 
    4  1477     4  1.6766958 -0.0015026  0.0014437 
    4  1478     1  1.6681949 -0.0006286  0.0023734 
    4  1478     2  1.6679935 -0.0000710  0.0034130 
    4  1478     3  1.6649231 -0.0017703  0.0018457 
    4  1478     4  1.6646709 -0.0012284  0.0028805 
    4  1479     1  1.6704381 -0.0016599  0.0016934 
    4  1479     2  1.6738220 -0.0005089  0.0021880 
    4  1479     3  1.6702500 -0.0011328  0.0027722 
    4  1479     4  1.6736845  0.0000363  0.0032759 
    4  1480     1  1.6694176 -0.0011747  0.0029086 
    4  1480     2  1.6696190 -0.0017031  0.0017999 
    4  1480     3  1.6729786  0.0000329  0.0034225 
    4  1480     4  1.6731067 -0.0005225  0.0022993 
    4  1481     1  1.6670741 -0.0000729  0.0035674 
    4  1481     2  1.6636359 -0.0012810  0.0030000 
    4  1481     3  1.6672970 -0.0006600  0.0025127 
    4  1481     4  1.6639489 -0.0018389  0.0019561 
    4  1482     1  1.6794793 -0.0003801  0.0019966 
    4  1482     2  1.6793849  0.0001141  0.0031161 
    4  1482     3  1.6760311 -0.0015204  0.0015551 
    4  1482     4  1.6758992 -0.0010403  0.0026662 
    4  1483     1  1.6816523 -0.0014017  0.0014002 
    4  1483     2  1.6851363 -0.0002649  0.0018134 
    4  1483     3  1.6815680 -0.0009416  0.0025289 
    4  1483     4  1.6850783  0.0002061  0.0029506 
    4  1484     1  1.6810124 -0.0009544  0.0026493 
    4  1484     2  1.6810738 -0.0013972  0.0015072 
    4  1484     3  1.6845746  0.0002000  0.0030541 
    4  1484     4  1.6846147 -0.0002542  0.0018983 
    4  1485     1  1.6788073  0.0001124  0.0032409 
    4  1485     2  1.6752320 -0.0010607  0.0028021 
    4  1485     3  1.6788815 -0.0003709  0.0020866 
    4  1485     4  1.6753497 -0.0015242  0.0016659 
    4  1486     1  1.6663398 -0.0006517  0.0026401 
    4  1486     2  1.6660927 -0.0000652  0.0037372 
    4  1486     3  1.6628191 -0.0018837  0.0020666 
    4  1486     4  1.6624465 -0.0013437  0.0031390 
    4  1487     1  1.6687685 -0.0017120  0.0019145 
    4  1487     2  1.6724169 -0.0004972  0.0023985 
    4  1487     3  1.6685593 -0.0012177  0.0030542 
    4  1487     4  1.6723051  0.0000361  0.0035645 
    4  1488     1  1.6677230 -0.0012507  0.0032251 
    4  1488     2  1.6679036 -0.0017009  0.0019972 
    4  1488     3  1.6717758  0.0000727  0.0037099 
    4  1488     4  1.6718178 -0.0004318  0.0024432 
    4  1489     1  1.6651357 -0.0000166  0.0039271 
    4  1489     2  1.6612236 -0.0013636  0.0033248 
    4  1489     3  1.6653689 -0.0005901  0.0027411 
    4  1489     4  1.6616044 -0.0018781  0.0021767 
    4  1490     1  1.6571066 -0.0020930  0.0022827 
    4  1490     2  1.6602089 -0.0008728  0.0029676 
    4  1490     3  1.6565553 -0.0014523  0.0031631 
    4  1490     4  1.6598505 -0.0001658  0.0038794 
    4  1491     1  1.6545199 -0.0015204  0.0033566 
    4  1491     2  1.6551422 -0.0021131  0.0023112 
    4  1491     3  1.6583461 -0.0000757  0.0041329 
    4  1491     4  1.6587863 -0.0007508  0.0030313 
    4  1492     1  1.6514092 -0.0001718  0.0041877 
    4  1492     2  1.6485509 -0.0017230  0.0031915 
    4  1492     3  1.6518846 -0.0011745  0.0036262 
    4  1492     4  1.6495585 -0.0023987  0.0028375 
    4  1493     1  1.6542643 -0.0010974  0.0033705 
    4  1493     2  1.6539001 -0.0004023  0.0039094 
    4  1493     3  1.6521095 -0.0021613  0.0026971 
    4  1493     4  1.6515974 -0.0014613  0.0032478 
    4  1494     1  1.6500159 -0.0008106  0.0033167 
    4  1494     2  1.6494613  0.0000287  0.0046987 
    4  1494     3  1.6455091 -0.0024627  0.0024723 
    4  1494     4  1.6452075 -0.0016440  0.0037400 
    4  1495     1  1.6536087 -0.0022150  0.0024165 
    4  1495     2  1.6574322 -0.0008060  0.0031431 
    4  1495     3  1.6531651 -0.0014744  0.0035101 
    4  1495     4  1.6571242  0.0000129  0.0042992 
    4  1496     1  1.6515098 -0.0016218  0.0039433 
    4  1496     2  1.6518256 -0.0022358  0.0026055 
    4  1496     3  1.6559736 -0.0000861  0.0046299 
    4  1496     4  1.6562510 -0.0007341  0.0032465 
    4  1497     1  1.6484107 -0.0002032  0.0049005 
    4  1497     2  1.6438494 -0.0017717  0.0042031 
    4  1497     3  1.6487450 -0.0008874  0.0034927 
    4  1497     4  1.6441698 -0.0024528  0.0028076 
    4  1498     1  1.6363156 -0.0019636  0.0043848 
    4  1498     2  1.6366225 -0.0026554  0.0030014 
    4  1498     3  1.6407718 -0.0004310  0.0050659 
    4  1498     4  1.6410804 -0.0011217  0.0036837 
    4  1499     1  1.6332779 -0.0006570  0.0052883 
    4  1499     2  1.6288412 -0.0021784  0.0046187 
    4  1499     3  1.6335904 -0.0013513  0.0039332 
    4  1499     4  1.6292114 -0.0028685  0.0032448 
    4  1500     1  1.6344639 -0.0013773  0.0035908 
    4  1500     2  1.6343624 -0.0008519  0.0049473 
    4  1500     3  1.6302851 -0.0027526  0.0030647 
    4  1500     4  1.6299966 -0.0022776  0.0044250 
    4  1501     1  1.6375501 -0.0027636  0.0028056 
    4  1501     2  1.6426481 -0.0010880  0.0034373 
    4  1501     3  1.6374179 -0.0020541  0.0045033 
    4  1501     4  1.6423127 -0.0005224  0.0049344 
    4  1502     1  1.6353801 -0.0026952  0.0032273 
    4  1502     2  1.6398772 -0.0011476  0.0039162 
    4  1502     3  1.6350702 -0.0019989  0.0046084 
    4  1502     4  1.6395924 -0.0004416  0.0053028 
    4  1503     1  1.6338128 -0.0020429  0.0048493 
    4  1503     2  1.6341332 -0.0027256  0.0034484 
    4  1503     3  1.6384067 -0.0004688  0.0055416 
    4  1503     4  1.6386869 -0.0011684  0.0041289 
    4  1504     1  1.6306460 -0.0006721  0.0057801 
    4  1504     2  1.6261365 -0.0022500  0.0050462 
    4  1504     3  1.6309717 -0.0014134  0.0044033 
    4  1504     4  1.6265075 -0.0029729  0.0036812 
    4  1505     1  1.6322759 -0.0013867  0.0041692 
    4  1505     2  1.6319611 -0.0006486  0.0055207 
    4  1505     3  1.6278903 -0.0029244  0.0034507 
    4  1505     4  1.6275220 -0.0022044  0.0047945 
    4  1506     1  1.6462200 -0.0002959  0.0052873 
    4  1506     2  1.6415290 -0.0018651  0.0046500 
    4  1506     3  1.6464659 -0.0009286  0.0038417 
    4  1506     4  1.6418119 -0.0024816  0.0032173 
    4  1507     1  1.6475529 -0.0009164  0.0036587 
    4  1507     2  1.6472861 -0.0002667  0.0050750 
    4  1507     3  1.6429698 -0.0024610  0.0030148 
    4  1507     4  1.6426780 -0.0018252  0.0044168 
    4  1508     1  1.6506169 -0.0022477  0.0027934 
    4  1508     2  1.6552217 -0.0007206  0.0033921 
    4  1508     3  1.6503601 -0.0016577  0.0042039 
    4  1508     4  1.6550084 -0.0001084  0.0048247 
    4  1509     1  1.6493157 -0.0016984  0.0044304 
    4  1509     2  1.6495544 -0.0022673  0.0029732 
    4  1509     3  1.6540677 -0.0001365  0.0050198 
    4  1509     4  1.6542616 -0.0007234  0.0035494 
    4  1510     1  1.6454109 -0.0009446  0.0040356 
    4  1510     2  1.6451914 -0.0003163  0.0055094 
    4  1510     3  1.6406696 -0.0025164  0.0034202 
    4  1510     4  1.6404165 -0.0019019  0.0048840 
    4  1511     1  1.6485243 -0.0022863  0.0031577 
    4  1511     2  1.6533206 -0.0007230  0.0037233 
    4  1511     3  1.6483068 -0.0017235  0.0046446 
    4  1511     4  1.6531391 -0.0001458  0.0052208 
    4  1512     1  1.6473113 -0.0017488  0.0048695 
    4  1512     2  1.6475207 -0.0023053  0.0033502 
    4  1512     3  1.6522064 -0.0001591  0.0054337 
    4  1512     4  1.6523849 -0.0007275  0.0039063 
    4  1513     1  1.6441679 -0.0003322  0.0057411 
    4  1513     2  1.6393215 -0.0019314  0.0051272 
    4  1513     3  1.6443781 -0.0009520  0.0042338 
    4  1513     4  1.6395642 -0.0025375  0.0036304 
    4  1514     1  1.6433571 -0.0009615  0.0044389 
    4  1514     2  1.6431631 -0.0003488  0.0059767 
    4  1514     3  1.6384697 -0.0025615  0.0038472 
    4  1514     4  1.6382503 -0.0019598  0.0053758 
    4  1515     1  1.6465198 -0.0023203  0.0035509 
    4  1515     2  1.6514459 -0.0007298  0.0040966 
    4  1515     3  1.6463242 -0.0017692  0.0050957 
    4  1515     4  1.6512766 -0.0001679  0.0056502 
    4  1516     1  1.6453438 -0.0017937  0.0053317 
    4  1516     2  1.6455318 -0.0023322  0.0037582 
    4  1516     3  1.6503444 -0.0001854  0.0058709 
    4  1516     4  1.6505104 -0.0007331  0.0042892 
    4  1517     1  1.6421665 -0.0003667  0.0062158 
    4  1517     2  1.6371975 -0.0019857  0.0056310 
    4  1517     3  1.6423517 -0.0009661  0.0046458 
    4  1517     4  1.6374056 -0.0025747  0.0040708 
    4  1518     1  1.6290514 -0.0021926  0.0059177 
    4  1518     2  1.6292833 -0.0028405  0.0043731 
    4  1518     3  1.6339910 -0.0005566  0.0065560 
    4  1518     4  1.6341953 -0.0012177  0.0049990 
    4  1519     1  1.6258021 -0.0007684  0.0068864 
    4  1519     2  1.6208935 -0.0024208  0.0062000 
    4  1519     3  1.6260355 -0.0014820  0.0053442 
    4  1519     4  1.6211581 -0.0031190  0.0046721 
    4  1520     1  1.6272146 -0.0014733  0.0051058 
    4  1520     2  1.6269660 -0.0007408  0.0066062 
    4  1520     3  1.6224267 -0.0030983  0.0044124 
    4  1520     4  1.6221447 -0.0023820  0.0058990 
    4  1521     1  1.6304436 -0.0028243  0.0041316 
    4  1521     2  1.6352774 -0.0012124  0.0047776 
    4  1521     3  1.6301970 -0.0021591  0.0056392 
    4  1521     4  1.6350626 -0.0005325  0.0062978 
    4  1522     1  1.6248754 -0.0014824  0.0055860 
    4  1522     2  1.6246444 -0.0008016  0.0071647 
    4  1522     3  1.6199199 -0.0031256  0.0049425 
    4  1522     4  1.6196646 -0.0024583  0.0065065 
    4  1523     1  1.6281471 -0.0028434  0.0046249 
    4  1523     2  1.6331249 -0.0012151  0.0052245 
    4  1523     3  1.6279165 -0.0022269  0.0061998 
    4  1523     4  1.6329196 -0.0005861  0.0068123 
    4  1524     1  1.6268018 -0.0022563  0.0064877 
    4  1524     2  1.6270159 -0.0028435  0.0048781 
    4  1524     3  1.6318642 -0.0006126  0.0070708 
    4  1524     4  1.6320623 -0.0012090  0.0054493 
    4  1525     1  1.6235212 -0.0008307  0.0074458 
    4  1525     2  1.6184627 -0.0024915  0.0068224 
    4  1525     3  1.6237365 -0.0014730  0.0058259 
    4  1525     4  1.6187019 -0.0031202  0.0052190 
    4  1526     1  1.6413492 -0.0009656  0.0048582 
    4  1526     2  1.6411596 -0.0003922  0.0064540 
    4  1526     3  1.6363548 -0.0025784  0.0043041 
    4  1526     4  1.6361467 -0.0020139  0.0058906 
    4  1527     1  1.6445497 -0.0023326  0.0039742 
    4  1527     2  1.6495703 -0.0007294  0.0044860 
    4  1527     3  1.6443570 -0.0018183  0.0055704 
    4  1527     4  1.6493994 -0.0002059  0.0060909 
    4  1528     1  1.6433627 -0.0018414  0.0058146 
    4  1528     2  1.6435573 -0.0023343  0.0041943 
    4  1528     3  1.6484392 -0.0002268  0.0063158 
    4  1528     4  1.6486164 -0.0007271  0.0046881 
    4  1529     1  1.6401524 -0.0004148  0.0066944 
    4  1529     2  1.6351024 -0.0020374  0.0061535 
    4  1529     3  1.6403419 -0.0009631  0.0050716 
    4  1529     4  1.6353044 -0.0025790  0.0045393 
    4  1530     1  1.6226109 -0.0014485  0.0060667 
    4  1530     2  1.6223685 -0.0008788  0.0077142 
    4  1530     3  1.6175194 -0.0030893  0.0055101 
    4  1530     4  1.6172726 -0.0025273  0.0071410 
    4  1531     1  1.6259186 -0.0028184  0.0051458 
    4  1531     2  1.6309963 -0.0011903  0.0056806 
    4  1531     3  1.6256753 -0.0022885  0.0067727 
    4  1531     4  1.6307614 -0.0006539  0.0073187 
    4  1532     1  1.6245583 -0.0023122  0.0070567 
    4  1532     2  1.6247902 -0.0028046  0.0054120 
    4  1532     3  1.6296460 -0.0006912  0.0075673 
    4  1532     4  1.6298972 -0.0011800  0.0059167 
    4  1533     1  1.6212700 -0.0009188  0.0079803 
    4  1533     2  1.6161480 -0.0025513  0.0074648 
    4  1533     3  1.6214915 -0.0014265  0.0063007 
    4  1533     4  1.6163455 -0.0030600  0.0058025 
    4  1534     1  1.6393131 -0.0009518  0.0052972 
    4  1534     2  1.6390821 -0.0004523  0.0069310 
    4  1534     3  1.6342643 -0.0025610  0.0047898 
    4  1534     4  1.6340260 -0.0020657  0.0064177 
    4  1535     1  1.6425580 -0.0023170  0.0044265 
    4  1535     2  1.6476338 -0.0007128  0.0048994 
    4  1535     3  1.6423222 -0.0018685  0.0060609 
    4  1535     4  1.6474193 -0.0002563  0.0065398 
    4  1536     1  1.6412174 -0.0018867  0.0063091 
    4  1536     2  1.6414923 -0.0023078  0.0046621 
    4  1536     3  1.6463259 -0.0002755  0.0067761 
    4  1536     4  1.6465769 -0.0007037  0.0051285 
    4  1537     1  1.6379550 -0.0004817  0.0071749 
    4  1537     2  1.6329173 -0.0020830  0.0066796 
    4  1537     3  1.6382205 -0.0009487  0.0055391 
    4  1537     4  1.6331787 -0.0025514  0.0050430 
    4  1538     1  1.6204159 -0.0013838  0.0065262 
    4  1538     2  1.6201694 -0.0009904  0.0082150 
    4  1538     3  1.6152766 -0.0029859  0.0061172 
    4  1538     4  1.6151072 -0.0025761  0.0077846 
    4  1539     1  1.6237024 -0.0027665  0.0056941 
    4  1539     2  1.6287519 -0.0011679  0.0061733 
    4  1539     3  1.6234291 -0.0023327  0.0073251 
    4  1539     4  1.6284019 -0.0007584  0.0077971 
    4  1540     1  1.6223163 -0.0023223  0.0075523 
    4  1540     2  1.6225939 -0.0027692  0.0059732 
    4  1540     3  1.6270055 -0.0008308  0.0080160 
    4  1540     4  1.6274712 -0.0012108  0.0064766 
    4  1541     1  1.6191725 -0.0010828  0.0084072 
    4  1541     2  1.6143206 -0.0025734  0.0080994 
    4  1541     3  1.6193828 -0.0013438  0.0067310 
    4  1541     4  1.6143154 -0.0028916  0.0064566 
    4  1542     1  1.6075564 -0.0028379  0.0078826 
    4  1542     2  1.6077586 -0.0033652  0.0061976 
    4  1542     3  1.6128219 -0.0011560  0.0084220 
    4  1542     4  1.6130177 -0.0016960  0.0067057 
    4  1543     1  1.6041333 -0.0014195  0.0088712 
    4  1543     2  1.5987519 -0.0031540  0.0082809 
    4  1543     3  1.6043514 -0.0020124  0.0071206 
    4  1543     4  1.5990154 -0.0037186  0.0065716 
    4  1544     1  1.6055823 -0.0020559  0.0068643 
    4  1544     2  1.6052949 -0.0013780  0.0085313 
    4  1544     3  1.6004360 -0.0037487  0.0062246 
    4  1544     4  1.6000964 -0.0030999  0.0078587 
    4  1545     1  1.6090120 -0.0034010  0.0058739 
    4  1545     2  1.6141632 -0.0017299  0.0064628 
    4  1545     3  1.6087382 -0.0028053  0.0075106 
    4  1545     4  1.6139119 -0.0011178  0.0081244 
    4  1546     1  1.6100347 -0.0027588  0.0071492 
    4  1546     2  1.6103191 -0.0034304  0.0055564 
    4  1546     3  1.6151186 -0.0010670  0.0078224 
    4  1546     4  1.6153653 -0.0017592  0.0062075 
    4  1547     1  1.6066116 -0.0013264  0.0081911 
    4  1547     2  1.6015560 -0.0030412  0.0074602 
    4  1547     3  1.6069055 -0.0020826  0.0065887 
    4  1547     4  1.6018951 -0.0037727  0.0058824 
    4  1548     1  1.6082766 -0.0020809  0.0063062 
    4  1548     2  1.6079685 -0.0012829  0.0078494 
    4  1548     3  1.6033986 -0.0037590  0.0055604 
    4  1548     4  1.6030438 -0.0029848  0.0070828 
    4  1549     1  1.6116652 -0.0034312  0.0052546 
    4  1549     2  1.6166007 -0.0017682  0.0059470 
    4  1549     3  1.6113648 -0.0027144  0.0068019 
    4  1549     4  1.6163408 -0.0010306  0.0075138 
    4  1550     1  1.6127269 -0.0026648  0.0064675 
    4  1550     2  1.6130353 -0.0034201  0.0049637 
    4  1550     3  1.6175947 -0.0009920  0.0072091 
    4  1550     4  1.6178616 -0.0017679  0.0056877 
    4  1551     1  1.6093612 -0.0012388  0.0075164 
    4  1551     2  1.6045506 -0.0029278  0.0067246 
    4  1551     3  1.6096758 -0.0020682  0.0060219 
    4  1551     4  1.6049059 -0.0037363  0.0052475 
    4  1552     1  1.6110971 -0.0020437  0.0057422 
    4  1552     2  1.6107701 -0.0011945  0.0071895 
    4  1552     3  1.6064413 -0.0036961  0.0049487 
    4  1552     4  1.6060721 -0.0028686  0.0063783 
    4  1553     1  1.6144288 -0.0033922  0.0046840 
    4  1553     2  1.6191500 -0.0017538  0.0054299 
    4  1553     3  1.6141069 -0.0026159  0.0061440 
    4  1553     4  1.6188674 -0.0009579  0.0069063 
    4  1554     1  1.6313729 -0.0021240  0.0053687 
    4  1554     2  1.6316478 -0.0027967  0.0038979 
    4  1554     3  1.6361499 -0.0005133  0.0060415 
    4  1554     4  1.6363891 -0.0012017  0.0045583 
    4  1555     1  1.6281554 -0.0007182  0.0063276 
    4  1555     2  1.6234343 -0.0023414  0.0056067 
    4  1555     3  1.6284342 -0.0014557  0.0048688 
    4  1555     4  1.6237504 -0.0030615  0.0041620 
    4  1556     1  1.6296811 -0.0014391  0.0046358 
    4  1556     2  1.6293939 -0.0006888  0.0060537 
    4  1556     3  1.6250968 -0.0030275  0.0039156 
    4  1556     4  1.6247683 -0.0022957  0.0053198 
    4  1557     1  1.6328627 -0.0027684  0.0036685 
    4  1557     2  1.6375207 -0.0011879  0.0043423 
    4  1557     3  1.6325788 -0.0020845  0.0051029 
    4  1557     4  1.6372726 -0.0004882  0.0057890 
    4  1558     1  1.6155327 -0.0025663  0.0058296 
    4  1558     2  1.6158942 -0.0033465  0.0044177 
    4  1558     3  1.6201703 -0.0009301  0.0066056 
    4  1558     4  1.6204876 -0.0017319  0.0051765 
    4  1559     1  1.6122029 -0.0011608  0.0068659 
    4  1559     2  1.6076377 -0.0028110  0.0060432 
    4  1559     3  1.6125703 -0.0020118  0.0054696 
    4  1559     4  1.6080458 -0.0036404  0.0046644 
    4  1560     1  1.6140937 -0.0019823  0.0052040 
    4  1560     2  1.6137112 -0.0011202  0.0065526 
    4  1560     3  1.6096925 -0.0035910  0.0043861 
    4  1560     4  1.6092658 -0.0027527  0.0057157 
    4  1561     1  1.6173888 -0.0033063  0.0041547 
    4  1561     2  1.6218632 -0.0017115  0.0049276 
    4  1561     3  1.6170144 -0.0025121  0.0055205 
    4  1561     4  1.6215345 -0.0008949  0.0063107 
    4  1562     1  1.5997862 -0.0030616  0.0062387 
    4  1562     2  1.6002391 -0.0039494  0.0048991 
    4  1562     3  1.6042489 -0.0013998  0.0071094 
    4  1562     4  1.6046582 -0.0023121  0.0057503 
    4  1563     1  1.5963262 -0.0016640  0.0073307 
    4  1563     2  1.5919460 -0.0033348  0.0064256 
    4  1563     3  1.5967819 -0.0026169  0.0060087 
    4  1563     4  1.5924309 -0.0042692  0.0051189 
    4  1564     1  1.5985990 -0.0025651  0.0056998 
    4  1564     2  1.5981200 -0.0015982  0.0069735 
    4  1564     3  1.5943693 -0.0042017  0.0047979 
    4  1564     4  1.5938605 -0.0032570  0.0060525 
    4  1565     1  1.6020437 -0.0038932  0.0046011 
    4  1565     2  1.6063242 -0.0022751  0.0054672 
    4  1565     3  1.6015728 -0.0029876  0.0058873 
    4  1565     4  1.6058979 -0.0013420  0.0067759 
    4  1566     1  1.6152525 -0.0011025  0.0062293 
    4  1566     2  1.6109888 -0.0026966  0.0053888 
    4  1566     3  1.6156935 -0.0019517  0.0049465 
    4  1566     4  1.6114841 -0.0035165  0.0041288 
    4  1567     1  1.6173559 -0.0019406  0.0046884 
    4  1567     2  1.6169101 -0.0010817  0.0058975 
    4  1567     3  1.6133727 -0.0034558  0.0038705 
    4  1567     4  1.6128533 -0.0026366  0.0050496 
    4  1568     1  1.6205898 -0.0031850  0.0036586 
    4  1568     2  1.6247451 -0.0016644  0.0044333 
    4  1568     3  1.6201563 -0.0023897  0.0049215 
    4  1568     4  1.6243868 -0.0008391  0.0057136 
    4  1569     1  1.6185566 -0.0024594  0.0052187 
    4  1569     2  1.6189859 -0.0032417  0.0039078 
    4  1569     3  1.6229240 -0.0008773  0.0060107 
    4  1569     4  1.6232945 -0.0016863  0.0046811 
    4  1570     1  1.6061240 -0.0037546  0.0040699 
    4  1570     2  1.6099857 -0.0022087  0.0049526 
    4  1570     3  1.6055372 -0.0028560  0.0051938 
    4  1570     4  1.6094537 -0.0012672  0.0061122 
    4  1571     1  1.6034676 -0.0029216  0.0055400 
    4  1571     2  1.6040094 -0.0038156  0.0043289 
    4  1571     3  1.6075948 -0.0013108  0.0064368 
    4  1571     4  1.6080912 -0.0022357  0.0051999 
    4  1572     1  1.5999736 -0.0015445  0.0066092 
    4  1572     2  1.5959032 -0.0031763  0.0056761 
    4  1572     3  1.6005267 -0.0025094  0.0054081 
    4  1572     4  1.5964897 -0.0041129  0.0044995 
    4  1573     1  1.6025992 -0.0024534  0.0051394 
    4  1573     2  1.6020018 -0.0014452  0.0062611 
    4  1573     3  1.5987419 -0.0040511  0.0042008 
    4  1573     4  1.5981242 -0.0030731  0.0052957 
    4  1574     1  1.6041921 -0.0013947  0.0059623 
    4  1574     2  1.6005213 -0.0030151  0.0049723 
    4  1574     3  1.6049568 -0.0023672  0.0049261 
    4  1574     4  1.6012788 -0.0039566  0.0039666 
    4  1575     1  1.6074296 -0.0023174  0.0046599 
    4  1575     2  1.6067404 -0.0009124  0.0052591 
    4  1575     3  1.6047156 -0.0039232  0.0036257 
    4  1575     4  1.6042145 -0.0027005  0.0041570 
    4  1576     1  1.6117842 -0.0035446  0.0037116 
    4  1576     2  1.6141149 -0.0022902  0.0045228 
    4  1576     3  1.6112355 -0.0025550  0.0042206 
    4  1576     4  1.6137566 -0.0011441  0.0051275 
    4  1577     1  1.6080147 -0.0027598  0.0047713 
    4  1577     2  1.6086525 -0.0036635  0.0038473 
    4  1577     3  1.6114338 -0.0012357  0.0057065 
    4  1577     4  1.6120149 -0.0022123  0.0047229 
    4  1578     1  1.6185989 -0.0010409  0.0055253 
    4  1578     2  1.6148759 -0.0025288  0.0046771 
    4  1578     3  1.6190439 -0.0019318  0.0044394 
    4  1578     4  1.6154486 -0.0033563  0.0036340 
    4  1579     1  1.6206859 -0.0018808  0.0042110 
    4  1579     2  1.6202775 -0.0010243  0.0052448 
    4  1579     3  1.6172734 -0.0032484  0.0034294 
    4  1579     4  1.6166823 -0.0024576  0.0044296 
    4  1580     1  1.6235908 -0.0030084  0.0032859 
    4  1580     2  1.6274436 -0.0016292  0.0039615 
    4  1580     3  1.6231535 -0.0023500  0.0044963 
    4  1580     4  1.6271524 -0.0009250  0.0051871 
    4  1581     1  1.6216971 -0.0023679  0.0046688 
    4  1581     2  1.6221709 -0.0030883  0.0034433 
    4  1581     3  1.6257910 -0.0008819  0.0054153 
    4  1581     4  1.6261466 -0.0016418  0.0041733 
    4  1582     1  1.6245835 -0.0023240  0.0042733 
    4  1582     2  1.6249979 -0.0029097  0.0031453 
    4  1582     3  1.6282910 -0.0010006  0.0049190 
    4  1582     4  1.6285555 -0.0016480  0.0037515 
    4  1583     1  1.6218174 -0.0011978  0.0050949 
    4  1583     2  1.6182458 -0.0025009  0.0044328 
    4  1583     3  1.6222838 -0.0017969  0.0040248 
    4  1583     4  1.6188189 -0.0030835  0.0033487 
    4  1584     1  1.6237029 -0.0017532  0.0037374 
    4  1584     2  1.6231444 -0.0009308  0.0048188 
    4  1584     3  1.6202590 -0.0031128  0.0029715 
    4  1584     4  1.6199377 -0.0023222  0.0039606 
    4  1585     1  1.6267965 -0.0028261  0.0029411 
    4  1585     2  1.6295665 -0.0017550  0.0035333 
    4  1585     3  1.6264000 -0.0021263  0.0037823 
    4  1585     4  1.6294187 -0.0009408  0.0044473 
    4  1586     1  1.6135343 -0.0032452  0.0034189 
    4  1586     2  1.6180776 -0.0018505  0.0037313 
    4  1586     3  1.6143878 -0.0027772  0.0049465 
    4  1586     4  1.6177697 -0.0017784  0.0048982 
    4  1587     1  1.6130480 -0.0026249  0.0041192 
    4  1587     2  1.6139669 -0.0033665  0.0035471 
    4  1587     3  1.6158523 -0.0013809  0.0048952 
    4  1587     4  1.6162290 -0.0022347  0.0042653 
    4  1588     1  1.6110749 -0.0010660  0.0040049 
    4  1588     2  1.6112633 -0.0026427  0.0041326 
    4  1588     3  1.6096425 -0.0027371  0.0048411 
    4  1588     4  1.6101269 -0.0035246  0.0047373 
    4  1589     1  1.6272165 -0.0022393  0.0037844 
    4  1589     2  1.6278706 -0.0026444  0.0028594 
    4  1589     3  1.6303599 -0.0012124  0.0041768 
    4  1589     4  1.6304600 -0.0017212  0.0033083 
    4  1590     1  1.6251778 -0.0008855  0.0038032 
    4  1590     2  1.6244643 -0.0022285  0.0032909 
    4  1590     3  1.6250421 -0.0021380  0.0039426 
    4  1590     4  1.6245282 -0.0028673  0.0035171 
    4  1591     1  1.6268977 -0.0025872  0.0031833 
    4  1591     2  1.6305113 -0.0014649  0.0028953 
    4  1591     3  1.6281740 -0.0026660  0.0042816 
    4  1591     4  1.6307373 -0.0017724  0.0038313 
    4  1592     1  1.6263534 -0.0029179  0.0040059 
    4  1592     2  1.6257358 -0.0020031  0.0035883 
    4  1592     3  1.6284136 -0.0017488  0.0032512 
    4  1592     4  1.6276285 -0.0009675  0.0029145 
    4  1593     1  1.6230874 -0.0017027  0.0037310 
    4  1593     2  1.6201441 -0.0030129  0.0045341 
    4  1593     3  1.6220535 -0.0009106  0.0028668 
    4  1593     4  1.6193882 -0.0022747  0.0037567 
    4  1594     1  1.6202755 -0.0012622  0.0026678 
    4  1594     2  1.6210744 -0.0018760  0.0036355 
    4  1594     3  1.6172394 -0.0024438  0.0033241 
    4  1594     4  1.6179085 -0.0030791  0.0042839 
    4  1595     1  1.6230098 -0.0021835  0.0033667 
    4  1595     2  1.6253299 -0.0011374  0.0027193 
    4  1595     3  1.6235699 -0.0027883  0.0040379 
    4  1595     4  1.6259673 -0.0018055  0.0034637 
    4  1596     1  1.6111118 -0.0027509  0.0033669 
    4  1596     2  1.6144989 -0.0015652  0.0028106 
    4  1596     3  1.6116676 -0.0032462  0.0045365 
    4  1596     4  1.6152634 -0.0020085  0.0039844 
    4  1597     1  1.6136888 -0.0032886  0.0047614 
    4  1597     2  1.6129409 -0.0025688  0.0035874 
    4  1597     3  1.6173767 -0.0019485  0.0040859 
    4  1597     4  1.6164391 -0.0013603  0.0030295 
    4  1598     1  1.6102429 -0.0017732  0.0046500 
    4  1598     2  1.6054285 -0.0032753  0.0050479 
    4  1598     3  1.6092994 -0.0016460  0.0029330 
    4  1598     4  1.6050226 -0.0030383  0.0035334 
    4  1599     1  1.6086440 -0.0019206  0.0029793 
    4  1599     2  1.6092077 -0.0020437  0.0043366 
    4  1599     3  1.6048194 -0.0030926  0.0032043 
    4  1599     4  1.6050203 -0.0033338  0.0046157 
    4  1600     1  1.6082074 -0.0023599  0.0040128 
    4  1600     2  1.6046884 -0.0035123  0.0044398 
    4  1600     3  1.6078425 -0.0019789  0.0028908 
    4  1600     4  1.6044644 -0.0030602  0.0032426 
    4  1601     1  1.6068690 -0.0019481  0.0026918 
    4  1601     2  1.6072872 -0.0024054  0.0037025 
    4  1601     3  1.6036406 -0.0030553  0.0031796 
    4  1601     4  1.6041203 -0.0035233  0.0042378 
    4  1602     1  1.6091132 -0.0028377  0.0030180 
    4  1602     2  1.6124079 -0.0016862  0.0024841 
    4  1602     3  1.6095364 -0.0033903  0.0041154 
    4  1602     4  1.6128188 -0.0022328  0.0035663 
    4  1603     1  1.6104715 -0.0033451  0.0043006 
    4  1603     2  1.6100615 -0.0028013  0.0031596 
    4  1603     3  1.6138910 -0.0021640  0.0037695 
    4  1603     4  1.6134003 -0.0016527  0.0026491 
    4  1604     1  1.6195172 -0.0019787  0.0035728 
    4  1604     2  1.6162511 -0.0031280  0.0041142 
    4  1604     3  1.6190099 -0.0014353  0.0024907 
    4  1604     4  1.6157683 -0.0025939  0.0030569 
    4  1605     1  1.6180988 -0.0015009  0.0023104 
    4  1605     2  1.6184893 -0.0020290  0.0034338 
    4  1605     3  1.6147172 -0.0026681  0.0028347 
    4  1605     4  1.6151398 -0.0031842  0.0039514 
    4  1606     1  1.6204156 -0.0024923  0.0026255 
    4  1606     2  1.6238713 -0.0013339  0.0021518 
    4  1606     3  1.6207895 -0.0029663  0.0037833 
    4  1606     4  1.6241460 -0.0018428  0.0033266 
    4  1607     1  1.6218084 -0.0028658  0.0039185 
    4  1607     2  1.6213498 -0.0024246  0.0029033 
    4  1607     3  1.6248455 -0.0018270  0.0034645 
    4  1607     4  1.6244846 -0.0013272  0.0023891 
    4  1608     1  1.6176520 -0.0020558  0.0032754 
    4  1608     2  1.6141930 -0.0032594  0.0038275 
    4  1608     3  1.6173777 -0.0014490  0.0021231 
    4  1608     4  1.6138728 -0.0026657  0.0026776 
    4  1609     1  1.6166703 -0.0014119  0.0019428 
    4  1609     2  1.6169234 -0.0020787  0.0031092 
    4  1609     3  1.6131125 -0.0026628  0.0025309 
    4  1609     4  1.6134037 -0.0033193  0.0036960 
    4  1610     1  1.6190313 -0.0024808  0.0023244 
    4  1610     2  1.6226292 -0.0012427  0.0017739 
    4  1610     3  1.6192900 -0.0031082  0.0035324 
    4  1610     4  1.6228639 -0.0018726  0.0029755 
    4  1611     1  1.6199819 -0.0030669  0.0036674 
    4  1611     2  1.6197049 -0.0025149  0.0024598 
    4  1611     3  1.6235152 -0.0018702  0.0031599 
    4  1611     4  1.6232908 -0.0013074  0.0019582 
    4  1612     1  1.6072975 -0.0028246  0.0027861 
    4  1612     2  1.6107454 -0.0015512  0.0021276 
    4  1612     3  1.6076328 -0.0035630  0.0038861 
    4  1612     4  1.6110203 -0.0023121  0.0032394 
    4  1613     1  1.6085615 -0.0034735  0.0040042 
    4  1613     2  1.6081887 -0.0028146  0.0029170 
    4  1613     3  1.6118667 -0.0022706  0.0033970 
    4  1613     4  1.6115578 -0.0015952  0.0023081 
    4  1614     1  1.6062251 -0.0024933  0.0035339 
    4  1614     2  1.6031248 -0.0037042  0.0042082 
    4  1614     3  1.6058709 -0.0017259  0.0025542 
    4  1614     4  1.6026430 -0.0029724  0.0032397 
    4  1615     1  1.6048704 -0.0017150  0.0023447 
    4  1615     2  1.6051994 -0.0025564  0.0033743 
    4  1615     3  1.6015526 -0.0030193  0.0030762 
    4  1615     4  1.6019689 -0.0038158  0.0040746 
    4  1616     1  1.6042594 -0.0025766  0.0032075 
    4  1616     2  1.6007232 -0.0038983  0.0039038 
    4  1616     3  1.6040036 -0.0017439  0.0020662 
    4  1616     4  1.6004261 -0.0030953  0.0027888 
    4  1617     1  1.6032891 -0.0017679  0.0018231 
    4  1617     2  1.6034804 -0.0025803  0.0030353 
    4  1617     3  1.5995466 -0.0031333  0.0025151 
    4  1617     4  1.5997709 -0.0039212  0.0037034 
    4  1618     1  1.6057617 -0.0028905  0.0023397 
    4  1618     2  1.6094585 -0.0015604  0.0016829 
    4  1618     3  1.6059345 -0.0036641  0.0035328 
    4  1618     4  1.6096031 -0.0023524  0.0028931 
    4  1619     1  1.6067174 -0.0036334  0.0037271 
    4  1619     2  1.6064828 -0.0028499  0.0025874 
    4  1619     3  1.6102478 -0.0023422  0.0030700 
    4  1619     4  1.6100612 -0.0015334  0.0019108 
    4  1620     1  1.5931766 -0.0033821  0.0026900 
    4  1620     2  1.5969743 -0.0019765  0.0019604 
    4  1620     3  1.5934565 -0.0041915  0.0038848 
    4  1620     4  1.5972234 -0.0028133  0.0031831 
    4  1621     1  1.5945782 -0.0041728  0.0040810 
    4  1621     2  1.5942097 -0.0033360  0.0029697 
    4  1621     3  1.5981492 -0.0028077  0.0033397 
    4  1621     4  1.5978216 -0.0019329  0.0021926 
    4  1622     1  1.5918703 -0.0030150  0.0035134 
    4  1622     2  1.5881692 -0.0044349  0.0042879 
    4  1622     3  1.5914575 -0.0021375  0.0023447 
    4  1622     4  1.5877497 -0.0035832  0.0031488 
    4  1623     1  1.5905033 -0.0021955  0.0021236 
    4  1623     2  1.5908149 -0.0030435  0.0033547 
    4  1623     3  1.5866286 -0.0036391  0.0028805 
    4  1623     4  1.5869738 -0.0044587  0.0040838 
    4  1624     1  1.6162318 -0.0021043  0.0029297 
    4  1624     2  1.6126300 -0.0033822  0.0035428 
    4  1624     3  1.6160636 -0.0013667  0.0017454 
    4  1624     4  1.6124396 -0.0026540  0.0023646 
    4  1625     1  1.6155252 -0.0013688  0.0015411 
    4  1625     2  1.6156529 -0.0021205  0.0027544 
    4  1625     3  1.6118488 -0.0026671  0.0021576 
    4  1625     4  1.6119902 -0.0034086  0.0033603 
    4  1626     1  1.6178719 -0.0024643  0.0019930 
    4  1626     2  1.6215184 -0.0011844  0.0013939 
    4  1626     3  1.6179980 -0.0031941  0.0031999 
    4  1626     4  1.6216418 -0.0019183  0.0026061 
    4  1627     1  1.6185893 -0.0031690  0.0033726 
    4  1627     2  1.6184198 -0.0024485  0.0021715 
    4  1627     3  1.6222166 -0.0018941  0.0027738 
    4  1627     4  1.6220507 -0.0011738  0.0015744 
    4  1628     1  1.6287214 -0.0010282  0.0015790 
    4  1628     2  1.6290294 -0.0016357  0.0028104 
    4  1628     3  1.6250160 -0.0022819  0.0021082 
    4  1628     4  1.6252801 -0.0029189  0.0033721 
    4  1629     1  1.6311344 -0.0020726  0.0020377 
    4  1629     2  1.6346719 -0.0008189  0.0014372 
    4  1629     3  1.6314515 -0.0027483  0.0032377 
    4  1629     4  1.6350579 -0.0014731  0.0026301 
    4  1630     1  1.6322411 -0.0028534  0.0033970 
    4  1630     2  1.6319586 -0.0021304  0.0019205 
    4  1630     3  1.6365286 -0.0013983  0.0027765 
    4  1630     4  1.6359251 -0.0008588  0.0014847 
    4  1631     1  1.6296185 -0.0016248  0.0031168 
    4  1631     2  1.6258952 -0.0028257  0.0035301 
    4  1631     3  1.6294193 -0.0012299  0.0018468 
    4  1631     4  1.6256288 -0.0024390  0.0022297 
    4  1632     1  1.6305873 -0.0027814  0.0030603 
    4  1632     2  1.6303720 -0.0020788  0.0018797 
    4  1632     3  1.6341736 -0.0015149  0.0024589 
    4  1632     4  1.6339186 -0.0008236  0.0012807 
    4  1633     1  1.6282288 -0.0016856  0.0026314 
    4  1633     2  1.6245764 -0.0029527  0.0032076 
    4  1633     3  1.6280170 -0.0010217  0.0014297 
    4  1633     4  1.6243876 -0.0022800  0.0020008 
    4  1634     1  1.6274425 -0.0010309  0.0012667 
    4  1634     2  1.6276000 -0.0017122  0.0024718 
    4  1634     3  1.6238280 -0.0022843  0.0018358 
    4  1634     4  1.6239679 -0.0029682  0.0030380 
    4  1635     1  1.6297470 -0.0020987  0.0017150 
    4  1635     2  1.6332940 -0.0008561  0.0011359 
    4  1635     3  1.6299074 -0.0027836  0.0028935 
    4  1635     4  1.6334735 -0.0015403  0.0023211 
    4  1636     1  1.6400763 -0.0013334  0.0022989 
    4  1636     2  1.6365467 -0.0025804  0.0028916 
    4  1636     3  1.6397588 -0.0006808  0.0011489 
    4  1636     4  1.6362703 -0.0019239  0.0017515 
    4  1637     1  1.6390820 -0.0007314  0.0010259 
    4  1637     2  1.6393073 -0.0013553  0.0021898 
    4  1637     3  1.6355762 -0.0019492  0.0015817 
    4  1637     4  1.6357765 -0.0025733  0.0027352 
    4  1638     1  1.6413665 -0.0017867  0.0014777 
    4  1638     2  1.6447783 -0.0005857  0.0009110 
    4  1638     3  1.6415862 -0.0024145  0.0025946 
    4  1638     4  1.6450127 -0.0012179  0.0020413 
    4  1639     1  1.6424359 -0.0024177  0.0027338 
    4  1639     2  1.6421315 -0.0017624  0.0016539 
    4  1639     3  1.6458057 -0.0012046  0.0021341 
    4  1639     4  1.6454801 -0.0005411  0.0010343 
    4  1640     1  1.6387230 -0.0013710  0.0020628 
    4  1640     2  1.6351702 -0.0025742  0.0025723 
    4  1640     3  1.6386034 -0.0007608  0.0008941 
    4  1640     4  1.6350633 -0.0019669  0.0014149 
    4  1641     1  1.6382453 -0.0007970  0.0007583 
    4  1641     2  1.6383064 -0.0013817  0.0019366 
    4  1641     3  1.6346934 -0.0019859  0.0012414 
    4  1641     4  1.6347404 -0.0025694  0.0024100 
    4  1642     1  1.6404174 -0.0018258  0.0011477 
    4  1642     2  1.6439198 -0.0006491  0.0006629 
    4  1642     3  1.6404812 -0.0023999  0.0022928 
    4  1642     4  1.6439887 -0.0012282  0.0018205 
    4  1643     1  1.6409305 -0.0024092  0.0024451 
    4  1643     2  1.6408163 -0.0017996  0.0013171 
    4  1643     3  1.6444087 -0.0012227  0.0019309 
    4  1643     4  1.6442901 -0.0006052  0.0007871 
    4  1644     1  1.6514351 -0.0010488  0.0020171 
    4  1644     2  1.6481378 -0.0022174  0.0025767 
    4  1644     3  1.6511166 -0.0004450  0.0009477 
    4  1644     4  1.6478154 -0.0016306  0.0015324 
    4  1645     1  1.6504137 -0.0004881  0.0008219 
    4  1645     2  1.6506688 -0.0010530  0.0019316 
    4  1645     3  1.6470285 -0.0016599  0.0013523 
    4  1645     4  1.6472760 -0.0022180  0.0024465 
    4  1646     1  1.6526484 -0.0015229  0.0012481 
    4  1646     2  1.6559817 -0.0003754  0.0007365 
    4  1646     3  1.6528979 -0.0020539  0.0023199 
    4  1646     4  1.6562275 -0.0009158  0.0018237 
    4  1647     1  1.6537087 -0.0020514  0.0024396 
    4  1647     2  1.6534066 -0.0014890  0.0014073 
    4  1647     3  1.6569528 -0.0009127  0.0019064 
    4  1647     4  1.6566672 -0.0003354  0.0008566 
    4  1648     1  1.6615200 -0.0002916  0.0006655 
    4  1648     2  1.6617752 -0.0007601  0.0017397 
    4  1648     3  1.6581760 -0.0014159  0.0011305 
    4  1648     4  1.6584314 -0.0018787  0.0021932 
    4  1649     1  1.6636992 -0.0012907  0.0010285 
    4  1649     2  1.6670247 -0.0001781  0.0005766 
    4  1649     3  1.6639495 -0.0017350  0.0020795 
    4  1649     4  1.6672709 -0.0006292  0.0016393 
    4  1650     1  1.6646593 -0.0017256  0.0021901 
    4  1650     2  1.6643748 -0.0012505  0.0011591 
    4  1650     3  1.6679231 -0.0006193  0.0017201 
    4  1650     4  1.6676445 -0.0001372  0.0006790 
    4  1651     1  1.6624736 -0.0007506  0.0018296 
    4  1651     2  1.6591847 -0.0018678  0.0023076 
    4  1651     3  1.6621794 -0.0002691  0.0007837 
    4  1651     4  1.6588856 -0.0013916  0.0012692 
    4  1652     1  1.6543843 -0.0014732  0.0015905 
    4  1652     2  1.6574326 -0.0003578  0.0010199 
    4  1652     3  1.6548317 -0.0019904  0.0025422 
    4  1652     4  1.6578205 -0.0009138  0.0020089 
    4  1653     1  1.6563423 -0.0019232  0.0025731 
    4  1653     2  1.6558508 -0.0013838  0.0018483 
    4  1653     3  1.6587098 -0.0010000  0.0020597 
    4  1653     4  1.6584407 -0.0003677  0.0012796 
    4  1654     1  1.6536563 -0.0009697  0.0020936 
    4  1654     2  1.6510032 -0.0021482  0.0028152 
    4  1654     3  1.6530398 -0.0001243  0.0012695 
    4  1654     4  1.6504870 -0.0014280  0.0021142 
    4  1655     1  1.6519948 -0.0003941  0.0010798 
    4  1655     2  1.6524741 -0.0010384  0.0020753 
    4  1655     3  1.6488855 -0.0015804  0.0017240 
    4  1655     4  1.6493776 -0.0021966  0.0026862 
    4  1656     1  1.6629581 -0.0002306  0.0009108 
    4  1656     2  1.6633291 -0.0007052  0.0019319 
    4  1656     3  1.6597086 -0.0013335  0.0013811 
    4  1656     4  1.6601060 -0.0018077  0.0024138 
    4  1657     1  1.6651338 -0.0012398  0.0012495 
    4  1657     2  1.6683372 -0.0001459  0.0007727 
    4  1657     3  1.6655226 -0.0016832  0.0022842 
    4  1657     4  1.6687556 -0.0005813  0.0018070 
    4  1658     1  1.6662579 -0.0017655  0.0023503 
    4  1658     2  1.6659335 -0.0012979  0.0010731 
    4  1658     3  1.6701238 -0.0004973  0.0018764 
    4  1658     4  1.6695113 -0.0001803  0.0007633 
    4  1659     1  1.6639634 -0.0006919  0.0021457 
    4  1659     2  1.6607854 -0.0017081  0.0024800 
    4  1659     3  1.6637375 -0.0004331  0.0011089 
    4  1659     4  1.6604047 -0.0014794  0.0013974 
    4  1660     1  1.6551153 -0.0003329  0.0019890 
    4  1660     2  1.6547560 -0.0013476  0.0017023 
    4  1660     3  1.6548529 -0.0013903  0.0022156 
    4  1660     4  1.6546459 -0.0018915  0.0019358 
    4  1661     1  1.6564644 -0.0015325  0.0017274 
    4  1661     2  1.6592465 -0.0006502  0.0014368 
    4  1661     3  1.6572034 -0.0017932  0.0025453 
    4  1661     4  1.6593989 -0.0010231  0.0021825 
    4  1662     1  1.6564925 -0.0014983  0.0021903 
    4  1662     2  1.6571956 -0.0016938  0.0014145 
    4  1662     3  1.6590516 -0.0006989  0.0024228 
    4  1662     4  1.6592702 -0.0009827  0.0017307 
    4  1663     1  1.6641155 -0.0005863  0.0012357 
    4  1663     2  1.6641299 -0.0006913  0.0022496 
    4  1663     3  1.6608987 -0.0015501  0.0012711 
    4  1663     4  1.6610350 -0.0016288  0.0023784 
    4  1664     1  1.6662760 -0.0016500  0.0010745 
    4  1664     2  1.6701707 -0.0004537  0.0013172 
    4  1664     3  1.6661675 -0.0014027  0.0023888 
    4  1664     4  1.6696173 -0.0003717  0.0024689 
    4  1665     1  1.6654651 -0.0013052  0.0022383 
    4  1665     2  1.6657702 -0.0015558  0.0012073 
    4  1665     3  1.6684368 -0.0003614  0.0025283 
    4  1665     4  1.6688055 -0.0005841  0.0015269 
    4  1666     1  1.6636157 -0.0005393  0.0025620 
    4  1666     2  1.6606539 -0.0014453  0.0023944 
    4  1666     3  1.6638888 -0.0006769  0.0016177 
    4  1666     4  1.6609193 -0.0016052  0.0013630 
    4  1667     1  1.6537513 -0.0009449  0.0020026 
    4  1667     2  1.6531484 -0.0004255  0.0029291 
    4  1667     3  1.6509834 -0.0019747  0.0014629 
    4  1667     4  1.6506292 -0.0014565  0.0023063 
    4  1668     1  1.6562278 -0.0018394  0.0014797 
    4  1668     2  1.6583360 -0.0010223  0.0019318 
    4  1668     3  1.6558150 -0.0013167  0.0021468 
    4  1668     4  1.6580735 -0.0004349  0.0026383 
    4  1669     1  1.6541694 -0.0014777  0.0024834 
    4  1669     2  1.6546048 -0.0018798  0.0016186 
    4  1669     3  1.6568384 -0.0005232  0.0029526 
    4  1669     4  1.6572411 -0.0009430  0.0020719 
    4  1670     1  1.6520428 -0.0006755  0.0030658 
    4  1670     2  1.6493156 -0.0016126  0.0026472 
    4  1670     3  1.6525232 -0.0009957  0.0021824 
    4  1670     4  1.6498087 -0.0019432  0.0017365 
    4  1671     1  1.6630137 -0.0007810  0.0017828 
    4  1671     2  1.6627459 -0.0003663  0.0026887 
    4  1671     3  1.6602619 -0.0017241  0.0013674 
    4  1671     4  1.6599210 -0.0013178  0.0022933 
    4  1672     1  1.6649611 -0.0016249  0.0012957 
    4  1672     2  1.6678856 -0.0006490  0.0016892 
    4  1672     3  1.6646724 -0.0012460  0.0022898 
    4  1672     4  1.6676114 -0.0002746  0.0026652 
    4  1673     1  1.6638127 -0.0012373  0.0023551 
    4  1673     2  1.6641159 -0.0016817  0.0013849 
    4  1673     3  1.6667528 -0.0002338  0.0027911 
    4  1673     4  1.6670169 -0.0006863  0.0018248 
    4  1674     1  1.6617857 -0.0003440  0.0028374 
    4  1674     2  1.6589922 -0.0013278  0.0023730 
    4  1674     3  1.6620804 -0.0008264  0.0019417 
    4  1674     4  1.6593523 -0.0017913  0.0014816 
    4  1675     1  1.6512459 -0.0010781  0.0022818 
    4  1675     2  1.6508907 -0.0004997  0.0031270 
    4  1675     3  1.6486608 -0.0020578  0.0017556 
    4  1675     4  1.6482138 -0.0015094  0.0025882 
    4  1676     1  1.6533334 -0.0019541  0.0016931 
    4  1676     2  1.6561247 -0.0009519  0.0021873 
    4  1676     3  1.6529628 -0.0014600  0.0026182 
    4  1676     4  1.6558048 -0.0004417  0.0031181 
    4  1677     1  1.6518693 -0.0014758  0.0027140 
    4  1677     2  1.6522328 -0.0020181  0.0017978 
    4  1677     3  1.6547419 -0.0004304  0.0032416 
    4  1677     4  1.6550586 -0.0009905  0.0023157 
    4  1678     1  1.6496956 -0.0005470  0.0032869 
    4  1678     2  1.6469790 -0.0015780  0.0027321 
    4  1678     3  1.6500513 -0.0011474  0.0024252 
    4  1678     4  1.6473859 -0.0021521  0.0018896 
    4  1679     1  1.6611102 -0.0008412  0.0020756 
    4  1679     2  1.6608429 -0.0003244  0.0030311 
    4  1679     3  1.6582109 -0.0018666  0.0015863 
    4  1679     4  1.6579101 -0.0013611  0.0025370 
    4  1680     1  1.6631927 -0.0017571  0.0014821 
    4  1680     2  1.6661528 -0.0007249  0.0019581 
    4  1680     3  1.6629388 -0.0012427  0.0024667 
    4  1680     4  1.6659400 -0.0001988  0.0029449 
    4  1681     1  1.6620336 -0.0012693  0.0025971 
    4  1681     2  1.6622887 -0.0017962  0.0016005 
    4  1681     3  1.6650979 -0.0001979  0.0030945 
    4  1681     4  1.6653153 -0.0007364  0.0020944 
    4  1682     1  1.6598970 -0.0003149  0.0031793 
    4  1682     2  1.6568968 -0.0013803  0.0026666 
    4  1682     3  1.6601648 -0.0008541  0.0022121 
    4  1682     4  1.6572075 -0.0019050  0.0017056 
    4  1683     1  1.6488877 -0.0011551  0.0025711 
    4  1683     2  1.6485599 -0.0005945  0.0035201 
    4  1683     3  1.6459841 -0.0022069  0.0020445 
    4  1683     4  1.6456256 -0.0016649  0.0029770 
    4  1684     1  1.6510870 -0.0020827  0.0019255 
    4  1684     2  1.6540257 -0.0010212  0.0024540 
    4  1684     3  1.6507839 -0.0015172  0.0028773 
    4  1684     4  1.6537547 -0.0004420  0.0034148 
    4  1685     1  1.6497202 -0.0015546  0.0030398 
    4  1685     2  1.6500167 -0.0021046  0.0020739 
    4  1685     3  1.6527376 -0.0004727  0.0035711 
    4  1685     4  1.6530264 -0.0010268  0.0026016 
    4  1686     1  1.6474857 -0.0006180  0.0036861 
    4  1686     2  1.6444584 -0.0016935  0.0031674 
    4  1686     3  1.6478037 -0.0011372  0.0027063 
    4  1686     4  1.6447830 -0.0022042  0.0021986 
    4  1687     1  1.6592226 -0.0008794  0.0023482 
    4  1687     2  1.6589819 -0.0003081  0.0033318 
    4  1687     3  1.6561865 -0.0019626  0.0018218 
    4  1687     4  1.6559230 -0.0013993  0.0028018 
    4  1688     1  1.6613801 -0.0018442  0.0017178 
    4  1688     2  1.6644670 -0.0007547  0.0022349 
    4  1688     3  1.6611483 -0.0012829  0.0027238 
    4  1688     4  1.6642706 -0.0001828  0.0032438 
    4  1689     1  1.6602380 -0.0013043  0.0028559 
    4  1689     2  1.6604888 -0.0018697  0.0018552 
    4  1689     3  1.6633844 -0.0001888  0.0033906 
    4  1689     4  1.6636018 -0.0007627  0.0023896 
    4  1690     1  1.6580271 -0.0003296  0.0034798 
    4  1690     2  1.6549544 -0.0014270  0.0029453 
    4  1690     3  1.6582868 -0.0008922  0.0025039 
    4  1690     4  1.6552349 -0.0019842  0.0019699 
    4  1691     1  1.6468052 -0.0011514  0.0028204 
    4  1691     2  1.6465510 -0.0006280  0.0038257 
    4  1691     3  1.6436877 -0.0022319  0.0023303 
    4  1691     4  1.6434743 -0.0017028  0.0033274 
    4  1692     1  1.6489951 -0.0021300  0.0022171 
    4  1692     2  1.6520349 -0.0010400  0.0027526 
    4  1692     3  1.6487427 -0.0015713  0.0031820 
    4  1692     4  1.6517524 -0.0004938  0.0037095 
    4  1693     1  1.6478250 -0.0015762  0.0032998 
    4  1693     2  1.6480747 -0.0021389  0.0023776 
    4  1693     3  1.6506565 -0.0005487  0.0038159 
    4  1693     4  1.6510129 -0.0010612  0.0029300 
    4  1694     1  1.6457130 -0.0007095  0.0039359 
    4  1694     2  1.6427589 -0.0017099  0.0035115 
    4  1694     3  1.6459356 -0.0011569  0.0029439 
    4  1694     4  1.6428533 -0.0021892  0.0025237 
    4  1695     1  1.6572857 -0.0009106  0.0026879 
    4  1695     2  1.6570007 -0.0003507  0.0036260 
    4  1695     3  1.6542594 -0.0020124  0.0021307 
    4  1695     4  1.6539738 -0.0014447  0.0030807 
    4  1696     1  1.6595526 -0.0018904  0.0020035 
    4  1696     2  1.6626562 -0.0007682  0.0025639 
    4  1696     3  1.6592648 -0.0013213  0.0029799 
    4  1696     4  1.6624082 -0.0001922  0.0035361 
    4  1697     1  1.6581093 -0.0013554  0.0030824 
    4  1697     2  1.6584950 -0.0019515  0.0021509 
    4  1697     3  1.6612485 -0.0001897  0.0036906 
    4  1697     4  1.6615511 -0.0008026  0.0027621 
    4  1698     1  1.6557313 -0.0003800  0.0037619 
    4  1698     2  1.6529288 -0.0014300  0.0032064 
    4  1698     3  1.6560978 -0.0009076  0.0029358 
    4  1698     4  1.6533024 -0.0019798  0.0023481 
    4  1699     1  1.6451360 -0.0011995  0.0029472 
    4  1699     2  1.6450477 -0.0008403  0.0039700 
    4  1699     3  1.6421970 -0.0020622  0.0028500 
    4  1699     4  1.6424814 -0.0016553  0.0037208 
    4  1700     1  1.6474341 -0.0019219  0.0026371 
    4  1700     2  1.6496365 -0.0009717  0.0032507 
    4  1700     3  1.6471355 -0.0014719  0.0033680 
    4  1700     4  1.6491187 -0.0007083  0.0037910 
    4  1701     1  1.6462969 -0.0009678  0.0035891 
    4  1701     2  1.6445647 -0.0018154  0.0041389 
    4  1701     3  1.6451875 -0.0005817  0.0034023 
    4  1701     4  1.6442092 -0.0013061  0.0038554 
    4  1702     1  1.6375029 -0.0019399  0.0037789 
    4  1702     2  1.6375137 -0.0023565  0.0026976 
    4  1702     3  1.6407355 -0.0008899  0.0041534 
    4  1702     4  1.6408115 -0.0013040  0.0030315 
    4  1703     1  1.6355865 -0.0010617  0.0042532 
    4  1703     2  1.6321662 -0.0021331  0.0039646 
    4  1703     3  1.6356125 -0.0014055  0.0031240 
    4  1703     4  1.6322181 -0.0024783  0.0028074 
    4  1704     1  1.6360097 -0.0013041  0.0029214 
    4  1704     2  1.6358280 -0.0009151  0.0042230 
    4  1704     3  1.6320943 -0.0025466  0.0025433 
    4  1704     4  1.6323100 -0.0020647  0.0037851 
    4  1705     1  1.6384363 -0.0024172  0.0024301 
    4  1705     2  1.6415366 -0.0013446  0.0029155 
    4  1705     3  1.6382583 -0.0018169  0.0034278 
    4  1705     4  1.6413519 -0.0007290  0.0039394 
    4  1706     1  1.6353171 -0.0013462  0.0031577 
    4  1706     2  1.6354334 -0.0008732  0.0043678 
    4  1706     3  1.6318075 -0.0024710  0.0027890 
    4  1706     4  1.6316413 -0.0020869  0.0039741 
    4  1707     1  1.6371725 -0.0022473  0.0028417 
    4  1707     2  1.6404959 -0.0012454  0.0029597 
    4  1707     3  1.6373749 -0.0019483  0.0039629 
    4  1707     4  1.6409002 -0.0008653  0.0041829 
    4  1708     1  1.6377842 -0.0021473  0.0042535 
    4  1708     2  1.6374856 -0.0021497  0.0027822 
    4  1708     3  1.6427267 -0.0006656  0.0042301 
    4  1708     4  1.6414587 -0.0009612  0.0028076 
    4  1709     1  1.6351073 -0.0007368  0.0047371 
    4  1709     2  1.6309869 -0.0020937  0.0042208 
    4  1709     3  1.6350334 -0.0014155  0.0034394 
    4  1709     4  1.6311595 -0.0026980  0.0029406 
    4  1710     1  1.6390639 -0.0018485  0.0033159 
    4  1710     2  1.6394652 -0.0022920  0.0023166 
    4  1710     3  1.6421667 -0.0007608  0.0038282 
    4  1710     4  1.6425447 -0.0012228  0.0028062 
    4  1711     1  1.6366623 -0.0007780  0.0039042 
    4  1711     2  1.6335414 -0.0020245  0.0031940 
    4  1711     3  1.6371311 -0.0015028  0.0030009 
    4  1711     4  1.6344073 -0.0025413  0.0024358 
    4  1712     1  1.6386780 -0.0014829  0.0029412 
    4  1712     2  1.6382909 -0.0009516  0.0037063 
    4  1712     3  1.6362230 -0.0024427  0.0024049 
    4  1712     4  1.6357852 -0.0018902  0.0032100 
    4  1713     1  1.6409071 -0.0023592  0.0021769 
    4  1713     2  1.6437402 -0.0013188  0.0027101 
    4  1713     3  1.6404587 -0.0018118  0.0030908 
    4  1713     4  1.6433532 -0.0007431  0.0036437 
    4  1714     1  1.6420062 -0.0017363  0.0028935 
    4  1714     2  1.6424745 -0.0022354  0.0020462 
    4  1714     3  1.6446390 -0.0007372  0.0034339 
    4  1714     4  1.6451056 -0.0012546  0.0025617 
    4  1715     1  1.6396808 -0.0009512  0.0035943 
    4  1715     2  1.6368583 -0.0019095  0.0031813 
    4  1715     3  1.6402304 -0.0012667  0.0026279 
    4  1715     4  1.6372765 -0.0022750  0.0021845 
    4  1716     1  1.6416991 -0.0011382  0.0024309 
    4  1716     2  1.6409101 -0.0004899  0.0034108 
    4  1716     3  1.6387521 -0.0022827  0.0017973 
    4  1716     4  1.6383099 -0.0016522  0.0026682 
    4  1717     1  1.6445620 -0.0021689  0.0019066 
    4  1717     2  1.6465063 -0.0013172  0.0024274 
    4  1717     3  1.6441174 -0.0015282  0.0024688 
    4  1717     4  1.6461679 -0.0005959  0.0030459 
    4  1718     1  1.6319147 -0.0021632  0.0034349 
    4  1718     2  1.6320083 -0.0022617  0.0023145 
    4  1718     3  1.6348277 -0.0012800  0.0035619 
    4  1718     4  1.6352370 -0.0012827  0.0024562 
    4  1719     1  1.6300828 -0.0015358  0.0035239 
    4  1719     2  1.6269734 -0.0024965  0.0037411 
    4  1719     3  1.6300733 -0.0012695  0.0023538 
    4  1719     4  1.6266471 -0.0023314  0.0026077 
    4  1720     1  1.6298515 -0.0011995  0.0020153 
    4  1720     2  1.6299291 -0.0016342  0.0032656 
    4  1720     3  1.6261537 -0.0023630  0.0023444 
    4  1720     4  1.6263970 -0.0027547  0.0036050 
    4  1721     1  1.6323270 -0.0024528  0.0020477 
    4  1721     2  1.6366395 -0.0011537  0.0021593 
    4  1721     3  1.6322901 -0.0023274  0.0035335 
    4  1721     4  1.6359798 -0.0012267  0.0035118 
    4  1722     1  1.6299515 -0.0012857  0.0025779 
    4  1722     2  1.6301366 -0.0016598  0.0034993 
    4  1722     3  1.6274837 -0.0021865  0.0030779 
    4  1722     4  1.6280310 -0.0023547  0.0037659 
    4  1723     1  1.6318558 -0.0022605  0.0025114 
    4  1723     2  1.6343500 -0.0014394  0.0028852 
    4  1723     3  1.6318161 -0.0020352  0.0034530 
    4  1723     4  1.6339422 -0.0013717  0.0036267 
    4  1724     1  1.6309477 -0.0018369  0.0032293 
    4  1724     2  1.6308490 -0.0026164  0.0035447 
    4  1724     3  1.6313379 -0.0010373  0.0036649 
    4  1724     4  1.6311644 -0.0018361  0.0037981 
    4  1725     1  1.6452600 -0.0016555  0.0024237 
    4  1725     2  1.6460429 -0.0020925  0.0017994 
    4  1725     3  1.6475864 -0.0007905  0.0028846 
    4  1725     4  1.6479538 -0.0013007  0.0022650 
    4  1726     1  1.6437600 -0.0002867  0.0022566 
    4  1726     2  1.6435261 -0.0016615  0.0020582 
    4  1726     3  1.6430904 -0.0017584  0.0027607 
    4  1726     4  1.6430856 -0.0024345  0.0024747 
    4  1727     1  1.6456165 -0.0020384  0.0019032 
    4  1727     2  1.6493258 -0.0009317  0.0018903 
    4  1727     3  1.6462698 -0.0019931  0.0031149 
    4  1727     4  1.6489590 -0.0011635  0.0028851 
    4  1728     1  1.6424452 -0.0012023  0.0025346 
    4  1728     2  1.6390355 -0.0025486  0.0032939 
    4  1728     3  1.6417438 -0.0003993  0.0013988 
    4  1728     4  1.6385281 -0.0018192  0.0022948 
    4  1729     1  1.6406817 -0.0006326  0.0012260 
    4  1729     2  1.6412078 -0.0012807  0.0023887 
    4  1729     3  1.6371479 -0.0019129  0.0018674 
    4  1729     4  1.6375759 -0.0025908  0.0030392 
    4  1730     1  1.6432808 -0.0017099  0.0018967 
    4  1730     2  1.6463795 -0.0004852  0.0012036 
    4  1730     3  1.6437297 -0.0024068  0.0028785 
    4  1730     4  1.6468813 -0.0011994  0.0022209 
    4  1731     1  1.6455699 -0.0024742  0.0029720 
    4  1731     2  1.6450009 -0.0015799  0.0020759 
    4  1731     3  1.6485595 -0.0012141  0.0022210 
    4  1731     4  1.6479685 -0.0003981  0.0013936 
    4  1732     1  1.6370015 -0.0009529  0.0058351 
    4  1732     2  1.6366201 -0.0005318  0.0074253 
    4  1732     3  1.6320685 -0.0025282  0.0053285 
    4  1732     4  1.6316983 -0.0020986  0.0069346 
    4  1733     1  1.6403460 -0.0022747  0.0049168 
    4  1733     2  1.6453861 -0.0006813  0.0053921 
    4  1733     3  1.6399449 -0.0019053  0.0065558 
    4  1733     4  1.6450327 -0.0003006  0.0070226 
    4  1734     1  1.6383492 -0.0019284  0.0067744 
    4  1734     2  1.6389243 -0.0023341  0.0051506 
    4  1734     3  1.6434554 -0.0002935  0.0073083 
    4  1734     4  1.6439122 -0.0007264  0.0057025 
    4  1735     1  1.6349208 -0.0005723  0.0077040 
    4  1735     2  1.6303131 -0.0020636  0.0071817 
    4  1735     3  1.6354543 -0.0009653  0.0062472 
    4  1735     4  1.6308353 -0.0024814  0.0056671 
    4  1736     1  1.6183369 -0.0013756  0.0068191 
    4  1736     2  1.6182805 -0.0012965  0.0084579 
    4  1736     3  1.6137551 -0.0027333  0.0070700 
    4  1736     4  1.6142631 -0.0025028  0.0084075 
    4  1737     1  1.6218962 -0.0024811  0.0063306 
    4  1737     2  1.6257079 -0.0011572  0.0070506 
    4  1737     3  1.6214233 -0.0021778  0.0076760 
    4  1737     4  1.6248393 -0.0010648  0.0080961 
    4  1738     1  1.6199803 -0.0014868  0.0078594 
    4  1738     2  1.6180057 -0.0028834  0.0087666 
    4  1738     3  1.6188312 -0.0006991  0.0079553 
    4  1738     4  1.6176841 -0.0019365  0.0085973 
    4  1739     1  1.5674288 -0.0026345  0.0043952 
    4  1739     2  1.5673494 -0.0044244  0.0041832 
    4  1739     3  1.5663783 -0.0045645  0.0051109 
    4  1739     4  1.5665347 -0.0054919  0.0048077 
    4  1740     1  1.5700397 -0.0043975  0.0041033 
    4  1740     2  1.5735199 -0.0031684  0.0035000 
    4  1740     3  1.5710281 -0.0050257  0.0050870 
    4  1740     4  1.5739466 -0.0038731  0.0044370 
    4  1741     1  1.5697724 -0.0049926  0.0049252 
    4  1741     2  1.5711566 -0.0049029  0.0033499 
    4  1741     3  1.5748365 -0.0034656  0.0051012 
    4  1741     4  1.5746775 -0.0037771  0.0037899 
    4  1742     1  1.6454479 -0.0001434  0.0061473 
    4  1742     2  1.6449852 -0.0001551  0.0084542 
    4  1742     3  1.6385550 -0.0022189  0.0059564 
    4  1742     4  1.6380363 -0.0022489  0.0082358 
    4  1743     1  1.6497363 -0.0019399  0.0052234 
    4  1743     2  1.6566421  0.0001360  0.0053681 
    4  1743     3  1.6493070 -0.0019814  0.0075088 
    4  1743     4  1.6562619  0.0001097  0.0076677 
    4  1744     1  1.6478704 -0.0020448  0.0078367 
    4  1744     2  1.6482534 -0.0019318  0.0055209 
    4  1744     3  1.6549389  0.0000758  0.0079352 
    4  1744     4  1.6552821  0.0001769  0.0055939 
    4  1745     1  1.6435420 -0.0001611  0.0087625 
    4  1745     2  1.6364320 -0.0022962  0.0086207 
    4  1745     3  1.6439552 -0.0000774  0.0063999 
    4  1745     4  1.6368912 -0.0021983  0.0062839 
    4  1746     1  1.5491562 -0.0052169  0.0132835 
    4  1746     2  1.5554629 -0.0031969  0.0139525 
    4  1746     3  1.5479562 -0.0049068  0.0153031 
    4  1746     4  1.5543222 -0.0028724  0.0159646 
    4  1747     1  1.5444678 -0.0050372  0.0158961 
    4  1747     2  1.5457872 -0.0054788  0.0139240 
    4  1747     3  1.5507769 -0.0029758  0.0166533 
    4  1747     4  1.5519713 -0.0034443  0.0147002 
    4  1748     1  1.5393138 -0.0035181  0.0172829 
    4  1748     2  1.5335171 -0.0054265  0.0165544 
    4  1748     3  1.5405311 -0.0039417  0.0154752 
    4  1748     4  1.5346997 -0.0058857  0.0146848 
    4  1749     1  1.5440708 -0.0037326  0.0146770 
    4  1749     2  1.5429034 -0.0033428  0.0166490 
    4  1749     3  1.5378624 -0.0057444  0.0139645 
    4  1749     4  1.5366969 -0.0053524  0.0159412 
    4  1750     1  1.6859734  0.0001812  0.0047408 
    4  1750     2  1.6837700 -0.0014971  0.0057925 
    4  1750     3  1.6846437  0.0008857  0.0049334 
    4  1750     4  1.6833707 -0.0005340  0.0056568 
    4  1751     1  1.6840847  0.0007064  0.0036295 
    4  1751     2  1.6839558  0.0003091  0.0056043 
    4  1751     3  1.6783377 -0.0011123  0.0042902 
    4  1751     4  1.6789350 -0.0012223  0.0058655 
    4  1752     1  1.6885873 -0.0007375  0.0029014 
    4  1752     2  1.6936648  0.0007859  0.0034838 
    4  1752     3  1.6878398 -0.0009612  0.0047137 
    4  1752     4  1.6924116  0.0004103  0.0049363 
    4  1753     1  1.7405722 -0.0005021  0.0005111 
    4  1753     2  1.7401784 -0.0003588 -0.0001953 
    4  1753     3  1.7437833  0.0005262  0.0001757 
    4  1753     4  1.7427632  0.0004659 -0.0004568 
    4  1754     1  1.7385588  0.0004593  0.0004048 
    4  1754     2  1.7351974 -0.0005513  0.0004739 
    4  1754     3  1.7383561  0.0004382 -0.0004459 
    4  1754     4  1.7351670 -0.0005207 -0.0003795 
    4  1755     1  1.7380045  0.0004090 -0.0004283 
    4  1755     2  1.7381461  0.0003897  0.0003555 
    4  1755     3  1.7350738 -0.0004728 -0.0003640 
    4  1755     4  1.7350885 -0.0005283  0.0003976 
    4  1756     1  1.7395145 -0.0003862 -0.0002237 
    4  1756     2  1.7418317  0.0003274 -0.0003852 
    4  1756     3  1.7396762 -0.0004373  0.0003548 
    4  1756     4  1.7421563  0.0003122  0.0002654 
    4  1757     1  1.7459974  0.0000247  0.0001316 
    4  1757     2  1.7457962 -0.0002190  0.0002999 
    4  1757     3  1.7459268  0.0001909  0.0002425 
    4  1757     4  1.7457992 -0.0000341  0.0003347 
    4  1758     1  1.7452084  0.0001547 -0.0002972 
    4  1758     2  1.7453139  0.0002307  0.0002611 
    4  1758     3  1.7432587 -0.0004190 -0.0001773 
    4  1758     4  1.7435109 -0.0003077  0.0002727 
    4  1759     1  1.7469681 -0.0001442 -0.0003066 
    4  1759     2  1.7490198  0.0004348 -0.0002200 
    4  1759     3  1.7467243 -0.0003515  0.0002623 
    4  1759     4  1.7485188  0.0001800  0.0002332 
    4  1760     1  1.5013863 -0.0085902  0.0005640 
    4  1760     2  1.5019007 -0.0085560 -0.0010775 
    4  1760     3  1.5083089 -0.0065098  0.0006815 
    4  1760     4  1.5066854 -0.0071128 -0.0009236 
    4  1761     1  1.4998352 -0.0060820  0.0007429 
    4  1761     2  1.5000681 -0.0092074  0.0006178 
    4  1761     3  1.4978025 -0.0088054  0.0020354 
    4  1761     4  1.4984438 -0.0099370  0.0016410 
    4  1762     1  1.5022999 -0.0079059 -0.0010034 
    4  1762     2  1.5051800 -0.0070477 -0.0006340 
    4  1762     3  1.5028599 -0.0069833 -0.0001829 
    4  1762     4  1.5057547 -0.0061164  0.0001926 
    5     1     1 -0.9180930  0.3922170  0.1803029 
    5     1     2  0.0270237  0.6757237 -0.1088561 
    5     1     3 -1.1659908 -0.4340062  0.5111077 
    5     1     4 -0.2208741 -0.1504995  0.2219531 
    5     2     1 -0.2779669 -4.8329097  3.3495613 
    5     2     2 -5.4056966 -21.921556  5.2600225 
    5     2     3 -5.7371200 -6.4683759  9.3308924 
    5     2     4 -10.864850 -23.557022  11.240447 
    5     3     1  0.4990450 -6.4680790  4.0000657 
    5     3     2 -1.1561436 -6.9648518  2.4652257 
    5     3     3 -0.8166088 -10.852800  3.4207482 
    5     3     4 -2.4717974 -11.349573  1.8859702 
    5     4     1 -3.2572502 -5.7124438  4.3902810 
    5     4     2 -2.8770687 -4.4453659  4.5930083 
    5     4     3 -3.8364168 -5.8862824  3.9467907 
    5     4     4 -3.4562353 -4.6192044  4.1495125 
    6     1     1  1.1522779 -0.0418313  0.0606678 
    6     1     2  1.1513318 -0.0429911  0.0549183 
    6     1     3  1.1800271 -0.0332963  0.0626144 
    6     1     4  1.1794705 -0.0344584  0.0560938 
    6     2     1  1.1222678 -0.0436902  0.0687899 
    6     2     2  1.0798574 -0.0563795  0.0709998 
    6     2     3  1.1222182 -0.0381930  0.0551669 
    6     2     4  1.0798712 -0.0523756  0.0611118 
    6     3     1  1.1274331 -0.0457896  0.0517559 
    6     3     2  1.1262794 -0.0312268  0.0615280 
    6     3     3  1.1002807 -0.0567790  0.0448475 
    6     3     4  1.0980116 -0.0477837  0.0509095 
    6     4     1  1.1547626 -0.0475214  0.0452960 
    6     4     2  1.1820027 -0.0373850  0.0508596 
    6     4     3  1.1546821 -0.0417888  0.0507162 
    6     4     4  1.1835535 -0.0299751  0.0576228 
    6     5     1  1.1265179 -0.0359044  0.0667131 
    6     5     2  1.1296206 -0.0465206  0.0654062 
    6     5     3  1.1160780 -0.0488332  0.0731630 
    6     5     4  1.1214119 -0.0532544  0.0703328 
    6     6     1  1.1411473 -0.0455645  0.0583442 
    6     6     2  1.1776168 -0.0345774  0.0596559 
    6     6     3  1.1509726 -0.0422812  0.0663880 
    6     6     4  1.1799933 -0.0335571  0.0669835 
    6     7     1  1.1439552 -0.0419375  0.0673416 
    6     7     2  1.1512912 -0.0426465  0.0618494 
    6     7     3  1.1751731 -0.0318360  0.0708795 
    6     7     4  1.1760572 -0.0343579  0.0652199 
    6     8     1  1.0319439 -0.0660743  0.0517483 
    6     8     2  1.0758115 -0.0528968  0.0510481 
    6     8     3  1.0275285 -0.0685759  0.0660038 
    6     8     4  1.0660723 -0.0569535  0.0648557 
    6     9     1  1.0142885 -0.0685352  0.0779373 
    6     9     2  1.0192874 -0.0624327  0.0643708 
    6     9     3  1.0567161 -0.0557985  0.0759512 
    6     9     4  1.0579299 -0.0507696  0.0623802 
    6    10     1  0.9863613 -0.0689452  0.0832883 
    6    10     2  0.9492430 -0.0801717  0.0847415 
    6    10     3  0.9915125 -0.0648116  0.0701989 
    6    10     4  0.9533007 -0.0763885  0.0717931 
    6    11     1  1.0040022 -0.0637797  0.0545748 
    6    11     2  0.9995973 -0.0720027  0.0682935 
    6    11     3  0.9646539 -0.0758331  0.0577522 
    6    11     4  0.9590905 -0.0844722  0.0716838 
    6    12     1  1.0074044 -0.0645168  0.0770012 
    6    12     2  1.0491861 -0.0519702  0.0763255 
    6    12     3  1.0065660 -0.0661176  0.0907992 
    6    12     4  1.0445940 -0.0546874  0.0900738 
    6    13     1  0.9981497 -0.0648838  0.1021576 
    6    13     2  0.9995248 -0.0588891  0.0887807 
    6    13     3  1.0411582 -0.0519046  0.0995634 
    6    13     4  1.0385978 -0.0470004  0.0861922 
    6    14     1  0.9710475 -0.0647418  0.1094908 
    6    14     2  0.9330332 -0.0762539  0.1111921 
    6    14     3  0.9727004 -0.0609694  0.0962276 
    6    14     4  0.9337663 -0.0727939  0.0981066 
    6    15     1  0.9813709 -0.0622828  0.0823315 
    6    15     2  0.9799207 -0.0690901  0.0958576 
    6    15     3  0.9421346 -0.0742632  0.0852543 
    6    15     4  0.9397087 -0.0814297  0.0989823 
    6    16     1  1.1104402 -0.0412742  0.0729360 
    6    16     2  1.1075826 -0.0359248  0.0845592 
    6    16     3  1.0738971 -0.0529355  0.0690538 
    6    16     4  1.0718373 -0.0489633  0.0776533 
    6    17     1  1.1407267 -0.0422018  0.0655529 
    6    17     2  1.1685821 -0.0334084  0.0683125 
    6    17     3  1.1396733 -0.0394092  0.0715029 
    6    17     4  1.1690353 -0.0296299  0.0754004 
    6    18     1  1.1355766 -0.0412134  0.0814508 
    6    18     2  1.1342801 -0.0395524  0.0751455 
    6    18     3  1.1648346 -0.0325352  0.0804946 
    6    18     4  1.1649290 -0.0302100  0.0733629 
    6    19     1  1.1070686 -0.0407532  0.0892485 
    6    19     2  1.0636759 -0.0543293  0.0935446 
    6    19     3  1.1042757 -0.0338783  0.0761308 
    6    19     4  1.0612607 -0.0492822  0.0837532 
    6    20     1  0.9666416 -0.0568898  0.1067454 
    6    20     2  0.9690043 -0.0625618  0.1200455 
    6    20     3  0.9271055 -0.0690814  0.1099432 
    6    20     4  0.9289601 -0.0748894  0.1232407 
    6    21     1  0.9920537 -0.0587267  0.1002516 
    6    21     2  1.0342020 -0.0459927  0.0986544 
    6    21     3  0.9938888 -0.0609588  0.1138078 
    6    21     4  1.0308595 -0.0497789  0.1123571 
    6    22     1  0.9918821 -0.0579352  0.1231578 
    6    22     2  0.9878186 -0.0535286  0.1103271 
    6    22     3  1.0285035 -0.0467073  0.1204910 
    6    22     4  1.0239816 -0.0422054  0.1071459 
    6    23     1  0.9694682 -0.0561680  0.1308986 
    6    23     2  0.9295271 -0.0684964  0.1340371 
    6    23     3  0.9649995 -0.0513887  0.1173060 
    6    23     4  0.9243011 -0.0640299  0.1206831 
    6    24     1  1.0939577 -0.0375413  0.0940154 
    6    24     2  1.0912733 -0.0329193  0.1050022 
    6    24     3  1.0582594 -0.0489930  0.0901757 
    6    24     4  1.0567515 -0.0452572  0.0986905 
    6    25     1  1.1244533 -0.0382177  0.0841805 
    6    25     2  1.1539800 -0.0291122  0.0865393 
    6    25     3  1.1230346 -0.0354656  0.0909524 
    6    25     4  1.1543194 -0.0253093  0.0945495 
    6    26     1  1.1118114 -0.0391460  0.1018402 
    6    26     2  1.1119758 -0.0306323  0.0946620 
    6    26     3  1.1420494 -0.0293731  0.0966978 
    6    26     4  1.1445688 -0.0171929  0.0866636 
    6    27     1  1.0931373 -0.0358358  0.1120481 
    6    27     2  1.0509757 -0.0484307  0.1128538 
    6    27     3  1.0882949 -0.0347099  0.0987009 
    6    27     4  1.0459723 -0.0475511  0.1005448 
    6    28     1  1.1272934 -0.0388269  0.0865302 
    6    28     2  1.1341409 -0.0386181  0.0802747 
    6    28     3  1.1570189 -0.0296479  0.0885829 
    6    28     4  1.1580317 -0.0310472  0.0826083 
    6    29     1  1.1109059 -0.0319919  0.0874677 
    6    29     2  1.1130169 -0.0422330  0.0855196 
    6    29     3  1.1022937 -0.0446626  0.0931237 
    6    29     4  1.1062345 -0.0487983  0.0901175 
    6    30     1  1.1257478 -0.0414757  0.0783584 
    6    30     2  1.1620004 -0.0306549  0.0772506 
    6    30     3  1.1352444 -0.0407918  0.0860492 
    6    30     4  1.1635883 -0.0321483  0.0845028 
    6    31     1  0.9660668 -0.0463320  0.1253363 
    6    31     2  0.9743243 -0.0502006  0.1387235 
    6    31     3  0.9261930 -0.0588127  0.1289018 
    6    31     4  0.9362017 -0.0620968  0.1420526 
    6    32     1  0.9883665 -0.0494955  0.1172693 
    6    32     2  1.0264883 -0.0373493  0.1132552 
    6    32     3  0.9965118 -0.0543198  0.1305440 
    6    32     4  1.0369689 -0.0414243  0.1262740 
    6    33     1  0.9989755 -0.0493988  0.1375092 
    6    33     2  0.9927431 -0.0440874  0.1235060 
    6    33     3  1.0411847 -0.0359715  0.1331741 
    6    33     4  1.0349691 -0.0306008  0.1190608 
    6    34     1  0.9761999 -0.0449567  0.1451407 
    6    34     2  0.9393951 -0.0565609  0.1487324 
    6    34     3  0.9700742 -0.0396665  0.1314669 
    6    34     4  0.9331872 -0.0513481  0.1351683 
    6    35     1  1.0886293 -0.0245366  0.1017016 
    6    35     2  1.0955824 -0.0331217  0.1145537 
    6    35     3  1.0499041 -0.0381936  0.1082881 
    6    35     4  1.0584643 -0.0453183  0.1197305 
    6    36     1  1.1117150 -0.0349005  0.0980571 
    6    36     2  1.1408446 -0.0227296  0.0908605 
    6    36     3  1.1155331 -0.0453569  0.1088388 
    6    36     4  1.1436646 -0.0333382  0.1016311 
    6    37     1  1.1238517 -0.0418333  0.1136509 
    6    37     2  1.1176841 -0.0241638  0.1030444 
    6    37     3  1.1664238 -0.0216264  0.1006199 
    6    37     4  1.1499750 -0.0085203  0.0929683 
    6    38     1  1.1007069 -0.0318691  0.1199943 
    6    38     2  1.0640292 -0.0448067  0.1261326 
    6    38     3  1.0942732 -0.0239934  0.1062537 
    6    38     4  1.0582807 -0.0364858  0.1119802 
    6    39     1  0.9927902 -0.0382503  0.1298598 
    6    39     2  1.0329545 -0.0252514  0.1249416 
    6    39     3  0.9909676 -0.0480582  0.1442191 
    6    39     4  1.0303531 -0.0352499  0.1393022 
    6    40     1  0.9767817 -0.0447733  0.1520035 
    6    40     2  0.9807784 -0.0340176  0.1374193 
    6    40     3  1.0155963 -0.0322305  0.1472238 
    6    40     4  1.0193604 -0.0216098  0.1327574 
    6    41     1  0.9533841 -0.0392868  0.1605797 
    6    41     2  0.9176154 -0.0507024  0.1646775 
    6    41     3  0.9573449 -0.0294243  0.1466890 
    6    41     4  0.9222103 -0.0406105  0.1506719 
    6    42     1  0.9694999 -0.0334143  0.1382469 
    6    42     2  0.9681367 -0.0423838  0.1520311 
    6    42     3  0.9335558 -0.0448977  0.1423443 
    6    42     4  0.9321703 -0.0539179  0.1562006 
    6    43     1  1.0789740 -0.0263641  0.1338749 
    6    43     2  1.0398712 -0.0392478  0.1389869 
    6    43     3  1.0828668 -0.0156308  0.1186056 
    6    43     4  1.0437834 -0.0281893  0.1232173 
    6    44     1  1.0948614 -0.0165091  0.1097847 
    6    44     2  1.0931511 -0.0303980  0.1244493 
    6    44     3  1.0574217 -0.0295591  0.1162479 
    6    44     4  1.0537534 -0.0444451  0.1315906 
    6    45     1  1.1222691 -0.0282290  0.1011111 
    6    45     2  1.1694025 -0.0126205  0.0946570 
    6    45     3  1.1207640 -0.0424439  0.1208465 
    6    45     4  1.1654026 -0.0257071  0.1119513 
    6    46     1  1.1035625 -0.0310429  0.1240471 
    6    46     2  1.1069860 -0.0229455  0.1080004 
    6    46     3  1.1437393 -0.0186422  0.1208748 
    6    46     4  1.1479226 -0.0103075  0.1047619 
    6    47     1  1.2092601 -0.0168563  0.1064045 
    6    47     2  1.1688200 -0.0296340  0.1104928 
    6    47     3  1.2147374 -0.0063995  0.0895869 
    6    47     4  1.1742207 -0.0188876  0.0930980 
    6    48     1  1.2317224 -0.0052307  0.0823950 
    6    48     2  1.2283241 -0.0105006  0.1017277 
    6    48     3  1.1914674 -0.0173648  0.0838516 
    6    48     4  1.1892819 -0.0215920  0.1000767 
    6    49     1  1.2639619 -0.0200432  0.0698746 
    6    49     2  1.3067345 -0.0071574  0.0677225 
    6    49     3  1.2592269 -0.0285033  0.0902911 
    6    49     4  1.3029092 -0.0142175  0.0848631 
    6    50     1  1.2360562 -0.0182509  0.0923686 
    6    50     2  1.2399508 -0.0139949  0.0761307 
    6    50     3  1.2755630 -0.0065425  0.0921022 
    6    50     4  1.2804456 -0.0018851  0.0752899 
    6    51     1  1.2692460 -0.0242663  0.0858297 
    6    51     2  1.2684202 -0.0074066  0.0697411 
    6    51     3  1.3138612 -0.0078217  0.0768756 
    6    51     4  1.2969359  0.0039180  0.0632472 
    6    52     1  1.2513409 -0.0120011  0.0931153 
    6    52     2  1.2214954 -0.0232876  0.0864848 
    6    52     3  1.2490421 -0.0267260  0.0817480 
    6    52     4  1.2297821 -0.0345935  0.0770115 
    6    53     1  1.2676925 -0.0110712  0.0719067 
    6    53     2  1.2665064 -0.0170753  0.0830724 
    6    53     3  1.2536829 -0.0149851  0.0722899 
    6    53     4  1.2496769 -0.0220137  0.0839972 
    6    54     1  1.2730234 -0.0224415  0.0676138 
    6    54     2  1.2879451 -0.0180552  0.0672879 
    6    54     3  1.2764490 -0.0196843  0.0795503 
    6    54     4  1.2949362 -0.0141744  0.0796643 
    6    55     1  1.3258561 -0.0164763  0.0682223 
    6    55     2  1.3246167 -0.0332546  0.0674386 
    6    55     3  1.3381683 -0.0009066  0.0760938 
    6    55     4  1.3326782 -0.0198829  0.0725907 
    6    56     1  1.3162482  0.0020660  0.0612897 
    6    56     2  1.3185990 -0.0119244  0.0732466 
    6    56     3  1.3005828 -0.0072868  0.0675639 
    6    56     4  1.3030103 -0.0177388  0.0765636 
    6    57     1  1.3249065 -0.0167449  0.0585238 
    6    57     2  1.3415647 -0.0116392  0.0603639 
    6    57     3  1.3293829 -0.0147111  0.0693772 
    6    57     4  1.3426707 -0.0107056  0.0697934 
    6    58     1  1.3449029 -0.0112108  0.0746821 
    6    58     2  1.3016009 -0.0257551  0.0808244 
    6    58     3  1.3522936  0.0026005  0.0566260 
    6    58     4  1.3102283 -0.0106520  0.0612769 
    6    59     1  1.3733268  0.0079270  0.0507735 
    6    59     2  1.3671419 -0.0030783  0.0715764 
    6    59     3  1.3305310 -0.0055787  0.0548208 
    6    59     4  1.3260587 -0.0144413  0.0718835 
    6    60     1  1.4064766 -0.0071562  0.0406147 
    6    60     2  1.4530284  0.0100287  0.0315480 
    6    60     3  1.3973614 -0.0278111  0.0611452 
    6    60     4  1.4455227 -0.0079308  0.0494856 
    6    61     1  1.3710845 -0.0221861  0.0646710 
    6    61     2  1.3797539 -0.0040193  0.0435719 
    6    61     3  1.4184568 -0.0058702  0.0571509 
    6    61     4  1.4259838  0.0118579  0.0362919 
    6    62     1  1.4120334 -0.0169334  0.0589198 
    6    62     2  1.4132741 -0.0014291  0.0427550 
    6    62     3  1.4601699  0.0008316  0.0495036 
    6    62     4  1.4439265  0.0114531  0.0350979 
    6    63     1  1.3936884 -0.0027259  0.0660497 
    6    63     2  1.3635260 -0.0137847  0.0601329 
    6    63     3  1.3938424 -0.0148376  0.0540022 
    6    63     4  1.3738973 -0.0223563  0.0498852 
    6    64     1  1.4176574 -0.0031385  0.0473535 
    6    64     2  1.4151499 -0.0070818  0.0578435 
    6    64     3  1.4037123 -0.0070960  0.0471927 
    6    64     4  1.3981618 -0.0120907  0.0582585 
    6    65     1  1.4244327 -0.0136231  0.0414090 
    6    65     2  1.4408440 -0.0088088  0.0413344 
    6    65     3  1.4258915 -0.0106307  0.0538477 
    6    65     4  1.4459408 -0.0046592  0.0541936 
    6    66     1  1.4760374 -0.0116559  0.0411714 
    6    66     2  1.4766721 -0.0251078  0.0405441 
    6    66     3  1.4872743  0.0013268  0.0479251 
    6    66     4  1.4838775 -0.0141089  0.0450649 
    6    67     1  1.4694415  0.0056489  0.0358898 
    6    67     2  1.4709765 -0.0029670  0.0486264 
    6    67     3  1.4527573 -0.0024637  0.0418486 
    6    67     4  1.4546461 -0.0086161  0.0512073 
    6    68     1  1.4793578 -0.0104871  0.0357367 
    6    68     2  1.4939503 -0.0052681  0.0383857 
    6    68     3  1.4823765 -0.0050561  0.0449235 
    6    68     4  1.4941313 -0.0013786  0.0460119 
    6    69     1  1.4984388 -0.0062409  0.0333636 
    6    69     2  1.4434850 -0.0358534  0.0522806 
    6    69     3  1.5049356  0.0258081  0.0122097 
    6    69     4  1.4552328  0.0013627  0.0277702 
    6    70     1  1.5275902  0.0350029  0.0079182 
    6    70     2  1.5172035 -0.0081223  0.0304584 
    6    70     3  1.4771413  0.0050689  0.0270800 
    6    70     4  1.4634465 -0.0362583  0.0489846 
    6    71     1  1.5547750 -0.0032962  0.0197933 
    6    71     2  1.5946506  0.0325339 -0.0009446 
    6    71     3  1.5444160 -0.0489503  0.0411917 
    6    71     4  1.5849633 -0.0048218  0.0167147 
    6    72     1  1.5272384 -0.0510365  0.0342769 
    6    72     2  1.5322142  0.0052850  0.0080333 
    6    72     3  1.5874880 -0.0075421  0.0076218 
    6    72     4  1.5788445  0.0315972 -0.0092450 
    6    73     1  1.5489259 -0.0264843  0.0423809 
    6    73     2  1.5533969 -0.0085642  0.0399341 
    6    73     3  1.5720750  0.0157031  0.0275158 
    6    73     4  1.5686530  0.0198383  0.0301635 
    6    74     1  1.5375521 -0.0088186  0.0347913 
    6    74     2  1.4993293 -0.0217250  0.0402474 
    6    74     3  1.5480197  0.0019538  0.0179491 
    6    74     4  1.5256553 -0.0059280  0.0218417 
    6    75     1  1.5526872 -0.0012546  0.0368082 
    6    75     2  1.5533510  0.0099491  0.0361342 
    6    75     3  1.5500011 -0.0014084  0.0345069 
    6    75     4  1.5511796  0.0094082  0.0343201 
    6    76     1  1.6215096 -0.0055220 -0.0040149 
    6    76     2  1.6060343 -0.0469965  0.0044154 
    6    76     3  1.6330722  0.0518987  0.0013948 
    6    76     4  1.6141860 -0.0087825  0.0072246 
    6    77     1  1.6270461  0.0209116 -0.0050996 
    6    77     2  1.6252224 -0.0007986  0.0302028 
    6    77     3  1.6018062  0.0075492  0.0065335 
    6    77     4  1.5987207 -0.0105365  0.0352866 
    6    78     1  1.6283542 -0.0349941 -0.0066305 
    6    78     2  1.6461776 -0.0207518  0.0031532 
    6    78     3  1.6405271 -0.0031528  0.0171662 
    6    78     4  1.6535804  0.0025348  0.0206607 
    6    79     1  1.5181471 -0.0022602  0.0054674 
    6    79     2  1.5850415  0.0209154 -0.0050332 
    6    79     3  1.5148243 -0.0207404  0.0342870 
    6    79     4  1.5802820  0.0033901  0.0216397 
    6    80     1  1.4854565 -0.0204919  0.0290782 
    6    80     2  1.4914608 -0.0051828  0.0029180 
    6    80     3  1.5438239 -0.0014823  0.0221461 
    6    80     4  1.5482612  0.0122433 -0.0017829 
    6    81     1  1.4531030  0.0002132  0.0465971 
    6    81     2  1.3994250 -0.0168936  0.0520262 
    6    81     3  1.4577036  0.0102843  0.0264613 
    6    81     4  1.4049903 -0.0057927  0.0301416 
    6    82     1  1.4845260  0.0164037  0.0190848 
    6    82     2  1.4798574 -0.0036585  0.0386725 
    6    82     3  1.4311728 -0.0031033  0.0294262 
    6    82     4  1.4233434 -0.0266525  0.0519994 
    6    83     1  1.3529970 -0.0056355  0.0499338 
    6    83     2  1.3994140  0.0094463  0.0439920 
    6    83     3  1.3472421 -0.0195296  0.0678050 
    6    83     4  1.3940683 -0.0038148  0.0610984 
    6    84     1  1.3259036 -0.0143519  0.0698901 
    6    84     2  1.3303132 -0.0066849  0.0521028 
    6    84     3  1.3695162 -0.0009094  0.0667882 
    6    84     4  1.3736019  0.0063275  0.0499389 
    6    85     1  1.2980712 -0.0031550  0.0851523 
    6    85     2  1.2552422 -0.0162362  0.0880564 
    6    85     3  1.3021868  0.0045011  0.0691754 
    6    85     4  1.2590858 -0.0085704  0.0718705 
    6    86     1  1.3246577  0.0039169  0.0647887 
    6    86     2  1.3205016 -0.0034687  0.0805148 
    6    86     3  1.2833289 -0.0087180  0.0675735 
    6    86     4  1.2777529 -0.0164992  0.0832981 
    6    87     1  1.2801953  0.0030404  0.0735645 
    6    87     2  1.2805056  0.0000296  0.0896422 
    6    87     3  1.2367374 -0.0099434  0.0744153 
    6    87     4  1.2374806 -0.0129011  0.0908793 
    6    88     1  1.3047252 -0.0092327  0.0539628 
    6    88     2  1.3490497  0.0040034  0.0547460 
    6    88     3  1.3060692 -0.0097925  0.0715097 
    6    88     4  1.3512717  0.0037399  0.0716874 
    6    89     1  1.2846446 -0.0082969  0.0712566 
    6    89     2  1.2854313 -0.0079977  0.0560431 
    6    89     3  1.3272972  0.0044934  0.0724842 
    6    89     4  1.3285844  0.0049429  0.0572155 
    6    90     1  1.2596385  0.0011774  0.0912675 
    6    90     2  1.2194888 -0.0107703  0.0918048 
    6    90     3  1.2609525  0.0044465  0.0763205 
    6    90     4  1.2202318 -0.0076105  0.0765508 
    6    91     1  1.4265066  0.0071256  0.0308118 
    6    91     2  1.4270546  0.0050272  0.0498463 
    6    91     3  1.3747467 -0.0081638  0.0296349 
    6    91     4  1.3768033 -0.0099874  0.0501414 
    6    92     1  1.4557839 -0.0138712 -0.0002289 
    6    92     2  1.5109884  0.0029720  0.0037661 
    6    92     3  1.4572831 -0.0113668  0.0243426 
    6    92     4  1.5117750  0.0050543  0.0258409 
    6    93     1  1.4272461 -0.0048800  0.0177663 
    6    93     2  1.4292360 -0.0121890 -0.0000960 
    6    93     3  1.4747116  0.0114938  0.0254063 
    6    93     4  1.4733323  0.0042617  0.0098198 
    6    94     1  1.3875668  0.0073754  0.0513558 
    6    94     2  1.3534896 -0.0034971  0.0479023 
    6    94     3  1.3898143  0.0038135  0.0393291 
    6    94     4  1.3539681 -0.0078303  0.0351039 
    6    95     1  1.2643195 -0.0049729  0.0590832 
    6    95     2  1.3058942  0.0072917  0.0589235 
    6    95     3  1.2587974 -0.0093069  0.0721365 
    6    95     4  1.3028372  0.0036648  0.0720644 
    6    96     1  1.2225803 -0.0101464  0.0770370 
    6    96     2  1.2295045 -0.0045357  0.0626987 
    6    96     3  1.2721768  0.0045331  0.0761643 
    6    96     4  1.2767100  0.0096506  0.0610115 
    6    97     1  1.1902727 -0.0002116  0.1016452 
    6    97     2  1.1610789 -0.0094197  0.0988491 
    6    97     3  1.1952264 -0.0005348  0.0944358 
    6    97     4  1.1728365 -0.0077134  0.0918164 
    6    98     1  1.2332635  0.0023762  0.0832121 
    6    98     2  1.2288624  0.0006570  0.0931330 
    6    98     3  1.2025095 -0.0067925  0.0819550 
    6    98     4  1.1978258 -0.0086171  0.0923915 
    6    99     1  1.3483157  0.0052068  0.0496171 
    6    99     2  1.3013811 -0.0092925  0.0537600 
    6    99     3  1.3414573  0.0114571  0.0347108 
    6    99     4  1.3034314 -0.0013377  0.0400091 
    6   100     1  1.3671902  0.0066087  0.0409488 
    6   100     2  1.3567319  0.0059536  0.0527413 
    6   100     3  1.3287500 -0.0051385  0.0388392 
    6   100     4  1.3262949 -0.0035959  0.0498638 
    6   101     1  1.3775874 -0.0165610  0.0321972 
    6   101     2  1.3669056  0.0003790  0.0274449 
    6   101     3  1.4046434  0.0115923  0.0168598 
    6   101     4  1.3894337  0.0159491  0.0177066 
    6   102     1  1.3612365 -0.0046185  0.0126898 
    6   102     2  1.4353329  0.0218669 -0.0002353 
    6   102     3  1.3593335 -0.0219626  0.0391365 
    6   102     4  1.4313345  0.0064882  0.0223231 
    6   103     1  1.3249848 -0.0217313  0.0315939 
    6   103     2  1.3331205 -0.0038989  0.0069599 
    6   103     3  1.3891070 -0.0003350  0.0227828 
    6   103     4  1.3943081  0.0149960  0.0009199 
    6   104     1  1.2885271  0.0006288  0.0569481 
    6   104     2  1.2363081 -0.0159397  0.0622266 
    6   104     3  1.2944894  0.0100173  0.0413097 
    6   104     4  1.2457892 -0.0048082  0.0449759 
    6   105     1  1.3245728  0.0155329  0.0324643 
    6   105     2  1.3202974  0.0001486  0.0471420 
    6   105     3  1.2814714  0.0004847  0.0401424 
    6   105     4  1.2692515 -0.0187127  0.0572765 
    6   106     1  1.2037368 -0.0038555  0.0695404 
    6   106     2  1.2423671  0.0076663  0.0666551 
    6   106     3  1.1925422 -0.0136350  0.0813764 
    6   106     4  1.2330921 -0.0013507  0.0780232 
    6   107     1  1.1492833 -0.0152427  0.0891140 
    6   107     2  1.1584481 -0.0086426  0.0754565 
    6   107     3  1.1951611 -0.0015400  0.0875414 
    6   107     4  1.2032778  0.0047906  0.0737692 
    6   108     1  1.1070659 -0.0009319  0.1164896 
    6   108     2  1.0659684 -0.0130795  0.1162774 
    6   108     3  1.1161967  0.0039832  0.1029419 
    6   108     4  1.0747720 -0.0083959  0.1035550 
    6   109     1  1.1537740  0.0046040  0.0983862 
    6   109     2  1.1449173  0.0014864  0.1091499 
    6   109     3  1.1167701 -0.0064227  0.0968726 
    6   109     4  1.1100936 -0.0088419  0.1065942 
    6   110     1  1.1477652 -0.0105211  0.0971801 
    6   110     2  1.1771533 -0.0008636  0.1021016 
    6   110     3  1.1492533 -0.0079225  0.1077464 
    6   110     4  1.1750760  0.0001604  0.1101003 
    6   111     1  1.1458073  0.0013968  0.1135378 
    6   111     2  1.1179774 -0.0125928  0.1224220 
    6   111     3  1.1214274  0.0028055  0.1110474 
    6   111     4  1.1071813 -0.0076019  0.1180357 
    6   112     1  1.1259925 -0.0039362  0.1122572 
    6   112     2  1.1308602 -0.0044423  0.1238278 
    6   112     3  1.0899540 -0.0151818  0.1156524 
    6   112     4  1.0996128 -0.0140240  0.1257686 
    6   113     1  1.0441737 -0.0156994  0.1293178 
    6   113     2  1.0775185 -0.0051610  0.1262258 
    6   113     3  1.0615720 -0.0143845  0.1399426 
    6   113     4  1.0915708 -0.0050091  0.1374695 
    6   114     1  1.0522257 -0.0169657  0.1333305 
    6   114     2  1.0547936 -0.0125257  0.1181873 
    6   114     3  1.1068373 -0.0004963  0.1311900 
    6   114     4  1.0906806 -0.0022154  0.1188830 
    6   115     1  1.0306834  0.0074903  0.1431137 
    6   115     2  1.0363041 -0.0128859  0.1413843 
    6   115     3  1.0163245 -0.0169597  0.1522868 
    6   115     4  1.0238473 -0.0263764  0.1488624 
    6   116     1  0.9933745 -0.0051833  0.1495679 
    6   116     2  0.9890242  0.0047549  0.1639182 
    6   116     3  0.9586407 -0.0180724  0.1428522 
    6   116     4  0.9552838 -0.0098417  0.1546645 
    6   117     1  1.0361012 -0.0113836  0.1215387 
    6   117     2  1.0761899  0.0013258  0.1253788 
    6   117     3  1.0306006 -0.0089887  0.1334632 
    6   117     4  1.0698912  0.0035782  0.1375592 
    6   118     1  0.9835994 -0.0128284  0.1451166 
    6   118     2  0.9944808 -0.0020776  0.1304764 
    6   118     3  1.0243355 -0.0014451  0.1437421 
    6   118     4  1.0366907  0.0103546  0.1278726 
    6   119     1  0.9421845 -0.0008014  0.1726695 
    6   119     2  0.8965514 -0.0132638  0.1733901 
    6   119     3  0.9573244  0.0139517  0.1517227 
    6   119     4  0.9102685  0.0001654  0.1542898 
    6   120     1  0.8814647 -0.0162586  0.1665930 
    6   120     2  0.9279497 -0.0025722  0.1657580 
    6   120     3  0.8703063 -0.0257132  0.1887149 
    6   120     4  0.9159544 -0.0119815  0.1868584 
    6   121     1  0.8109653 -0.0206759  0.1985584 
    6   121     2  0.8282213 -0.0063514  0.1769928 
    6   121     3  0.8562478 -0.0075363  0.1968660 
    6   121     4  0.8724342  0.0068015  0.1746138 
    6   122     1  0.7760798 -0.0003626  0.2173458 
    6   122     2  0.7469221 -0.0103388  0.2128299 
    6   122     3  0.7879442 -0.0045464  0.2002771 
    6   122     4  0.7606069 -0.0130066  0.1980916 
    6   123     1  0.8463757 -0.0210716  0.1937565 
    6   123     2  0.8438070 -0.0137413  0.2057030 
    6   123     3  0.8238163 -0.0295949  0.1891357 
    6   123     4  0.8199820 -0.0221854  0.2016605 
    6   124     1  0.9054022 -0.0328234  0.1799232 
    6   124     2  0.9106978 -0.0165460  0.1599093 
    6   124     3  0.9577704 -0.0158000  0.1729954 
    6   124     4  0.9539851 -0.0030522  0.1549492 
    6   125     1  0.8784498 -0.0199261  0.1945140 
    6   125     2  0.8457782 -0.0297601  0.1934051 
    6   125     3  0.8809781 -0.0196575  0.1801037 
    6   125     4  0.8478125 -0.0296738  0.1779870 
    6   126     1  0.9054760 -0.0190007  0.1695590 
    6   126     2  0.9039949 -0.0259544  0.1848447 
    6   126     3  0.8674656 -0.0301933  0.1712413 
    6   126     4  0.8651126 -0.0376727  0.1871939 
    6   127     1  0.9275303 -0.0247957  0.1576421 
    6   127     2  0.9653459 -0.0125471  0.1531527 
    6   127     3  0.9259532 -0.0347630  0.1738744 
    6   127     4  0.9653157 -0.0221247  0.1693902 
    6   128     1  0.7873157 -0.0389669  0.2109106 
    6   128     2  0.7911397 -0.0268122  0.1945313 
    6   128     3  0.8214678 -0.0281790  0.2070276 
    6   128     4  0.8266996 -0.0155010  0.1903736 
    6   129     1  0.7683860 -0.0305485  0.2228948 
    6   129     2  0.7370710 -0.0398465  0.2229918 
    6   129     3  0.7682591 -0.0280862  0.2075802 
    6   129     4  0.7351064 -0.0379259  0.2076590 
    6   130     1  0.7868801 -0.0324113  0.2008122 
    6   130     2  0.7851842 -0.0383487  0.2147099 
    6   130     3  0.7521332 -0.0426233  0.2020997 
    6   130     4  0.7508824 -0.0485388  0.2162577 
    6   131     1  0.8092543 -0.0338899  0.1883168 
    6   131     2  0.8442352 -0.0229447  0.1847339 
    6   131     3  0.8062120 -0.0435948  0.2028575 
    6   131     4  0.8409836 -0.0327818  0.1994047 
    6   132     1  0.7500821 -0.0047247  0.2093301 
    6   132     2  0.7430559 -0.0244809  0.2287327 
    6   132     3  0.7167481 -0.0183355  0.2172356 
    6   132     4  0.7149661 -0.0332389  0.2325466 
    6   133     1  0.7731480 -0.0289255  0.1963391 
    6   133     2  0.8037579 -0.0207338  0.1995738 
    6   133     3  0.7661186 -0.0356695  0.2162217 
    6   133     4  0.7949068 -0.0270943  0.2155696 
    6   134     1  0.7405356 -0.0140759  0.2261452 
    6   134     2  0.7106448 -0.0464064  0.2428576 
    6   134     3  0.7298393  0.0063002  0.2250399 
    6   134     4  0.7123876 -0.0216556  0.2368114 
    6   135     1  0.6780772 -0.0501430  0.2400829 
    6   135     2  0.6784860 -0.0384164  0.2243528 
    6   135     3  0.7159801 -0.0381081  0.2354988 
    6   135     4  0.7162576 -0.0259343  0.2191236 
    6   136     1  0.6573737 -0.0416204  0.2530950 
    6   136     2  0.6188093 -0.0529323  0.2525864 
    6   136     3  0.6551848 -0.0394132  0.2371521 
    6   136     4  0.6172653 -0.0506360  0.2372102 
    6   137     1  0.6721366 -0.0492638  0.2303732 
    6   137     2  0.6701655 -0.0504354  0.2432843 
    6   137     3  0.6361780 -0.0599833  0.2290809 
    6   137     4  0.6333468 -0.0614148  0.2420363 
    6   138     1  0.6968169 -0.0471452  0.2174354 
    6   138     2  0.7307799 -0.0366897  0.2143688 
    6   138     3  0.6931915 -0.0559426  0.2310483 
    6   138     4  0.7283963 -0.0453305  0.2282599 
    6   139     1  0.6392279 -0.0253602  0.2440545 
    6   139     2  0.6370884 -0.0350112  0.2645718 
    6   139     3  0.5995585 -0.0372566  0.2463839 
    6   139     4  0.5958060 -0.0471693  0.2664936 
    6   140     1  0.6634191 -0.0231984  0.2353594 
    6   140     2  0.6993056 -0.0076604  0.2258007 
    6   140     3  0.6581722 -0.0463924  0.2526504 
    6   140     4  0.6957099 -0.0321129  0.2441508 
    6   141     1  0.6432630 -0.0490078  0.2583947 
    6   141     2  0.6430380 -0.0219085  0.2287681 
    6   141     3  0.6958060 -0.0288990  0.2473958 
    6   141     4  0.6904026 -0.0067669  0.2221118 
    6   142     1  0.6155103 -0.0250991  0.2713615 
    6   142     2  0.5682888 -0.0393538  0.2753852 
    6   142     3  0.6162757 -0.0110442  0.2490312 
    6   142     4  0.5720856 -0.0243218  0.2526968 
    6   143     1  0.5248530 -0.0436718  0.2664804 
    6   143     2  0.5725647 -0.0289659  0.2612346 
    6   143     3  0.5189861 -0.0606647  0.2872700 
    6   143     4  0.5662117 -0.0461345  0.2821120 
    6   144     1  0.4888316 -0.0456616  0.2976570 
    6   144     2  0.4956948 -0.0240362  0.2744200 
    6   144     3  0.5387509 -0.0303053  0.2915504 
    6   144     4  0.5454619 -0.0090046  0.2686508 
    6   145     1  0.4587393 -0.0368242  0.3151280 
    6   145     2  0.4121441 -0.0507052  0.3209486 
    6   145     3  0.4656974 -0.0145841  0.2937350 
    6   145     4  0.4188482 -0.0286122  0.2996602 
    6   146     1  0.4937693 -0.0396849  0.2827995 
    6   146     2  0.4887481 -0.0548133  0.3037407 
    6   146     3  0.4470436 -0.0535027  0.2865994 
    6   146     4  0.4425173 -0.0681781  0.3070389 
    6   147     1  0.5430798 -0.0676981  0.2724319 
    6   147     2  0.5462524 -0.0577082  0.2553937 
    6   147     3  0.5907512 -0.0540869  0.2703086 
    6   147     4  0.5921128 -0.0439358  0.2520893 
    6   148     1  0.5133263 -0.0601975  0.2913251 
    6   148     2  0.4689120 -0.0734363  0.2883615 
    6   148     3  0.5142126 -0.0594054  0.2720588 
    6   148     4  0.4692312 -0.0728581  0.2706996 
    6   149     1  0.5353698 -0.0773881  0.2621977 
    6   149     2  0.5317683 -0.0680044  0.2772835 
    6   149     3  0.4873526 -0.0952348  0.2528264 
    6   149     4  0.4890569 -0.0855848  0.2664360 
    6   150     1  0.5814652 -0.0705617  0.2423248 
    6   150     2  0.6098003 -0.0617407  0.2445536 
    6   150     3  0.5771014 -0.0695104  0.2514982 
    6   150     4  0.6074209 -0.0599073  0.2545325 
    6   151     1  0.6879723 -0.0622380  0.2332977 
    6   151     2  0.6496287 -0.0735120  0.2354017 
    6   151     3  0.6899968 -0.0559069  0.2217504 
    6   151     4  0.6525369 -0.0665467  0.2230594 
    6   152     1  0.7065501 -0.0619359  0.2105902 
    6   152     2  0.7017049 -0.0689622  0.2218890 
    6   152     3  0.6709728 -0.0725709  0.2129206 
    6   152     4  0.6664514 -0.0796131  0.2244200 
    6   153     1  0.7321967 -0.0613468  0.1987302 
    6   153     2  0.7652684 -0.0514989  0.1968994 
    6   153     3  0.7273033 -0.0680833  0.2106863 
    6   153     4  0.7609321 -0.0580116  0.2086963 
    6   154     1  0.7105754 -0.0624018  0.2210049 
    6   154     2  0.7128739 -0.0557429  0.2087106 
    6   154     3  0.7439137 -0.0524885  0.2190014 
    6   154     4  0.7474411 -0.0454203  0.2065440 
    6   155     1  0.6000187 -0.0847273  0.2285782 
    6   155     2  0.6443373 -0.0719287  0.2259213 
    6   155     3  0.6052535 -0.0906536  0.2407760 
    6   155     4  0.6418696 -0.0792757  0.2372290 
    6   156     1  0.5873805 -0.0787109  0.2428087 
    6   156     2  0.5964840 -0.0776444  0.2328357 
    6   156     3  0.6253527 -0.0670287  0.2454206 
    6   156     4  0.6277852 -0.0679021  0.2356761 
    6   157     1  0.5753694 -0.0655448  0.2455224 
    6   157     2  0.5795439 -0.0898967  0.2452695 
    6   157     3  0.5540436 -0.0937363  0.2585631 
    6   157     4  0.5630142 -0.1025494  0.2546692 
    6   158     1  0.7191061 -0.0715204  0.2117327 
    6   158     2  0.6818050 -0.0825482  0.2134206 
    6   158     3  0.7195467 -0.0660168  0.1988237 
    6   158     4  0.6826761 -0.0771084  0.2009507 
    6   159     1  0.7303393 -0.0748378  0.1896220 
    6   159     2  0.7295868 -0.0783364  0.2015813 
    6   159     3  0.6955788 -0.0851142  0.1903486 
    6   159     4  0.6939575 -0.0888483  0.2022484 
    6   160     1  0.7546378 -0.0735447  0.1786564 
    6   160     2  0.7928167 -0.0621506  0.1766737 
    6   160     3  0.7536397 -0.0790759  0.1912659 
    6   160     4  0.7919228 -0.0676560  0.1892902 
    6   161     1  0.7426203 -0.0726101  0.2006654 
    6   161     2  0.7434610 -0.0671543  0.1880659 
    6   161     3  0.7782596 -0.0619604  0.1987927 
    6   161     4  0.7807559 -0.0559747  0.1860215 
    6   162     1  0.6310318 -0.1029649  0.2003580 
    6   162     2  0.6677396 -0.0919245  0.2011473 
    6   162     3  0.6277819 -0.1033910  0.2105290 
    6   162     4  0.6662856 -0.0917646  0.2122092 
    6   163     1  0.6163926 -0.1014834  0.2331806 
    6   163     2  0.6144459 -0.0894566  0.2219369 
    6   163     3  0.6544645 -0.0900704  0.2278468 
    6   163     4  0.6565496 -0.0759337  0.2152154 
    6   164     1  0.5768196 -0.1035120  0.2484338 
    6   164     2  0.5088620 -0.1247406  0.2581796 
    6   164     3  0.5742918 -0.0826644  0.2275397 
    6   164     4  0.5129999 -0.1059229  0.2403693 
    6   165     1  0.5859207 -0.1134469  0.2159872 
    6   165     2  0.5833381 -0.1076781  0.2327403 
    6   165     3  0.5357219 -0.1294372  0.2109837 
    6   165     4  0.5366643 -0.1239591  0.2244403 
    6   166     1  0.6345576 -0.1110895  0.2008992 
    6   166     2  0.6384003 -0.1100511  0.1885209 
    6   166     3  0.6798667 -0.0974893  0.2017715 
    6   166     4  0.6744842 -0.0992129  0.1899881 
    6   167     1  0.6136146 -0.0996453  0.2042576 
    6   167     2  0.6056840 -0.1286857  0.1939720 
    6   167     3  0.6039254 -0.1305051  0.2103998 
    6   167     4  0.6006857 -0.1435011  0.2016114 
    6   168     1  0.6307119 -0.1202061  0.1842581 
    6   168     2  0.6749910 -0.1057178  0.1777324 
    6   168     3  0.6472468 -0.1270328  0.1954076 
    6   168     4  0.6796212 -0.1141895  0.1881380 
    6   169     1  0.6340783 -0.1528174  0.1843939 
    6   169     2  0.6284069 -0.1241238  0.1829141 
    6   169     3  0.6602535 -0.1256111  0.1695813 
    6   169     4  0.6528948 -0.1048222  0.1698903 
    6   170     1  0.5916952 -0.1330343  0.1972024 
    6   170     2  0.5473488 -0.1464539  0.2035763 
    6   170     3  0.5805795 -0.1187161  0.1827862 
    6   170     4  0.5494480 -0.1327902  0.1914752 
    6   171     1  0.5971827 -0.1472257  0.1721612 
    6   171     2  0.5912186 -0.1273716  0.1750350 
    6   171     3  0.5648170 -0.1683798  0.1573393 
    6   171     4  0.5696056 -0.1465847  0.1639369 
    6   172     1  0.7364332 -0.0929963  0.1670890 
    6   172     2  0.7394269 -0.0947976  0.1815508 
    6   172     3  0.6938151 -0.1056504  0.1674461 
    6   172     4  0.6987093 -0.1065898  0.1802896 
    6   173     1  0.7620650 -0.0906319  0.1558732 
    6   173     2  0.7918252 -0.0816991  0.1563078 
    6   173     3  0.7656669 -0.0894046  0.1673455 
    6   173     4  0.7990949 -0.0793713  0.1677955 
    6   174     1  0.7619562 -0.0856891  0.1809273 
    6   174     2  0.7559733 -0.0829280  0.1679788 
    6   174     3  0.8017172 -0.0739147  0.1795394 
    6   174     4  0.7946475 -0.0714064  0.1664281 
    6   175     1  0.7402239 -0.0886313  0.1915181 
    6   175     2  0.7016754 -0.1001216  0.1935896 
    6   175     3  0.7346782 -0.0846932  0.1789808 
    6   175     4  0.6946736 -0.0964354  0.1807126 
    6   176     1  0.7638392 -0.0982527  0.1599278 
    6   176     2  0.7665766 -0.0926904  0.1485153 
    6   176     3  0.7940134 -0.0883856  0.1562953 
    6   176     4  0.7919993 -0.0850010  0.1469364 
    6   177     1  0.7469006 -0.0828693  0.1603565 
    6   177     2  0.7325245 -0.1006461  0.1514087 
    6   177     3  0.7442200 -0.1047329  0.1580993 
    6   177     4  0.7340297 -0.1118925  0.1519294 
    6   178     1  0.7587720 -0.0997837  0.1500706 
    6   178     2  0.7896973 -0.0828073  0.1380510 
    6   178     3  0.7667901 -0.1175018  0.1545771 
    6   178     4  0.7904285 -0.1020565  0.1445388 
    6   179     1  0.7064159 -0.1160891  0.1485377 
    6   179     2  0.6885516 -0.1423436  0.1616115 
    6   179     3  0.7067127 -0.0886657  0.1524154 
    6   179     4  0.6882010 -0.1201064  0.1653205 
    6   180     1  0.6781046 -0.1042519  0.1337483 
    6   180     2  0.6830834 -0.1427873  0.1385247 
    6   180     3  0.6271000 -0.1464570  0.1602603 
    6   180     4  0.6430506 -0.1688793  0.1581192 
    6   181     1  0.7219171 -0.1201517  0.1271706 
    6   181     2  0.7754283 -0.0937134  0.1100627 
    6   181     3  0.7255639 -0.1398635  0.1385872 
    6   181     4  0.7745592 -0.1180324  0.1243128 
    6   182     1  0.7528499 -0.1316717  0.1466977 
    6   182     2  0.7470322 -0.1118483  0.1444964 
    6   182     3  0.7806711 -0.1121506  0.1333355 
    6   182     4  0.7806880 -0.0864424  0.1279576 
    6   183     1  0.8452082 -0.0778310  0.1261872 
    6   183     2  0.8472650 -0.0883931  0.1376504 
    6   183     3  0.8087170 -0.0904474  0.1324480 
    6   183     4  0.8120799 -0.1009838  0.1441334 
    6   184     1  0.8679675 -0.0789552  0.1212857 
    6   184     2  0.9037120 -0.0672008  0.1164241 
    6   184     3  0.8701552 -0.0877524  0.1339160 
    6   184     4  0.9046877 -0.0763394  0.1291416 
    6   185     1  0.8723380 -0.0806783  0.1440930 
    6   185     2  0.8675330 -0.0739949  0.1313182 
    6   185     3  0.9067370 -0.0696245  0.1400925 
    6   185     4  0.9022030 -0.0630906  0.1276696 
    6   186     1  0.8503798 -0.0798686  0.1491705 
    6   186     2  0.8142839 -0.0916120  0.1537565 
    6   186     3  0.8465082 -0.0731515  0.1379438 
    6   186     4  0.8107458 -0.0843449  0.1418389 
    6   187     1  0.8709949 -0.0938830  0.1217185 
    6   187     2  0.8715432 -0.0834323  0.1088952 
    6   187     3  0.9073141 -0.0815877  0.1161492 
    6   187     4  0.9094553 -0.0707259  0.1032408 
    6   188     1  0.8459823 -0.0953060  0.1253937 
    6   188     2  0.8085054 -0.1095073  0.1335483 
    6   188     3  0.8462274 -0.0812079  0.1135769 
    6   188     4  0.8056724 -0.0964806  0.1223215 
    6   189     1  0.8524239 -0.0844580  0.0993101 
    6   189     2  0.8480086 -0.0996035  0.1129882 
    6   189     3  0.8089356 -0.1003679  0.1079269 
    6   189     4  0.8077199 -0.1137521  0.1204120 
    6   190     1  0.8791682 -0.0848526  0.0953996 
    6   190     2  0.9165403 -0.0724189  0.0901730 
    6   190     3  0.8752375 -0.0951398  0.1085209 
    6   190     4  0.9127129 -0.0829567  0.1036787 
    6   191     1  0.8477317 -0.0668151  0.1470070 
    6   191     2  0.8550639 -0.0690885  0.1596887 
    6   191     3  0.8108280 -0.0780085  0.1490613 
    6   191     4  0.8188972 -0.0800876  0.1617869 
    6   192     1  0.8684555 -0.0676773  0.1389733 
    6   192     2  0.9050487 -0.0564257  0.1363244 
    6   192     3  0.8763715 -0.0707771  0.1521488 
    6   192     4  0.9150034 -0.0588864  0.1493217 
    6   193     1  0.8778577 -0.0652100  0.1596673 
    6   193     2  0.8719414 -0.0616775  0.1460261 
    6   193     3  0.9180019 -0.0529020  0.1569274 
    6   193     4  0.9115122 -0.0495855  0.1434308 
    6   194     1  0.8565408 -0.0628528  0.1681350 
    6   194     2  0.8221578 -0.0732783  0.1700644 
    6   194     3  0.8505810 -0.0599537  0.1550424 
    6   194     4  0.8151851 -0.0707009  0.1570704 
    6   195     1  0.8354784 -0.0541564  0.1860862 
    6   195     2  0.8016637 -0.0644526  0.1886042 
    6   195     3  0.8383337 -0.0470800  0.1732118 
    6   195     4  0.8049614 -0.0572153  0.1756434 
    6   196     1  0.8490001 -0.0523879  0.1639365 
    6   196     2  0.8487599 -0.0588585  0.1768063 
    6   196     3  0.8159444 -0.0624684  0.1664571 
    6   196     4  0.8149885 -0.0691669  0.1794008 
    6   197     1  0.8711953 -0.0543416  0.1546140 
    6   197     2  0.9099975 -0.0424266  0.1515137 
    6   197     3  0.8710705 -0.0609281  0.1679373 
    6   197     4  0.9094014 -0.0491680  0.1648953 
    6   198     1  0.8582690 -0.0568414  0.1767148 
    6   198     2  0.8614343 -0.0491193  0.1632821 
    6   198     3  0.8944098 -0.0457388  0.1737417 
    6   198     4  0.8982571 -0.0378337  0.1603048 
    6   199     1  0.8462571 -0.0443956  0.1723436 
    6   199     2  0.8813701 -0.0336426  0.1693684 
    6   199     3  0.8417244 -0.0528331  0.1854791 
    6   199     4  0.8764634 -0.0421831  0.1825148 
    6   200     1  0.8236921 -0.0482806  0.1941241 
    6   200     2  0.8281542 -0.0390646  0.1807220 
    6   200     3  0.8583419 -0.0376298  0.1909278 
    6   200     4  0.8630115 -0.0282811  0.1773924 
    6   201     1  0.8012526 -0.0447621  0.2049754 
    6   201     2  0.7674281 -0.0549781  0.2073145 
    6   201     3  0.8049963 -0.0376261  0.1924052 
    6   201     4  0.7714218 -0.0476622  0.1945130 
    6   202     1  0.8229565 -0.0414773  0.1828869 
    6   202     2  0.8184964 -0.0498463  0.1956906 
    6   202     3  0.7891751 -0.0517371  0.1856384 
    6   202     4  0.7843413 -0.0602248  0.1984818 
    6   203     1  0.9191553 -0.0317973  0.1769837 
    6   203     2  0.8821196 -0.0433027  0.1804198 
    6   203     3  0.9232295 -0.0230856  0.1631514 
    6   203     4  0.8866933 -0.0342871  0.1662724 
    6   204     1  0.9414419 -0.0258143  0.1550398 
    6   204     2  0.9364480 -0.0361005  0.1687752 
    6   204     3  0.9055710 -0.0371249  0.1590025 
    6   204     4  0.8999729 -0.0476908  0.1729398 
    6   205     1  0.9650125 -0.0311775  0.1451587 
    6   205     2  1.0023754 -0.0193485  0.1410912 
    6   205     3  0.9599011 -0.0413302  0.1594806 
    6   205     4  0.9965355 -0.0296539  0.1553669 
    6   206     1  0.9418507 -0.0377170  0.1668290 
    6   206     2  0.9463742 -0.0273550  0.1525842 
    6   206     3  0.9780046 -0.0262320  0.1627400 
    6   206     4  0.9827355 -0.0156903  0.1482966 
    6   207     1  1.0278692 -0.0093278  0.1378710 
    6   207     2  1.0311741 -0.0155682  0.1541781 
    6   207     3  0.9866182 -0.0223080  0.1416652 
    6   207     4  0.9884317 -0.0288018  0.1576168 
    6   208     1  1.0492495 -0.0180584  0.1262971 
    6   208     2  1.0890774 -0.0052779  0.1220453 
    6   208     3  1.0526320 -0.0242442  0.1417764 
    6   208     4  1.0920622 -0.0118956  0.1382300 
    6   209     1  1.0565536 -0.0215451  0.1423848 
    6   209     2  1.0471800 -0.0177458  0.1296264 
    6   209     3  1.0874885 -0.0115253  0.1388522 
    6   209     4  1.0820183 -0.0066441  0.1260172 
    6   210     1  1.0296865 -0.0091132  0.1538587 
    6   210     2  0.9799656 -0.0264744  0.1619267 
    6   210     3  1.0170082  0.0005445  0.1354918 
    6   210     4  0.9728766 -0.0176211  0.1466494 
    6   211     1  1.0409797 -0.0208684  0.1484381 
    6   211     2  1.0021657 -0.0329414  0.1518673 
    6   211     3  1.0447037 -0.0126927  0.1339648 
    6   211     4  1.0062160 -0.0245971  0.1372301 
    6   212     1  1.0645040 -0.0136988  0.1267925 
    6   212     2  1.0593496 -0.0233702  0.1414918 
    6   212     3  1.0270569 -0.0254551  0.1305348 
    6   212     4  1.0211650 -0.0354239  0.1454237 
    6   213     1  1.0887810 -0.0205827  0.1154881 
    6   213     2  1.1272914 -0.0086576  0.1121655 
    6   213     3  1.0837968 -0.0295268  0.1306017 
    6   213     4  1.1216685 -0.0177941  0.1273236 
    6   214     1  1.0648229 -0.0271244  0.1367179 
    6   214     2  1.0684694 -0.0193487  0.1219699 
    6   214     3  1.1019005 -0.0156626  0.1337065 
    6   214     4  1.1059145 -0.0077375  0.1188511 
    6   215     1  1.1518733 -0.0027425  0.1081247 
    6   215     2  1.1529290 -0.0070090  0.1230472 
    6   215     3  1.1110604 -0.0150939  0.1101519 
    6   215     4  1.1137246 -0.0188587  0.1249462 
    6   216     1  1.1744307 -0.0117411  0.0921324 
    6   216     2  1.2136585 -0.0000277  0.0912488 
    6   216     3  1.1753310 -0.0148463  0.1077489 
    6   216     4  1.2144292 -0.0031185  0.1066223 
    6   217     1  1.1602709 -0.0125375  0.1088885 
    6   217     2  1.1584211 -0.0119650  0.0938827 
    6   217     3  1.1973722 -0.0014497  0.1090785 
    6   217     4  1.1968704 -0.0005274  0.0947866 
    6   218     1  1.1395372 -0.0047866  0.1252326 
    6   218     2  1.1037648 -0.0156879  0.1274339 
    6   218     3  1.1376780 -0.0000943  0.1108095 
    6   218     4  1.0996018 -0.0118643  0.1136133 
    6   219     1  1.1671310 -0.0103079  0.1184251 
    6   219     2  1.1270054 -0.0224756  0.1207793 
    6   219     3  1.1702370 -0.0038383  0.1034454 
    6   219     4  1.1306132 -0.0158348  0.1057191 
    6   220     1  1.1915828 -0.0048945  0.0974615 
    6   220     2  1.1869908 -0.0119624  0.1128178 
    6   220     3  1.1528213 -0.0166590  0.0997748 
    6   220     4  1.1476747 -0.0239026  0.1151837 
    6   221     1  1.2167339 -0.0127596  0.0841830 
    6   221     2  1.2556882 -0.0010108  0.0821821 
    6   221     3  1.2121943 -0.0193726  0.0994356 
    6   221     4  1.2502522 -0.0079364  0.0976020 
    6   222     1  1.1918123 -0.0177476  0.1045827 
    6   222     2  1.1947370 -0.0116914  0.0891145 
    6   222     3  1.2299530 -0.0062407  0.1026653 
    6   222     4  1.2330733 -0.0001531  0.0872691 
    6   223     1  0.8545854 -0.1011702  0.0964805 
    6   223     2  0.8104335 -0.1152948  0.1017584 
    6   223     3  0.8551861 -0.0918790  0.0831491 
    6   223     4  0.8103384 -0.1065887  0.0890385 
    6   224     1  0.8647875 -0.0954572  0.0681929 
    6   224     2  0.8575016 -0.1012861  0.0835611 
    6   224     3  0.8182803 -0.1095190  0.0701527 
    6   224     4  0.8130534 -0.1142772  0.0835726 
    6   225     1  0.8981973 -0.0914945  0.0643294 
    6   225     2  0.9365411 -0.0798272  0.0621612 
    6   225     3  0.8918790 -0.0973726  0.0769307 
    6   225     4  0.9313647 -0.0854267  0.0749107 
    6   226     1  0.8836465 -0.0963778  0.0928221 
    6   226     2  0.8848496 -0.0891618  0.0797169 
    6   226     3  0.9219059 -0.0845340  0.0894477 
    6   226     4  0.9261210 -0.0761784  0.0756833 
    6   227     1  0.7293783 -0.1381733  0.0773735 
    6   227     2  0.7845021 -0.1207631  0.0722368 
    6   227     3  0.7232301 -0.1456293  0.0916212 
    6   227     4  0.7787190 -0.1279503  0.0860701 
    6   228     1  0.7236857 -0.1460758  0.1196169 
    6   228     2  0.7212730 -0.1292356  0.1088281 
    6   228     3  0.7737876 -0.1277828  0.1079416 
    6   228     4  0.7751787 -0.1074143  0.0948959 
    6   229     1  0.6683989 -0.1597662  0.1262283 
    6   229     2  0.5888684 -0.1894221  0.1446978 
    6   229     3  0.6663392 -0.1336832  0.1085766 
    6   229     4  0.5945065 -0.1641798  0.1277642 
    6   230     1  0.6725257 -0.1557447  0.0831959 
    6   230     2  0.6663216 -0.1632539  0.1028119 
    6   230     3  0.6030118 -0.1769170  0.0870055 
    6   230     4  0.6007739 -0.1821174  0.1026282 
    6   231     1  0.7184131 -0.1536551  0.0760644 
    6   231     2  0.7200863 -0.1389796  0.0649151 
    6   231     3  0.7737524 -0.1317933  0.0629581 
    6   231     4  0.7575454 -0.1252987  0.0569007 
    6   232     1  0.6889828 -0.1375544  0.0714941 
    6   232     2  0.6662863 -0.1666677  0.0553483 
    6   232     3  0.6861413 -0.1709851  0.0724923 
    6   232     4  0.6711579 -0.1820506  0.0610069 
    6   233     1  0.7034620 -0.1526322  0.0576598 
    6   233     2  0.7351093 -0.1368313  0.0466377 
    6   233     3  0.7140394 -0.1646684  0.0612983 
    6   233     4  0.7407793 -0.1502817  0.0515473 
    6   234     1  0.6518349 -0.1858793  0.0473058 
    6   234     2  0.5968192 -0.2212041  0.0716737 
    6   234     3  0.6515932 -0.1461512  0.0367663 
    6   234     4  0.6067087 -0.1804430  0.0581076 
    6   235     1  0.6442895 -0.1684884  0.0072893 
    6   235     2  0.6428815 -0.1898133  0.0241699 
    6   235     3  0.6115846 -0.1818727  0.0153212 
    6   235     4  0.6065952 -0.2019085  0.0308861 
    6   236     1  0.6694536 -0.1684038  0.0106252 
    6   236     2  0.7019681 -0.1569168  0.0050438 
    6   236     3  0.6722582 -0.1778282  0.0230677 
    6   236     4  0.7077650 -0.1666386  0.0186536 
    6   237     1  0.7008454 -0.1770504  0.0464220 
    6   237     2  0.6996442 -0.1567132  0.0432133 
    6   237     3  0.7223102 -0.1647098  0.0362978 
    6   237     4  0.7219554 -0.1421831  0.0323840 
    6   238     1  0.7997087 -0.1269346  0.0498329 
    6   238     2  0.8018955 -0.1423495  0.0552913 
    6   238     3  0.8123891 -0.1123856  0.0605273 
    6   238     4  0.8109169 -0.1278576  0.0620649 
    6   239     1  0.7845206 -0.1236394  0.0366938 
    6   239     2  0.7872340 -0.1332956  0.0454226 
    6   239     3  0.7566887 -0.1365904  0.0447776 
    6   239     4  0.7619524 -0.1431479  0.0510992 
    6   240     1  0.8106825 -0.1250169  0.0352396 
    6   240     2  0.8414777 -0.1157915  0.0372634 
    6   240     3  0.8128369 -0.1244341  0.0452228 
    6   240     4  0.8392181 -0.1165212  0.0453998 
    6   241     1  0.8064925 -0.1282146  0.0327584 
    6   241     2  0.7995250 -0.1272875  0.0211578 
    6   241     3  0.8393926 -0.1182467  0.0312481 
    6   241     4  0.8340837 -0.1168284  0.0196159 
    6   242     1  0.7809019 -0.1385877  0.0334613 
    6   242     2  0.7506053 -0.1488485  0.0383957 
    6   242     3  0.7752552 -0.1299092  0.0230809 
    6   242     4  0.7432581 -0.1411444  0.0287175 
    6   243     1  0.7621740 -0.1392808  0.0044933 
    6   243     2  0.7685818 -0.1439149  0.0159220 
    6   243     3  0.7306336 -0.1492588  0.0077387 
    6   243     4  0.7368720 -0.1535643  0.0184911 
    6   244     1  0.7874175 -0.1322886  0.0036137 
    6   244     2  0.8221240 -0.1218218  0.0025066 
    6   244     3  0.7948473 -0.1320274  0.0152623 
    6   244     4  0.8290017 -0.1217671  0.0144126 
    6   245     1  0.8840560 -0.1045263  0.0017970 
    6   245     2  0.8892517 -0.1033754  0.0140080 
    6   245     3  0.8479604 -0.1153582  0.0020611 
    6   245     4  0.8546109 -0.1137683  0.0141886 
    6   246     1  0.9101995 -0.0989629  0.0011006 
    6   246     2  0.9478884 -0.0876564  0.0010593 
    6   246     3  0.9149001 -0.0975578  0.0135879 
    6   246     4  0.9521217 -0.0863915  0.0135756 
    6   247     1  0.9188534 -0.0966169  0.0287780 
    6   247     2  0.9162008 -0.0971021  0.0159789 
    6   247     3  0.9559287 -0.0854940  0.0286384 
    6   247     4  0.9537284 -0.0858456  0.0159235 
    6   248     1  0.8946558 -0.1016727  0.0300277 
    6   248     2  0.8631107 -0.1111471  0.0306583 
    6   248     3  0.8918110 -0.1009978  0.0181599 
    6   248     4  0.8584865 -0.1109953  0.0187373 
    6   249     1  0.8759970 -0.1001285  0.0644337 
    6   249     2  0.8375729 -0.1130244  0.0587883 
    6   249     3  0.8788503 -0.1077249  0.0536531 
    6   249     4  0.8477311 -0.1181473  0.0491095 
    6   250     1  0.8922756 -0.1040566  0.0357307 
    6   250     2  0.8901587 -0.1017482  0.0456357 
    6   250     3  0.8630430 -0.1131596  0.0334442 
    6   250     4  0.8598969 -0.1109273  0.0440980 
    6   251     1  0.9167585 -0.0974748  0.0311756 
    6   251     2  0.9532294 -0.0865109  0.0318559 
    6   251     3  0.9139516 -0.0973153  0.0435128 
    6   251     4  0.9513782 -0.0860752  0.0440721 
    6   252     1  0.9032051 -0.0980611  0.0613083 
    6   252     2  0.9074730 -0.0936669  0.0479396 
    6   252     3  0.9426108 -0.0862937  0.0602933 
    6   252     4  0.9464083 -0.0819614  0.0466025 
    6   253     1  1.0073570 -0.0716457  0.0558846 
    6   253     2  0.9699375 -0.0829919  0.0575080 
    6   253     3  1.0112241 -0.0677610  0.0426221 
    6   253     4  0.9734131 -0.0792316  0.0442900 
    6   254     1  1.0175008 -0.0671221  0.0260180 
    6   254     2  1.0156231 -0.0734029  0.0391612 
    6   254     3  0.9803434 -0.0785270  0.0287818 
    6   254     4  0.9769882 -0.0852929  0.0421067 
    6   255     1  1.0434490 -0.0666764  0.0260915 
    6   255     2  1.0857536 -0.0537857  0.0239489 
    6   255     3  1.0417608 -0.0693767  0.0391317 
    6   255     4  1.0796298 -0.0578996  0.0375814 
    6   256     1  1.0354702 -0.0729506  0.0527720 
    6   256     2  1.0395303 -0.0620765  0.0382657 
    6   256     3  1.0822664 -0.0579867  0.0472006 
    6   256     4  1.0795342 -0.0494254  0.0337093 
    6   257     1  1.0437524 -0.0698597  0.0247780 
    6   257     2  1.0419617 -0.0671322  0.0124741 
    6   257     3  1.0857268 -0.0572495  0.0232225 
    6   257     4  1.0796661 -0.0557030  0.0106911 
    6   258     1  1.0175671 -0.0712460  0.0270429 
    6   258     2  0.9809026 -0.0822635  0.0276444 
    6   258     3  1.0161510 -0.0708744  0.0138818 
    6   258     4  0.9791255 -0.0820173  0.0147679 
    6   259     1  1.0120218 -0.0719272 -0.0000947 
    6   259     2  1.0151661 -0.0716501  0.0128904 
    6   259     3  0.9741283 -0.0833035  0.0003316 
    6   259     4  0.9778650 -0.0828425  0.0131904 
    6   260     1  1.0377654 -0.0726335 -0.0007601 
    6   260     2  1.0775178 -0.0606903  0.0004588 
    6   260     3  1.0414436 -0.0686339  0.0129585 
    6   260     4  1.0796653 -0.0571633  0.0140714 
    6   261     1  1.1396930 -0.0483927  0.0056620 
    6   261     2  1.1394962 -0.0389519  0.0173089 
    6   261     3  1.0981767 -0.0627946 -0.0011535 
    6   261     4  1.1003050 -0.0554254  0.0073401 
    6   262     1  1.1739466 -0.0486082  0.0030761 
    6   262     2  1.1978382 -0.0404234  0.0072340 
    6   262     3  1.1737211 -0.0443811  0.0072153 
    6   262     4  1.1989187 -0.0349919  0.0123353 
    6   263     1  1.1723745 -0.0460681  0.0173545 
    6   263     2  1.1695891 -0.0463191  0.0122454 
    6   263     3  1.1983270 -0.0383485  0.0175407 
    6   263     4  1.1974535 -0.0379262  0.0115222 
    6   264     1  1.1463075 -0.0448223  0.0208534 
    6   264     2  1.1096473 -0.0559897  0.0232220 
    6   264     3  1.1397773 -0.0422163  0.0096690 
    6   264     4  1.1050402 -0.0541288  0.0152751 
    6   265     1  1.1688191 -0.0456779  0.0029406 
    6   265     2  1.1737167 -0.0491444 -0.0015452 
    6   265     3  1.2013812 -0.0339581  0.0090362 
    6   265     4  1.2012500 -0.0388132  0.0040445 
    6   266     1  1.1478843 -0.0451841  0.0050328 
    6   266     2  1.1544029 -0.0531281  0.0022839 
    6   266     3  1.1411197 -0.0522474  0.0090318 
    6   266     4  1.1464276 -0.0564023  0.0066202 
    6   267     1  1.1564878 -0.0509097 -0.0055363 
    6   267     2  1.1965406 -0.0379389 -0.0007630 
    6   267     3  1.1721239 -0.0426484  0.0016694 
    6   267     4  1.1999851 -0.0341516  0.0041113 
    6   268     1  1.1391711 -0.0476846  0.0396286 
    6   268     2  1.1056469 -0.0610190  0.0477532 
    6   268     3  1.1389726 -0.0322143  0.0282980 
    6   268     4  1.1045131 -0.0513040  0.0405887 
    6   269     1  1.1450540 -0.0438694  0.0235056 
    6   269     2  1.1399365 -0.0424732  0.0354978 
    6   269     3  1.1088680 -0.0547022  0.0224286 
    6   269     4  1.1049986 -0.0537310  0.0311460 
    6   270     1  1.1709519 -0.0437352  0.0239135 
    6   270     2  1.1956576 -0.0362152  0.0226542 
    6   270     3  1.1684700 -0.0452044  0.0294301 
    6   270     4  1.1945134 -0.0374220  0.0291965 
    6   271     1  1.1677012 -0.0488713  0.0384738 
    6   271     2  1.1680281 -0.0432742  0.0335395 
    6   271     3  1.1931484 -0.0396818  0.0334321 
    6   271     4  1.1947462 -0.0327323  0.0274520 
    6   272     1  1.1533243 -0.0375787  0.0414691 
    6   272     2  1.1410074 -0.0488207  0.0347085 
    6   272     3  1.1552911 -0.0503485  0.0405790 
    6   272     4  1.1452059 -0.0544442  0.0357344 
    6   273     1  1.1654771 -0.0448589  0.0373728 
    6   273     2  1.1945313 -0.0338375  0.0313350 
    6   273     3  1.1726971 -0.0478654  0.0417174 
    6   273     4  1.1948695 -0.0391731  0.0368235 
    6   274     1  1.1704354 -0.0467925  0.0460570 
    6   274     2  1.1751286 -0.0398175  0.0393536 
    6   274     3  1.1936550 -0.0386475  0.0420211 
    6   274     4  1.1956966 -0.0334542  0.0367194 
    6   275     1  1.1640295 -0.0433569  0.0472247 
    6   275     2  1.1707230 -0.0453607  0.0440839 
    6   275     3  1.1879263 -0.0338696  0.0526294 
    6   275     4  1.1883466 -0.0380734  0.0483599 
    6   276     1  1.1510441 -0.0366144  0.0453628 
    6   276     2  1.1566607 -0.0494240  0.0494812 
    6   276     3  1.1296932 -0.0505326  0.0542495 
    6   276     4  1.1385014 -0.0557607  0.0548833 
    6   277     1  1.1717565 -0.0472086  0.0369469 
    6   277     2  1.1918319 -0.0395845  0.0413157 
    6   277     3  1.1760537 -0.0395366  0.0430066 
    6   277     4  1.1939572 -0.0337269  0.0460631 
    6   278     1  1.1817014 -0.0277133  0.0927417 
    6   278     2  1.1816534 -0.0439343  0.0907812 
    6   278     3  1.1961523 -0.0141340  0.1008256 
    6   278     4  1.1906973 -0.0322351  0.0962230 
    6   279     1  1.1716267 -0.0085627  0.0860946 
    6   279     2  1.1733926 -0.0246878  0.0970917 
    6   279     3  1.1570830 -0.0185138  0.0925394 
    6   279     4  1.1580418 -0.0308799  0.1009642 
    6   280     1  1.1812717 -0.0234126  0.0838971 
    6   280     2  1.1973903 -0.0190744  0.0839183 
    6   280     3  1.1849936 -0.0270595  0.0936643 
    6   280     4  1.1987772 -0.0230246  0.0929996 
    6   281     1  1.1691837 -0.0469910  0.0245494 
    6   281     2  1.1761131 -0.0458251  0.0186517 
    6   281     3  1.1983322 -0.0382226  0.0253008 
    6   281     4  1.1997294 -0.0386640  0.0196369 
    6   282     1  1.1553792 -0.0402141  0.0214493 
    6   282     2  1.1526024 -0.0508754  0.0177962 
    6   282     3  1.1515918 -0.0514821  0.0252960 
    6   282     4  1.1505695 -0.0563052  0.0215290 
    6   283     1  1.1685123 -0.0472231  0.0166059 
    6   283     2  1.1990591 -0.0380015  0.0154218 
    6   283     3  1.1761128 -0.0463449  0.0225640 
    6   283     4  1.2005458 -0.0388994  0.0213093 
    6   284     1  1.2138084 -0.0167694  0.0885381 
    6   284     2  1.1950896 -0.0339309  0.0982014 
    6   284     3  1.2091075 -0.0009870  0.0855957 
    6   284     4  1.1982910 -0.0153316  0.0923629 
    6   285     1  1.2183260 -0.0198654  0.0808325 
    6   285     2  1.2175893 -0.0192387  0.0897650 
    6   285     3  1.2044679 -0.0239151  0.0817918 
    6   285     4  1.2058978 -0.0227257  0.0898312 
    6   286     1  1.2268120 -0.0345232  0.0753363 
    6   286     2  1.2400996 -0.0268525  0.0803757 
    6   286     3  1.2283466 -0.0222200  0.0849899 
    6   286     4  1.2410499 -0.0174620  0.0877615 
    6   287     1  1.3575546 -0.0060925  0.0635478 
    6   287     2  1.3358944 -0.0246710  0.0742778 
    6   287     3  1.3516136  0.0071647  0.0598286 
    6   287     4  1.3389061 -0.0081429  0.0677238 
    6   288     1  1.3660445 -0.0027580  0.0551205 
    6   288     2  1.3617724 -0.0084666  0.0645544 
    6   288     3  1.3513398 -0.0079039  0.0575874 
    6   288     4  1.3494996 -0.0122934  0.0656450 
    6   289     1  1.3758097 -0.0199083  0.0495641 
    6   289     2  1.3898754 -0.0133981  0.0539310 
    6   289     3  1.3738348 -0.0122731  0.0598497 
    6   289     4  1.3877727 -0.0075283  0.0620018 
    6   290     1  1.5081075 -0.0047711  0.0378926 
    6   290     2  1.4860825 -0.0199347  0.0477451 
    6   290     3  1.5022267  0.0013573  0.0335251 
    6   290     4  1.4889500 -0.0104940  0.0413281 
    6   291     1  1.5209186  0.0104226  0.0301767 
    6   291     2  1.5128838  0.0011666  0.0396446 
    6   291     3  1.5053340  0.0041151  0.0338547 
    6   291     4  1.5011537 -0.0026446  0.0412322 
    6   292     1  1.5327497 -0.0069120  0.0269669 
    6   292     2  1.5474198 -0.0006780  0.0307902 
    6   292     3  1.5260998 -0.0009128  0.0361936 
    6   292     4  1.5399616  0.0036116  0.0381098 
    7     1     1  0.1774763 -2.5953946 -0.1970083 
    7     1     2  0.2514056 -2.3510610 -0.2379183 
    7     1     3  0.2461951 -2.5940354 -0.2490724 
    7     1     4  0.3298436 -2.3334171 -0.2963455 
    7     2     1  0.2437656 -2.2210454  0.0617120 
    7     2     2  0.1567838 -2.2507307 -0.0169754 
    7     2     3  0.1327398 -2.5880759  0.0114829 
    7     2     4  0.0471457 -2.6147084 -0.0663423 
    7     3     1  0.3087592 -1.8650799  0.3172113 
    7     3     2  0.4942377 -1.2548915  0.4119458 
    7     3     3  0.1497770 -1.9186178  0.1896139 
    7     3     4  0.3358076 -1.3040103  0.2843725 
    7     4     1  0.2652698 -2.2651449  0.1359166 
    7     4     2  0.3751836 -2.1790947  0.2943642 
    7     4     3  0.5074970 -1.4681316  0.2000804 
    7     4     4  0.6085330 -1.4223870  0.3613839 
    7     5     1  0.8383664 -2.7112746  0.1595166 
    7     5     2  0.6664978 -3.0263359  0.3921872 
    7     5     3  0.3241210 -2.7770249  0.1740374 
    7     5     4  0.2618562 -3.0108900  0.3513909 
    7     6     1  0.7198658 -2.3374711 -0.0476796 
    7     6     2 -0.5676423 -4.3666020 -2.8542031 
    7     6     3 -0.8639039 -7.9396170  0.1574040 
    7     6     4 -2.9393099 -12.434072 -2.9250389 
    7     7     1 -0.1038288 -0.8655285 -0.4427867 
    7     7     2  0.0442204 -0.3586658 -0.2844606 
    7     7     3 -0.5693023 -1.0572367 -0.6351854 
    7     7     4 -0.4056053 -0.5073668 -0.4624282 
    7     8     1 -0.4110437 -3.0412101 -0.9804118 
    7     8     2  0.1316534 -2.6820732 -0.5348401 
    7     8     3  0.0219434 -1.5519967 -0.7829114 
    7     8     4  0.5008954 -1.3595040 -0.3733201 
    7     9     1  0.0090238 -0.9079252  0.8796859 
    7     9     2 -1.7921012 -5.1339673  2.0416577 
    7     9     3 -1.8775008 -0.6231131  2.0439749 
    7     9     4 -2.9822826 -4.0222996  2.7657320 
    7    10     1 -0.3272247 -0.9538113  1.0556940 
    7    10     2 -0.6860282 -1.4903326  0.8123869 
    7    10     3 -0.0859421 -1.1377981  1.0658942 
    7    10     4 -0.3905462 -1.4266994  0.9062491 
    7    11     1 -0.1162430  0.6224121 -0.5956433 
    7    11     2  0.6469552  0.8305977 -0.6736317 
    7    11     3 -0.1757344  0.3499042 -0.3337776 
    7    11     4  0.5738692  0.5694659 -0.4254306 
    7    12     1  0.1072604 -2.0547353  0.0820556 
    7    12     2 -0.0467850 -2.5677918  0.0435842 
    7    12     3  0.1730772 -2.0343518  0.1898965 
    7    12     4  0.0188060 -2.5479391  0.1512666 
    7    13     1  0.1205683 -1.8831278  0.2285743 
    7    13     2  0.0697215 -1.8984652  0.1245258 
    7    13     3 -0.0288634 -2.3809906  0.1986345 
    7    13     4 -0.0796632 -2.3962570  0.0946477 
    7    14     1  0.0213366 -1.5967886  0.3947464 
    7    14     2  0.1569362 -1.1455089  0.4337728 
    7    14     3 -0.0445194 -1.6166216  0.3006978 
    7    14     4  0.0910104 -1.1653115  0.3396047 
    7    15     1  0.0339352 -1.7329512  0.2545162 
    7    15     2  0.1326691 -1.7026910  0.3623399 
    7    15     3  0.1896686 -1.2153942  0.3130288 
    7    15     4  0.2885527 -1.1855511  0.4211269 
    7    16     1  0.0444742 -1.7538291  0.1384145 
    7    16     2 -0.0848184 -2.1847416  0.1138612 
    7    16     3  0.0862349 -1.7412879  0.2283111 
    7    16     4 -0.0430696 -2.1722102  0.2037356 
    7    17     1  0.0640418 -1.6034345  0.2125413 
    7    17     2  0.0288966 -1.6139823  0.1382320 
    7    17     3 -0.0429114 -1.9599067  0.1918697 
    7    17     4 -0.0780527 -1.9704527  0.1175684 
    7    18     1 -0.0610833 -1.4104668  0.3946004 
    7    18     2  0.0396125 -1.0748634  0.4070501 
    7    18     3 -0.0821805 -1.4168005  0.3246766 
    7    18     4  0.0185103 -1.0811980  0.3371085 
    7    19     1 -0.0749776 -1.5149536  0.3197073 
    7    19     2 -0.0432161 -1.5054126  0.4017933 
    7    19     3  0.0432351 -1.1210125  0.3384562 
    7    19     4  0.0750131 -1.1114723  0.4205895 
    7    20     1  0.0189606 -1.4778885  0.1333397 
    7    20     2 -0.0681087 -1.7681061  0.1148564 
    7    20     3  0.0503985 -1.4684545  0.1938182 
    7    20     4 -0.0366723 -1.7586727  0.1753319 
    7    21     1  0.0411882 -1.3365869  0.1761935 
    7    21     2  0.0120712 -1.3453239  0.1270491 
    7    21     3 -0.0295734 -1.5724499  0.1590735 
    7    21     4 -0.0586898 -1.5811866  0.1099302 
    7    22     1 -0.0613467 -1.2065954  0.3618452 
    7    22     2  0.0126799 -0.9598503  0.3715981 
    7    22     3 -0.0779240 -1.2115710  0.3104386 
    7    22     4 -0.0038982 -0.9648261  0.3201889 
    7    23     1 -0.0822365 -1.3155304  0.3206645 
    7    23     2 -0.0633610 -1.3098647  0.3807451 
    7    23     3  0.0042799 -1.0271580  0.3317726 
    7    23     4  0.0231574 -1.0214917  0.3918599 
    7    24     1  0.0283619 -1.0888750  0.1458362 
    7    24     2  0.0034485 -1.0963501  0.1136743 
    7    24     3 -0.0179503 -1.2432464  0.1311881 
    7    24     4 -0.0428636 -1.2507215  0.0990263 
    7    25     1 -0.0477216 -1.0013222  0.3210293 
    7    25     2  0.0053779 -0.8243273  0.3313791 
    7    25     3 -0.0653232 -1.0066042  0.2841548 
    7    25     4 -0.0122239 -0.8296094  0.2945043 
    7    26     1 -0.0692615 -1.1078000  0.2978501 
    7    26     2 -0.0556230 -1.1037066  0.3407033 
    7    26     3 -0.0075528 -0.9021085  0.3058702 
    7    26     4  0.0060861 -0.8980150  0.3487243 
    7    27     1  0.0071369 -1.2173270  0.1202755 
    7    27     2 -0.0504440 -1.4092596  0.1043657 
    7    27     3  0.0341967 -1.2092077  0.1602640 
    7    27     4 -0.0233845 -1.4011403  0.1443539 
    7    28     1 -0.0582075 -0.9077032  0.2687438 
    7    28     2 -0.0447788 -0.9036735  0.2995927 
    7    28     3 -0.0137852 -0.7596306  0.2766394 
    7    28     4 -0.0003565 -0.7556008  0.3074884 
    7    29     1  0.0001879 -0.9807405  0.1080266 
    7    29     2 -0.0369479 -1.1045254  0.0940045 
    7    29     3  0.0240365 -0.9735852  0.1338158 
    7    29     4 -0.0130994 -1.0973701  0.1197936 
    7    30     1  0.0196600 -0.8647397  0.1225674 
    7    30     2 -0.0025109 -0.8713915  0.1022697 
    7    30     3 -0.0095682 -0.9621664  0.1095315 
    7    30     4 -0.0317391 -0.9688182  0.0892339 
    7    31     1 -0.0376226 -0.8103421  0.2793358 
    7    31     2 -0.0023820 -0.6928745  0.2866631 
    7    31     3 -0.0500847 -0.8140816  0.2548631 
    7    31     4 -0.0148441 -0.6966141  0.2621904 
    7    32     1 -0.0047241 -0.7685433  0.0968196 
    7    32     2 -0.0270276 -0.8428884  0.0846716 
    7    32     3  0.0159367 -0.7623446  0.1123085 
    7    32     4 -0.0063669 -0.8366897  0.1001605 
    7    33     1  0.0127329 -0.6655833  0.1031695 
    7    33     2 -0.0069300 -0.6714825  0.0917973 
    7    33     3 -0.0036426 -0.7201686  0.0916082 
    7    33     4 -0.0233055 -0.7260678  0.0802360 
    7    34     1 -0.0272759 -0.6341874  0.2456633 
    7    34     2 -0.0045670 -0.5584912  0.2542799 
    7    34     3 -0.0419305 -0.6385843  0.2298931 
    7    34     4 -0.0192218 -0.5628882  0.2385095 
    7    35     1 -0.0448703 -0.7246931  0.2424622 
    7    35     2 -0.0308314 -0.7204807  0.2619314 
    7    35     3 -0.0168350 -0.6312423  0.2507167 
    7    35     4 -0.0027960 -0.6270300  0.2701859 
    7    36     1  0.0068753 -0.4892319  0.0858201 
    7    36     2 -0.0098432 -0.4942476  0.0809416 
    7    36     3 -0.0001489 -0.5126470  0.0759904 
    7    36     4 -0.0168672 -0.5176627  0.0711119 
    7    37     1 -0.0246598 -0.4740137  0.2126804 
    7    37     2 -0.0094601 -0.4233464  0.2211950 
    7    37     3 -0.0391416 -0.4783586  0.2021244 
    7    37     4 -0.0239422 -0.4276914  0.2106389 
    7    38     1 -0.0397657 -0.5562212  0.2169918 
    7    38     2 -0.0255567 -0.5519581  0.2290570 
    7    38     3 -0.0223924 -0.4983092  0.2253461 
    7    38     4 -0.0081832 -0.4940461  0.2374115 
    7    39     1 -0.0084269 -0.5790545  0.0863308 
    7    39     2 -0.0200831 -0.6179094  0.0756052 
    7    39     3  0.0098149 -0.5735817  0.0944259 
    7    39     4 -0.0018414 -0.6124366  0.0837003 
    7    40     1 -0.0369065 -0.4058883  0.1862080 
    7    40     2 -0.0250949 -0.4023445  0.1942480 
    7    40     3 -0.0253308 -0.3672976  0.1931518 
    7    40     4 -0.0135186 -0.3637537  0.2011923 
    7    41     1 -0.0111394 -0.4146629  0.0757479 
    7    41     2 -0.0144245 -0.4256165  0.0664766 
    7    41     3  0.0046304 -0.4099319  0.0780303 
    7    41     4  0.0013450 -0.4208856  0.0687589 
    7    42     1  0.0020099 -0.3373816  0.0699929 
    7    42     2 -0.0123503 -0.3416897  0.0700958 
    7    42     3  0.0021594 -0.3368874  0.0615514 
    7    42     4 -0.0122001 -0.3411953  0.0616542 
    7    43     1 -0.0235417 -0.3369570  0.1757564 
    7    43     2 -0.0161103 -0.3121797  0.1817252 
    7    43     3 -0.0336950 -0.3400031  0.1705940 
    7    43     4 -0.0262648 -0.3152262  0.1765622 
    7    44     1 -0.0133844 -0.2755399  0.0640875 
    7    44     2 -0.0101451 -0.2647545  0.0564767 
    7    44     3 -0.0004341 -0.2716549  0.0618395 
    7    44     4  0.0028037 -0.2608699  0.0542289 
    7    45     1 -0.0026869 -0.2124145  0.0536815 
    7    45     2 -0.0144963 -0.2159572  0.0576885 
    7    45     3  0.0030804 -0.1932057  0.0467454 
    7    45     4 -0.0087260 -0.1967475  0.0507514 
    7    46     1 -0.0220226 -0.2222938  0.1409297 
    7    46     2 -0.0199434 -0.2153296  0.1472801 
    7    46     3 -0.0328275 -0.2255353  0.1394778 
    7    46     4 -0.0307549 -0.2185731  0.1458273 
    7    47     1 -0.0322794 -0.2801758  0.1554215 
    7    47     2 -0.0216959 -0.2770006  0.1583143 
    7    47     3 -0.0281218 -0.2662942  0.1616419 
    7    47     4 -0.0175356 -0.2631182  0.1645354 
    7    48     1 -0.0148162 -0.1623326  0.0500783 
    7    48     2 -0.0074472 -0.1378165  0.0441795 
    7    48     3 -0.0047661 -0.1593178  0.0449556 
    7    48     4  0.0025972 -0.1348034  0.0390597 
    7    49     1 -0.0066219 -0.1149160  0.0358401 
    7    49     2 -0.0148274 -0.1173770  0.0419519 
    7    49     3  0.0021345 -0.0857835  0.0310361 
    7    49     4 -0.0060605 -0.0882417  0.0371401 
    7    50     1 -0.0268999 -0.1300469  0.1026694 
    7    50     2 -0.0263435 -0.1280603  0.1074095 
    7    50     3 -0.0349746 -0.1324693  0.1022522 
    7    50     4 -0.0344436 -0.1304904  0.1069910 
    7    51     1 -0.0346720 -0.1761939  0.1221922 
    7    51     2 -0.0241374 -0.1730335  0.1223573 
    7    51     3 -0.0344737 -0.1754138  0.1283828 
    7    51     4 -0.0239247 -0.1722491  0.1285481 
    7    52     1 -0.0085204 -0.0477647  0.0181385 
    7    52     2 -0.0136514 -0.0492714  0.0246088 
    7    52     3  0.0005298 -0.0177750  0.0151486 
    7    52     4 -0.0045737 -0.0192973  0.0215769 
    7    53     1 -0.0273397 -0.0641622  0.0611189 
    7    53     2 -0.0283335 -0.0670723  0.0639003 
    7    53     3 -0.0320748 -0.0655797  0.0617181 
    7    53     4 -0.0331470 -0.0685155  0.0645116 
    7    54     1 -0.0338956 -0.0956620  0.0817610 
    7    54     2 -0.0277989 -0.0938330  0.0817238 
    7    54     3 -0.0340687 -0.0958782  0.0853369 
    7    54     4 -0.0279281 -0.0940360  0.0852991 
    7    55     1 -0.0143868 -0.0795049  0.0335109 
    7    55     2 -0.0051084 -0.0487385  0.0295926 
    7    55     3 -0.0077038 -0.0775044  0.0269994 
    7    55     4  0.0015560 -0.0467405  0.0230996 
    7    56     1 -0.0308390 -0.0411341  0.0424944 
    7    56     2 -0.0259119 -0.0396939  0.0415362 
    7    56     3 -0.0327520 -0.0459257  0.0454490 
    7    56     4 -0.0276109 -0.0443944  0.0444317 
    7    57     1 -0.0113109 -0.0263419  0.0149400 
    7    57     2 -0.0034481 -0.0003906  0.0132346 
    7    57     3 -0.0085819 -0.0257439  0.0091334 
    7    57     4 -0.0006863  0.0003796  0.0074605 
    7    58     1 -0.0082099 -0.0131689  0.0012865 
    7    58     2 -0.0102064 -0.0122897  0.0062897 
    7    58     3 -0.0017735  0.0076074 -0.0004083 
    7    58     4 -0.0038212  0.0072821  0.0039731 
    7    59     1 -0.0237593 -0.0197237  0.0241678 
    7    59     2 -0.0260170 -0.0257957  0.0264555 
    7    59     3 -0.0275673 -0.0204442  0.0253514 
    7    59     4 -0.0300579 -0.0268890  0.0278038 
    7    60     1 -0.0003155  0.0011545 -0.0025272 
    7    60     2 -0.0001026  0.0055738 -0.0014941 
    7    60     3  0.0006225  0.0033210 -0.0031232 
    7    60     4  0.0009321  0.0066414 -0.0025451 
    7    61     1  0.0006979  0.0012084 -0.0011512 
    7    61     2  0.0002813  0.0011713 -0.0007408 
    7    61     3  0.0007080  0.0018398 -0.0010533 
    7    61     4  0.0004200  0.0017642 -0.0007781 
    7    62     1  0.0012337  0.0000493 -0.0025618 
    7    62     2  0.0016978 -0.0011531 -0.0037396 
    7    62     3  0.0052329  0.0014733 -0.0018001 
    7    62     4  0.0050167  0.0001217 -0.0030213 
    7    63     1 -0.0033219 -0.0052891 -0.0010527 
    7    63     2  0.0000294  0.0054312 -0.0020077 
    7    63     3 -0.0035536 -0.0073890 -0.0029387 
    7    63     4 -0.0012403 -0.0000301 -0.0036571 
    7    64     1  0.0017854 -0.0050774 -0.0055708 
    7    64     2  0.0101875 -0.0019795 -0.0037993 
    7    64     3  0.0018195 -0.0009038 -0.0021490 
    7    64     4  0.0112611  0.0028002  0.0000245 
    7    65     1 -0.0067879 -0.0028929  0.0043224 
    7    65     2 -0.0050547 -0.0019487 -0.0031075 
    7    65     3  0.0103534  0.0022085  0.0049065 
    7    65     4  0.0109924  0.0028559 -0.0030645 
    7    66     1 -0.0166498 -0.0060124  0.0134299 
    7    66     2 -0.0204238 -0.0075448  0.0122327 
    7    66     3 -0.0174100 -0.0101126  0.0116757 
    7    66     4 -0.0211006 -0.0113255  0.0106190 
-----------------------------------------------------------------------------
Job: ATENA, Log end: 3.11.2010 15:31:27
-----------------------------------------------------------------------------
