          x          y   sigma_xx   sigma_yy   sigma_xy
  2.4875000  0.0115000  0.0001761  0.0001554  0.0001747
  2.4750000  0.0115000  0.0004894  0.0001732  0.0003892
  2.4750000  0.0000000  0.0003866  0.0000549  0.0001942
  2.4875000  0.0000000  0.0000919  0.0000481  0.0000716
  2.5000000  0.0000000  0.0000073  0.0000039  0.0000141
  2.5000000  0.0115000  0.0000543  0.0000725  0.0000682
  2.5000000  0.0229000  0.0000609  0.0003089  0.0001840
  2.4875000  0.0229000  0.0001865  0.0004216  0.0003770
  2.4750000  0.0229000  0.0004625  0.0004309  0.0007346
  2.4625000  0.0114000  0.0009860  0.0001446  0.0005910
  2.4625000  0.0229000  0.0008429  0.0003625  0.0010509
  2.4500000  0.0228000  0.0012986  0.0002896  0.0013135
  2.4500000  0.0114000  0.0016453  0.0001152  0.0007582
  2.4500000  0.0000000  0.0017758  0.0000469  0.0004078
  2.4625000  0.0000000  0.0009588  0.0000467  0.0003120
  2.4624000  0.0343000  0.0005725  0.0006484  0.0013650
  2.4499000  0.0342000  0.0008417  0.0005168  0.0016592
  2.4749000  0.0344000  0.0003243  0.0007730  0.0009978
  2.4749000  0.0459000  0.0001590  0.0011552  0.0011560
  2.4624000  0.0458000  0.0002698  0.0009492  0.0015344
  2.4499000  0.0456000  0.0003672  0.0007449  0.0018194
  2.4875000  0.0344000  0.0001327  0.0008205  0.0005472
  2.5000000  0.0344000  0.0000439  0.0007600  0.0002878
  2.5000000  0.0460000  0.0000277  0.0013715  0.0003537
  2.4874000  0.0459000  0.0000661  0.0013156  0.0006545
  2.4623000  0.0572000 -0.0000092  0.0012371  0.0015696
  2.4498000  0.0570000 -0.0000606  0.0009448  0.0018201
  2.4748000  0.0574000  0.0000065  0.0015467  0.0012062
  2.4747000  0.0689000 -0.0001187  0.0019196  0.0011612
  2.4622000  0.0687000 -0.0002385  0.0014879  0.0014891
  2.4497000  0.0684000 -0.0004085  0.0010961  0.0016925
  2.4874000  0.0575000  0.0000057  0.0018612  0.0006923
  2.5000000  0.0575000  0.0000165  0.0020686  0.0003771
  2.5000000  0.0692000  0.0000116  0.0027772  0.0003670
  2.4873000  0.0691000 -0.0000429  0.0024083  0.0006714
  2.4619000  0.0801000 -0.0004115  0.0016903  0.0013181
  2.4495000  0.0798000 -0.0006671  0.0011935  0.0014709
  2.4745000  0.0805000 -0.0002112  0.0022487  0.0010397
  2.4741000  0.0921000 -0.0002753  0.0025087  0.0008625
  2.4616000  0.0915000 -0.0005321  0.0018324  0.0010864
  2.4492000  0.0910000 -0.0008412  0.0012373  0.0011899
  2.4872000  0.0808000 -0.0000772  0.0029173  0.0006034
  2.5000000  0.0809000  0.0000126  0.0034474  0.0003304
  2.5000000  0.0930000  0.0000215  0.0040359  0.0002781
  2.4869000  0.0927000 -0.0000985  0.0033518  0.0005006
  2.4611000  0.1026000 -0.0006142  0.0019121  0.0008263
  2.4489000  0.1021000 -0.0009380  0.0012355  0.0008826
  2.4733000  0.1035000 -0.0003268  0.0026649  0.0006638
  2.4722000  0.1141000 -0.0003886  0.0027106  0.0004683
  2.4606000  0.1134000 -0.0006483  0.0019399  0.0005601
  2.4487000  0.1131000 -0.0009666  0.0012020  0.0005677
  2.4862000  0.1052000 -0.0001293  0.0036937  0.0003636
  2.5000000  0.1057000  0.0000227  0.0045515  0.0001852
  2.5000000  0.1240000 -0.0000197  0.0046483  0.0001057
  2.4834000  0.1165000 -0.0001706  0.0037828  0.0003139
  2.4604000  0.1239000 -0.0006342  0.0019431  0.0002829
  2.4486000  0.1239000 -0.0009456  0.0011552  0.0002566
  2.4717000  0.1240000 -0.0003881  0.0027339  0.0002622
  2.4722000  0.1338000 -0.0003659  0.0028109  0.0000523
  2.4606000  0.1345000 -0.0006077  0.0019465  0.0000176
  2.4487000  0.1348000 -0.0008937  0.0011098 -0.0000347
  2.4805000  0.1240000 -0.0002105  0.0036018  0.0001977
  2.4834000  0.1314000 -0.0001572  0.0039600  0.0000053
  2.4611000  0.1453000 -0.0005521  0.0019428 -0.0002212
  2.4489000  0.1458000 -0.0008199  0.0010685 -0.0002996
  2.4733000  0.1444000 -0.0002982  0.0028792 -0.0001425
  2.4741000  0.1559000 -0.0002512  0.0028591 -0.0003304
  2.4616000  0.1565000 -0.0004786  0.0019063 -0.0004471
  2.4492000  0.1569000 -0.0007286  0.0010265 -0.0005398
  2.4862000  0.1428000 -0.0001265  0.0040553 -0.0000644
  2.4869000  0.1553000 -0.0000918  0.0039779 -0.0001863
  2.5000000  0.1422000  0.0000148  0.0049664 -0.0000066
  2.5000000  0.1550000  0.0000347  0.0048544 -0.0001026
  2.4872000  0.1673000 -0.0000800  0.0038049 -0.0002879
  2.5000000  0.1672000  0.0000297  0.0046062 -0.0001559
  2.5000000  0.1791000  0.0000270  0.0042621 -0.0002007
  2.4873000  0.1792000 -0.0000685  0.0035401 -0.0003736
  2.4747000  0.1793000 -0.0001832  0.0025829 -0.0006515
  2.4745000  0.1676000 -0.0002161  0.0027533 -0.0005044
  2.4619000  0.1680000 -0.0004108  0.0018326 -0.0006563
  2.4495000  0.1683000 -0.0006308  0.0009774 -0.0007576
  2.4621000  0.1796000 -0.0003464  0.0017278 -0.0008387
  2.4497000  0.1798000 -0.0005324  0.0009220 -0.0009495
  2.4623000  0.1912000 -0.0002793  0.0015927 -0.0009903
  2.4498000  0.1913000 -0.0004304  0.0008612 -0.0011125
  2.4748000  0.1911000 -0.0001482  0.0023613 -0.0007728
  2.4749000  0.2028000 -0.0001088  0.0020978 -0.0008682
  2.4624000  0.2029000 -0.0002054  0.0014329 -0.0011095
  2.4499000  0.2030000 -0.0003187  0.0007919 -0.0012419
  2.4874000  0.1910000 -0.0000559  0.0032057 -0.0004439
  2.4874000  0.2028000 -0.0000416  0.0028158 -0.0004996
  2.5000000  0.1909000  0.0000245  0.0038369 -0.0002382
  2.5000000  0.2027000  0.0000219  0.0033441 -0.0002685
  2.4875000  0.2147000 -0.0000238  0.0023854 -0.0005350
  2.5000000  0.2146000  0.0000199  0.0027996 -0.0002872
  2.5000000  0.2266000  0.0000177  0.0022211 -0.0002961
  2.4875000  0.2266000 -0.0000027  0.0019300 -0.0005494
  2.4750000  0.2266000 -0.0000073  0.0014983 -0.0009566
  2.4749000  0.2147000 -0.0000628  0.0018090 -0.0009303
  2.4624000  0.2148000 -0.0001198  0.0012565 -0.0011902
  2.4499000  0.2148000 -0.0001892  0.0007133 -0.0013336
  2.4625000  0.2266000 -0.0000168  0.0010629 -0.0012270
  2.4499000  0.2267000 -0.0000352  0.0006241 -0.0013813
  2.4625000  0.2387000  0.0001072  0.0008619 -0.0012095
  2.4500000  0.2387000  0.0001506  0.0005238 -0.0013736
  2.4750000  0.2386000  0.0000610  0.0011824 -0.0009374
  2.4750000  0.2507000  0.0001428  0.0008694 -0.0008635
  2.4625000  0.2507000  0.0002548  0.0006510 -0.0011289
  2.4500000  0.2507000  0.0003715  0.0004090 -0.0012994
  2.4875000  0.2386000  0.0000240  0.0014693 -0.0005370
  2.5000000  0.2386000  0.0000186  0.0016374 -0.0002897
  2.5000000  0.2507000  0.0000224  0.0010816 -0.0002632
  2.4875000  0.2507000  0.0000567  0.0010277 -0.0004900
  2.4625000  0.2630000  0.0004188  0.0004439 -0.0009752
  2.4500000  0.2630000  0.0006187  0.0002860 -0.0011452
  2.4750000  0.2630000  0.0002351  0.0005784 -0.0007280
  2.4750000  0.2752000  0.0003172  0.0003216 -0.0005289
  2.4625000  0.2753000  0.0005729  0.0002497 -0.0007398
  2.4500000  0.2752000  0.0008697  0.0001630 -0.0008924
  2.4875000  0.2630000  0.0000946  0.0006375 -0.0004030
  2.5000000  0.2630000  0.0000308  0.0006025 -0.0002126
  2.5000000  0.2752000  0.0000413  0.0002471 -0.0001356
  2.4875000  0.2753000  0.0001276  0.0003242 -0.0002748
  2.4625000  0.2876000  0.0006560  0.0001012 -0.0004154
  2.4500000  0.2876000  0.0010727  0.0000661 -0.0005144
  2.4750000  0.2876000  0.0003309  0.0001305 -0.0002791
  2.4750000  0.3000000  0.0002578  0.0000426 -0.0001390
  2.4625000  0.3000000  0.0006338  0.0000340 -0.0002211
  2.4500000  0.3000000  0.0011560  0.0000282 -0.0002793
  2.4375000  0.2876000  0.0015505  0.0000318 -0.0005717
  2.4375000  0.2753000  0.0011876  0.0000753 -0.0009779
  2.4375000  0.3000000  0.0017743  0.0000262 -0.0003137
  2.4250000  0.3000000  0.0024407  0.0000264 -0.0003257
  2.4250000  0.2876000  0.0020566 -0.0000006 -0.0005887
  2.4250000  0.2753000  0.0015073 -0.0000106 -0.0009949
  2.4375000  0.2630000  0.0008185  0.0001229 -0.0012327
  2.4250000  0.2630000  0.0010035 -0.0000411 -0.0012333
  2.4250000  0.2508000  0.0005638 -0.0000982 -0.0013530
  2.4375000  0.2508000  0.0004777  0.0001587 -0.0013757
  2.4125000  0.2630000  0.0011567 -0.0002088 -0.0011421
  2.4125000  0.2753000  0.0018035 -0.0000969 -0.0009415
  2.4000000  0.2753000  0.0020485 -0.0001865 -0.0008148
  2.4000000  0.2630000  0.0012588 -0.0003849 -0.0009527
  2.4000000  0.2508000  0.0006264 -0.0006500 -0.0009784
  2.4125000  0.2508000  0.0006179 -0.0003658 -0.0012236
  2.4125000  0.2876000  0.0025536 -0.0000324 -0.0005664
  2.4000000  0.2876000  0.0030050 -0.0000650 -0.0005041
  2.4125000  0.3000000  0.0031103  0.0000280 -0.0003169
  2.4000000  0.3000000  0.0037399  0.0000299 -0.0002873
  2.3875000  0.2876000  0.0033719 -0.0000995 -0.0003999
  2.3875000  0.2753000  0.0022117 -0.0002817 -0.0006103
  2.3875000  0.3000000  0.0042854  0.0000312 -0.0002363
  2.3750000  0.3000000  0.0047009  0.0000315 -0.0001625
  2.3750000  0.2876000  0.0036129 -0.0001364 -0.0002509
  2.3750000  0.2753000  0.0022591 -0.0003838 -0.0003226
  2.3875000  0.2630000  0.0012864 -0.0005732 -0.0006575
  2.3750000  0.2630000  0.0012127 -0.0007758 -0.0002476
  2.3750000  0.2508000  0.0004366 -0.0012873 -0.0000942
  2.3875000  0.2508000  0.0005728 -0.0009563 -0.0006060
  2.3625000  0.2630000  0.0010075 -0.0009926  0.0002859
  2.3625000  0.2753000  0.0021537 -0.0004929  0.0000543
  2.3500000  0.2753000  0.0018562 -0.0006078  0.0005258
  2.3500000  0.2630000  0.0006377 -0.0012208  0.0009507
  2.3500000  0.2508000 -0.0001846 -0.0020174  0.0013957
  2.3625000  0.2508000  0.0001934 -0.0016426  0.0005694
  2.3625000  0.2876000  0.0036839 -0.0001759 -0.0000542
  2.3500000  0.2876000  0.0035380 -0.0002175  0.0001932
  2.3625000  0.3000000  0.0049371  0.0000303 -0.0000643
  2.3500000  0.3000000  0.0049415  0.0000275  0.0000600
  2.3375000  0.2876000  0.0031259 -0.0002603  0.0004933
  2.3375000  0.2753000  0.0013252 -0.0007259  0.0010957
  2.3375000  0.3000000  0.0046584  0.0000229  0.0002115
  2.3250000  0.3000000  0.0040310  0.0000164  0.0003905
  2.3250000  0.2876000  0.0023975 -0.0003030  0.0008468
  2.3250000  0.2753000  0.0005181 -0.0008434  0.0017648
  2.3375000  0.2630000  0.0000677 -0.0014555  0.0017525
  2.3250000  0.2630000 -0.0007396 -0.0016890  0.0026929
  2.3250000  0.2508000 -0.0014734 -0.0027883  0.0035635
  2.3375000  0.2508000 -0.0007290 -0.0024036  0.0023926
  2.3125000  0.2630000 -0.0018219 -0.0019118  0.0037686
  2.3125000  0.2753000 -0.0006071 -0.0009555  0.0025306
  2.3000000  0.2753000 -0.0020904 -0.0010567  0.0033860
  2.3000000  0.2630000 -0.0032149 -0.0021129  0.0049701
  2.3000000  0.2508000 -0.0037031 -0.0034948  0.0064103
  2.3125000  0.2508000 -0.0024538 -0.0031578  0.0049067
  2.3125000  0.2876000  0.0013030 -0.0003437  0.0012524
  2.3000000  0.2876000 -0.0002048 -0.0003807  0.0017064
  2.3125000  0.3000000  0.0030023  0.0000081  0.0005965
  2.3000000  0.3000000  0.0015179 -0.0000019  0.0008277
  2.2875000  0.2876000 -0.0021718 -0.0004127  0.0022051
  2.2875000  0.2753000 -0.0039695 -0.0011418  0.0043200
  2.2875000  0.3000000 -0.0004715 -0.0000126  0.0010811
  2.2750000  0.3000000 -0.0030057 -0.0000252  0.0013504
  2.2750000  0.2876000 -0.0046268 -0.0004366  0.0027384
  2.2750000  0.2752000 -0.0062710 -0.0012075  0.0053198
  2.2875000  0.2630000 -0.0049519 -0.0022848  0.0062851
  2.2750000  0.2630000 -0.0070621 -0.0024181  0.0076935
  2.2750000  0.2507000 -0.0071359 -0.0039948  0.0098150
  2.2875000  0.2508000 -0.0052534 -0.0037779  0.0080540
  2.2625000  0.2630000 -0.0095604 -0.0024955  0.0091559
  2.2625000  0.2507000 -0.0093626 -0.0041259  0.0116508
  2.2625000  0.2753000 -0.0090232 -0.0012462  0.0063584
  2.2500000  0.2752000 -0.0122322 -0.0012605  0.0074284
  2.2500000  0.2629000 -0.0124657 -0.0025222  0.0106575
  2.2500000  0.2507000 -0.0119593 -0.0041677  0.0135277
  2.2625000  0.2876000 -0.0076018 -0.0004500  0.0032916
  2.2625000  0.3000000 -0.0061175 -0.0000396  0.0016351
  2.2500000  0.3000000 -0.0098253 -0.0000519  0.0019224
  2.2500000  0.2876000 -0.0111129 -0.0004560  0.0038619
  2.2375000  0.2630000 -0.0157811 -0.0024881  0.0121467
  2.2375000  0.2752000 -0.0159058 -0.0012400  0.0084836
  2.2250000  0.2752000 -0.0200439 -0.0011959  0.0095152
  2.2250000  0.2630000 -0.0195026 -0.0023989  0.0135957
  2.2250000  0.2507000 -0.0182573 -0.0039610  0.0172130
  2.2375000  0.2507000 -0.0149268 -0.0041101  0.0153950
  2.2375000  0.2876000 -0.0151596 -0.0004501  0.0044305
  2.2250000  0.2876000 -0.0197377 -0.0004314  0.0049782
  2.2375000  0.3000000 -0.0141326 -0.0000683  0.0022101
  2.2250000  0.3000000 -0.0190329 -0.0000857  0.0024911
  2.2125000  0.2876000 -0.0248361 -0.0004050  0.0054974
  2.2125000  0.3000000 -0.0245071 -0.0001004  0.0027610
  2.2000000  0.3000000 -0.0305178 -0.0001187  0.0030056
  2.2000000  0.2876000 -0.0304171 -0.0003729  0.0059880
  2.2000000  0.2752000 -0.0296258 -0.0010364  0.0114245
  2.2125000  0.2753000 -0.0246219 -0.0011247  0.0104961
  2.2125000  0.2630000 -0.0236117 -0.0022542  0.0149701
  2.2000000  0.2630000 -0.0280973 -0.0020758  0.0162630
  2.2000000  0.2508000 -0.0259577 -0.0034334  0.0205603
  2.2125000  0.2508000 -0.0219396 -0.0037279  0.0189423
  2.1875000  0.2630000 -0.0329216 -0.0018658  0.0174353
  2.1875000  0.2508000 -0.0302699 -0.0030841  0.0220341
  2.1875000  0.2753000 -0.0350143 -0.0009293  0.0122545
  2.1750000  0.2753000 -0.0407575 -0.0008142  0.0129991
  2.1750000  0.2630000 -0.0380489 -0.0016339  0.0184804
  2.1750000  0.2508000 -0.0348534 -0.0027017  0.0233371
  2.1875000  0.2876000 -0.0364416 -0.0003317  0.0064241
  2.1875000  0.3000000 -0.0370216 -0.0001400  0.0032338
  2.1750000  0.3000000 -0.0439697 -0.0001589  0.0034325
  2.1750000  0.2876000 -0.0428785 -0.0002899  0.0068123
  2.1625000  0.2630000 -0.0434508 -0.0013945  0.0193902
  2.1625000  0.2753000 -0.0468093 -0.0006944  0.0136451
  2.1500000  0.2753000 -0.0531292 -0.0005760  0.0141901
  2.1500000  0.2630000 -0.0490841 -0.0011570  0.0201562
  2.1500000  0.2508000 -0.0446934 -0.0019220  0.0254336
  2.1625000  0.2508000 -0.0396740 -0.0023100  0.0244725
  2.1625000  0.2876000 -0.0496641 -0.0002466  0.0071516
  2.1500000  0.2876000 -0.0567542 -0.0002030  0.0074370
  2.1625000  0.3000000 -0.0513036 -0.0001819  0.0036034
  2.1500000  0.3000000 -0.0589643 -0.0002061  0.0037465
  2.1375000  0.2876000 -0.0640974 -0.0001616  0.0076692
  2.1375000  0.2753000 -0.0596767 -0.0004612  0.0146374
  2.1375000  0.3000000 -0.0668952 -0.0002325  0.0038625
  2.1250000  0.3000000 -0.0750414 -0.0002597  0.0039533
  2.1250000  0.2876000 -0.0716456 -0.0001244  0.0078527
  2.1250000  0.2753000 -0.0664095 -0.0003547  0.0149870
  2.1375000  0.2630000 -0.0549195 -0.0009266  0.0207809
  2.1250000  0.2630000 -0.0609270 -0.0007233  0.0212822
  2.1250000  0.2509000 -0.0552129 -0.0012153  0.0268488
  2.1375000  0.2509000 -0.0498798 -0.0015512  0.0262149
  2.1125000  0.2631000 -0.0670434 -0.0005366  0.0216660
  2.1125000  0.2753000 -0.0732965 -0.0002601  0.0152490
  2.1000000  0.2753000 -0.0802947 -0.0001816  0.0154492
  2.1000000  0.2630000 -0.0732817 -0.0003778  0.0219640
  2.1000000  0.2509000 -0.0661507 -0.0006420  0.0276921
  2.1125000  0.2509000 -0.0606307 -0.0009036  0.0273279
  2.1125000  0.2876000 -0.0793551 -0.0000882  0.0079917
  2.1000000  0.2876000 -0.0871848 -0.0000605  0.0080888
  2.1125000  0.3000000 -0.0833518 -0.0002892  0.0040200
  2.1000000  0.3000000 -0.0917814 -0.0003198  0.0040678
  2.0875000  0.2876000 -0.0950982 -0.0000339  0.0081548
  2.0875000  0.2753000 -0.0873711 -0.0001114  0.0155800
  2.0875000  0.3000000 -0.1002911 -0.0003515  0.0040968
  2.0750000  0.3000000 -0.1088483 -0.0003845  0.0041134
  2.0750000  0.2876000 -0.1030681 -0.0000160  0.0081906
  2.0750000  0.2753000 -0.0945152 -0.0000584  0.0156648
  2.0875000  0.2631000 -0.0795686 -0.0002400  0.0221557
  2.0750000  0.2630000 -0.0859412 -0.0001317  0.0222926
  2.0750000  0.2509000 -0.0773335 -0.0002392  0.0281195
  2.0875000  0.2509000 -0.0717146 -0.0004178  0.0279471
  2.0625000  0.2631000 -0.0923192 -0.0000410  0.0223515
  2.0625000  0.2753000 -0.1016887 -0.0000121  0.0157006
  2.0500000  0.2753000 -0.1088935  0.0000181  0.0157101
  2.0500000  0.2630000 -0.0987571  0.0000227  0.0223828
  2.0500000  0.2509000 -0.0886503  0.0000155  0.0282538
  2.0625000  0.2509000 -0.0829757 -0.0000895  0.0282127
  2.0625000  0.2876000 -0.1110679  0.0000022  0.0082065
  2.0500000  0.2876000 -0.1190807  0.0000115  0.0082029
  2.0625000  0.3000000 -0.1174267 -0.0004178  0.0041173
  2.0500000  0.3000000 -0.1260061 -0.0004520  0.0041142
  2.0375000  0.2876000 -0.1270889  0.0000230  0.0081890
  2.0375000  0.2753000 -0.1160957  0.0000451  0.0156882
  2.0375000  0.3000000 -0.1345707 -0.0004859  0.0041033
  2.0250000  0.3000000 -0.1431100 -0.0005205  0.0040898
  2.0250000  0.2876000 -0.1350846  0.0000257  0.0081638
  2.0250000  0.2753000 -0.1233074  0.0000581  0.0156554
  2.0375000  0.2631000 -0.1051696  0.0000749  0.0223600
  2.0250000  0.2630000 -0.1116281  0.0001051  0.0223308
  2.0250000  0.2509000 -0.1000217  0.0001532  0.0282132
  2.0375000  0.2509000 -0.0943260  0.0001029  0.0282469
  2.0125000  0.2631000 -0.1180406  0.0001300  0.0222651
  2.0125000  0.2753000 -0.1304975  0.0000715  0.0156041
  2.0000000  0.2753000 -0.1376862  0.0000729  0.0155526
  2.0000000  0.2630000 -0.1244939  0.0001374  0.0222078
  2.0000000  0.2509000 -0.1114035  0.0002097  0.0280831
  2.0125000  0.2509000 -0.1057058  0.0001966  0.0281527
  2.0125000  0.2876000 -0.1430572  0.0000325  0.0081353
  2.0000000  0.2876000 -0.1510050  0.0000308  0.0081012
  2.0125000  0.3000000 -0.1516166 -0.0005544  0.0040720
  2.0000000  0.3000000 -0.1600866 -0.0005889  0.0040545
  1.9875000  0.2876000 -0.1589219  0.0000349  0.0080684
  1.9875000  0.2753000 -0.1448433  0.0000779  0.0154913
  1.9875000  0.3000000 -0.1685180 -0.0006224  0.0040351
  1.9750000  0.3000000 -0.1769112 -0.0006564  0.0040176
  1.9750000  0.2876000 -0.1668108  0.0000304  0.0080335
  1.9750000  0.2753000 -0.1519957  0.0000723  0.0154363
  1.9875000  0.2631000 -0.1308880  0.0001453  0.0221259
  1.9750000  0.2630000 -0.1373235  0.0001390  0.0220615
  1.9750000  0.2509000 -0.1227719  0.0002155  0.0279209
  1.9875000  0.2509000 -0.1170820  0.0002251  0.0280010
  1.9625000  0.2631000 -0.1436912  0.0001377  0.0219794
  1.9625000  0.2753000 -0.1591126  0.0000730  0.0153763
  1.9500000  0.2753000 -0.1662258  0.0000637  0.0153262
  1.9500000  0.2630000 -0.1501047  0.0001243  0.0219197
  1.9500000  0.2509000 -0.1341164  0.0001946  0.0277605
  1.9625000  0.2509000 -0.1284382  0.0002160  0.0278367
  1.9625000  0.2876000 -0.1746681  0.0000332  0.0080024
  1.9500000  0.2876000 -0.1824991  0.0000272  0.0079709
  1.9625000  0.3000000 -0.1852671 -0.0006894  0.0039995
  1.9500000  0.3000000 -0.1935884 -0.0007228  0.0039842
  1.9375000  0.2876000 -0.1903015  0.0000297  0.0079444
  1.9375000  0.2753000 -0.1733031  0.0000628  0.0152735
  1.9375000  0.3000000 -0.2018775 -0.0007551  0.0039688
  1.9250000  0.3000000 -0.2101379 -0.0007880  0.0039564
  1.9250000  0.2876000 -0.1980818  0.0000230  0.0079182
  1.9250000  0.2753000 -0.1803803  0.0000521  0.0152319
  1.9375000  0.2631000 -0.1564447  0.0001192  0.0218458
  1.9250000  0.2630000 -0.1628366  0.0001030  0.0217965
  1.9250000  0.2509000 -0.1454340  0.0001621  0.0276193
  1.9375000  0.2509000 -0.1397685  0.0001885  0.0276845
  1.9125000  0.2631000 -0.1691509  0.0000975  0.0217342
  1.9125000  0.2753000 -0.1874228  0.0000513  0.0151886
  1.9000000  0.2753000 -0.1944697  0.0000403  0.0151566
  1.9000000  0.2630000 -0.1755242  0.0000810  0.0216967
  1.9000000  0.2509000 -0.1567265  0.0001280  0.0275038
  1.9125000  0.2509000 -0.1510724  0.0001552  0.0275559
  1.9125000  0.2876000 -0.2058378  0.0000258  0.0078973
  1.9000000  0.2876000 -0.2135769  0.0000189  0.0078766
  1.9125000  0.3000000 -0.2183723 -0.0008196  0.0039440
  1.9000000  0.3000000 -0.2265843 -0.0008521  0.0039347
  1.8875000  0.2876000 -0.2212964  0.0000223  0.0078610
  1.8875000  0.2753000 -0.2014835  0.0000405  0.0151226
  1.8875000  0.3000000 -0.2347766 -0.0008832  0.0039252
  1.8750000  0.3000000 -0.2429523 -0.0009153  0.0039186
  1.8750000  0.2876000 -0.2290038  0.0000153  0.0078454
  1.8750000  0.2753000 -0.2085065  0.0000299  0.0150994
  1.8875000  0.2631000 -0.1818165  0.0000769  0.0216463
  1.8750000  0.2630000 -0.1881749  0.0000612  0.0216202
  1.8750000  0.2509000 -0.1679971  0.0000968  0.0274145
  1.8875000  0.2509000 -0.1623525  0.0001229  0.0274536
  1.8625000  0.2631000 -0.1944491  0.0000592  0.0215804
  1.8625000  0.2753000 -0.2154981  0.0000314  0.0150736
  1.8500000  0.2753000 -0.2225031  0.0000214  0.0150579
  1.8500000  0.2630000 -0.2007966  0.0000449  0.0215641
  1.8500000  0.2509000 -0.1792499  0.0000711  0.0273484
  1.8625000  0.2509000 -0.1736129  0.0000951  0.0273765
  1.8625000  0.2876000 -0.2366958  0.0000194  0.0078344
  1.8500000  0.2876000 -0.2443800  0.0000124  0.0078229
  1.8625000  0.3000000 -0.2511134 -0.0009460  0.0039115
  1.8500000  0.3000000 -0.2592629 -0.0009778  0.0039071
  1.8375000  0.2876000 -0.2520522  0.0000173  0.0078156
  1.8375000  0.2753000 -0.2294781  0.0000242  0.0150388
  1.8375000  0.3000000 -0.2674022 -0.0010082  0.0039020
  1.8250000  0.3000000 -0.2755337 -0.0010398  0.0038993
  1.8250000  0.2876000 -0.2597200  0.0000103  0.0078075
  1.8250000  0.2753000 -0.2364703  0.0000148  0.0150290
  1.8375000  0.2631000 -0.2070564  0.0000453  0.0215331
  1.8250000  0.2630000 -0.2133965  0.0000323  0.0215245
  1.8250000  0.2509000 -0.1904888  0.0000508  0.0273015
  1.8375000  0.2509000 -0.1848574  0.0000729  0.0273204
  1.8125000  0.2631000 -0.2196452  0.0000348  0.0215004
  1.8125000  0.2753000 -0.2434332  0.0000190  0.0150150
  1.8000000  0.2753000 -0.2504168  0.0000100  0.0150096
  1.8000000  0.2630000 -0.2259806  0.0000231  0.0214977
  1.8000000  0.2509000 -0.2017175  0.0000360  0.0272693
  1.8125000  0.2509000 -0.1960900  0.0000563  0.0272815
  1.8125000  0.2876000 -0.2673786  0.0000159  0.0078030
  1.8000000  0.2876000 -0.2750353  0.0000088  0.0077972
  1.8125000  0.3000000 -0.2836581 -0.0010701  0.0038956
  1.8000000  0.3000000 -0.2917776 -0.0011015  0.0038941
  1.7875000  0.2876000 -0.2826848  0.0000150  0.0077948
  1.7875000  0.2753000 -0.2573712  0.0000153  0.0149994
  1.7875000  0.3000000 -0.2998925 -0.0011316  0.0038915
  1.7750000  0.3000000 -0.3080044 -0.0011630  0.0038909
  1.7750000  0.2876000 -0.2903344  0.0000079  0.0077907
  1.7750000  0.2753000 -0.2643492  0.0000066  0.0149971
  1.7875000  0.2631000 -0.2322206  0.0000275  0.0214787
  1.7750000  0.2630000 -0.2385537  0.0000165  0.0214803
  1.7750000  0.2509000 -0.2129386  0.0000253  0.0272483
  1.7875000  0.2509000 -0.2073138  0.0000443  0.0272552
  1.7625000  0.2631000 -0.2447870  0.0000225  0.0214649
  1.7625000  0.2753000 -0.2712978  0.0000129  0.0149896
  1.7500000  0.2753000 -0.2782724  0.0000043  0.0149896
  1.7500000  0.2630000 -0.2511194  0.0000122  0.0214696
  1.7500000  0.2509000 -0.2241547  0.0000182  0.0272350
  1.7625000  0.2509000 -0.2185314  0.0000364  0.0272385
  1.7625000  0.2876000 -0.2979780  0.0000147  0.0077897
  1.7500000  0.2876000 -0.3056232  0.0000073  0.0077869
  1.7625000  0.3000000 -0.3161133 -0.0011929  0.0038891
  1.7500000  0.3000000 -0.3242207 -0.0012243  0.0038890
  1.7375000  0.2876000 -0.3132633  0.0000147  0.0077868
  1.7375000  0.2753000 -0.2852172  0.0000114  0.0149839
  1.7375000  0.3000000 -0.3323262 -0.0012542  0.0038877
  1.7250000  0.3000000 -0.3404311 -0.0012855  0.0038880
  1.7250000  0.2876000 -0.3209061  0.0000071  0.0077847
  1.7250000  0.2753000 -0.2921900  0.0000028  0.0149853
  1.7375000  0.2631000 -0.2573475  0.0000195  0.0214566
  1.7250000  0.2630000 -0.2636803  0.0000094  0.0214633
  1.7250000  0.2509000 -0.2353672  0.0000134  0.0272272
  1.7375000  0.2509000 -0.2297447  0.0000313  0.0272282
  1.7125000  0.2631000 -0.2699042  0.0000177  0.0214521
  1.7125000  0.2753000 -0.2991322  0.0000107  0.0149808
  1.7000000  0.2753000 -0.3061044  0.0000019  0.0149831
  1.7000000  0.2630000 -0.2762383  0.0000078  0.0214600
  1.7000000  0.2509000 -0.2465776  0.0000108  0.0272230
  1.7125000  0.2509000 -0.2409552  0.0000284  0.0272225
  1.7125000  0.2876000 -0.3285442  0.0000149  0.0077853
  1.7000000  0.2876000 -0.3361857  0.0000071  0.0077837
  1.7125000  0.3000000 -0.3485348 -0.0013154  0.0038870
  1.7000000  0.3000000 -0.3566385 -0.0013467  0.0038875
  1.6875000  0.2876000 -0.3438228  0.0000153  0.0077847
  1.6875000  0.2753000 -0.3130448  0.0000104  0.0149793
  1.6875000  0.3000000 -0.3647415 -0.0013765  0.0038867
  1.6750000  0.3000000 -0.3728447 -0.0014079  0.0038874
  1.6750000  0.2876000 -0.3514638  0.0000072  0.0077833
  1.6750000  0.2753000 -0.3200170  0.0000014  0.0149822
  1.6875000  0.2631000 -0.2824587  0.0000169  0.0214498
  1.6750000  0.2630000 -0.2887947  0.0000068  0.0214586
  1.6750000  0.2509000 -0.2577865  0.0000091  0.0272210
  1.6875000  0.2509000 -0.2521639  0.0000271  0.0272193
  1.6625000  0.2631000 -0.2950120  0.0000168  0.0214490
  1.6625000  0.2753000 -0.3269562  0.0000104  0.0149789
  1.6500000  0.2753000 -0.3339288  0.0000012  0.0149821
  1.6500000  0.2630000 -0.3013502  0.0000065  0.0214582
  1.6500000  0.2509000 -0.2689948  0.0000085  0.0272203
  1.6625000  0.2509000 -0.2633716  0.0000268  0.0272183
  1.6625000  0.2876000 -0.3591004  0.0000159  0.0077845
  1.6500000  0.2876000 -0.3667413  0.0000074  0.0077833
  1.6625000  0.3000000 -0.3809475 -0.0014376  0.0038866
  1.6500000  0.3000000 -0.3890507 -0.0014691  0.0038874
  1.6375000  0.2876000 -0.3743779  0.0000165  0.0077846
  1.6375000  0.2753000 -0.3408671  0.0000106  0.0149790
  1.6375000  0.3000000 -0.3971537 -0.0014988  0.0038867
  1.6250000  0.3000000 -0.4052571 -0.0015302  0.0038876
  1.6250000  0.2876000 -0.3820190  0.0000077  0.0077835
  1.6250000  0.2753000 -0.3478404  0.0000011  0.0149824
  1.6375000  0.2631000 -0.3075647  0.0000171  0.0214489
  1.6250000  0.2630000 -0.3139053  0.0000065  0.0214584
  1.6250000  0.2509000 -0.2802025  0.0000081  0.0272205
  1.6375000  0.2509000 -0.2745788  0.0000271  0.0272179
  1.6125000  0.2631000 -0.3201172  0.0000176  0.0214493
  1.6125000  0.2753000 -0.3547781  0.0000110  0.0149794
  1.6000000  0.2753000 -0.3617522  0.0000011  0.0149828
  1.6000000  0.2630000 -0.3264604  0.0000067  0.0214589
  1.6000000  0.2509000 -0.2914102  0.0000085  0.0272210
  1.6125000  0.2509000 -0.2857856  0.0000279  0.0272184
  1.6125000  0.2876000 -0.3896557  0.0000171  0.0077849
  1.6000000  0.2876000 -0.3972971  0.0000080  0.0077838
  1.6125000  0.3000000 -0.4133603 -0.0015599  0.0038869
  1.6000000  0.3000000 -0.4214641 -0.0015914  0.0038877
  1.5875000  0.2876000 -0.4049339  0.0000178  0.0077852
  1.5875000  0.2753000 -0.3686893  0.0000114  0.0149798
  1.5875000  0.3000000 -0.4295677 -0.0016210  0.0038870
  1.5750000  0.3000000 -0.4376718 -0.0016526  0.0038879
  1.5750000  0.2876000 -0.4125757  0.0000083  0.0077841
  1.5750000  0.2753000 -0.3756642  0.0000011  0.0149833
  1.5875000  0.2631000 -0.3326697  0.0000182  0.0214499
  1.5750000  0.2630000 -0.3390156  0.0000069  0.0214596
  1.5750000  0.2509000 -0.3026177  0.0000086  0.0272217
  1.5875000  0.2509000 -0.2969924  0.0000289  0.0272189
  1.5625000  0.2631000 -0.3452225  0.0000189  0.0214506
  1.5625000  0.2753000 -0.3826008  0.0000118  0.0149804
  1.5500000  0.2753000 -0.3895766  0.0000012  0.0149839
  1.5500000  0.2630000 -0.3515710  0.0000072  0.0214602
  1.5500000  0.2509000 -0.3138255  0.0000092  0.0272224
  1.5625000  0.2509000 -0.3081993  0.0000300  0.0272198
  1.5625000  0.2876000 -0.4202127  0.0000185  0.0077855
  1.5500000  0.2876000 -0.4278548  0.0000086  0.0077844
  1.5625000  0.3000000 -0.4457757 -0.0016822  0.0038872
  1.5500000  0.3000000 -0.4538802 -0.0017138  0.0038880
  1.5375000  0.2876000 -0.4354919  0.0000191  0.0077857
  1.5375000  0.2753000 -0.3965126  0.0000123  0.0149809
  1.5375000  0.3000000 -0.4619843 -0.0017433  0.0038873
  1.5250000  0.3000000 -0.4700891 -0.0017750  0.0038882
  1.5250000  0.2876000 -0.4431344  0.0000089  0.0077847
  1.5250000  0.2753000 -0.4034894  0.0000012  0.0149843
  1.5375000  0.2631000 -0.3577754  0.0000197  0.0214512
  1.5250000  0.2630000 -0.3641267  0.0000074  0.0214609
  1.5250000  0.2509000 -0.3250332  0.0000093  0.0272231
  1.5375000  0.2509000 -0.3194062  0.0000311  0.0272203
  1.5125000  0.2631000 -0.3703286  0.0000204  0.0214519
  1.5125000  0.2753000 -0.4104249  0.0000127  0.0149813
  1.5000000  0.2753000 -0.4174025  0.0000013  0.0149848
  1.5000000  0.2630000 -0.3766826  0.0000078  0.0214615
  1.5000000  0.2509000 -0.3362412  0.0000099  0.0272238
  1.5125000  0.2509000 -0.3306132  0.0000323  0.0272212
  1.5125000  0.2876000 -0.4507717  0.0000198  0.0077860
  1.5000000  0.2876000 -0.4584146  0.0000092  0.0077849
  1.5125000  0.3000000 -0.4781936 -0.0018045  0.0038875
  1.5000000  0.3000000 -0.4862987 -0.0018362  0.0038883
  1.4875000  0.2876000 -0.4660520  0.0000205  0.0077863
  1.4875000  0.2753000 -0.4243375  0.0000132  0.0149818
  1.4875000  0.3000000 -0.4944034 -0.0018657  0.0038876
  1.4750000  0.3000000 -0.5025089 -0.0018974  0.0038884
  1.4750000  0.2876000 -0.4736952  0.0000096  0.0077852
  1.4750000  0.2753000 -0.4313160  0.0000013  0.0149853
  1.4875000  0.2631000 -0.3828821  0.0000211  0.0214525
  1.4750000  0.2630000 -0.3892387  0.0000080  0.0214622
  1.4750000  0.2509000 -0.3474492  0.0000100  0.0272246
  1.4875000  0.2509000 -0.3418204  0.0000334  0.0272218
  1.4625000  0.2631000 -0.3954357  0.0000218  0.0214532
  1.4625000  0.2753000 -0.4382505  0.0000136  0.0149823
  1.4500000  0.2753000 -0.4452299  0.0000014  0.0149858
  1.4500000  0.2630000 -0.4017951  0.0000083  0.0214628
  1.4500000  0.2509000 -0.3586575  0.0000106  0.0272253
  1.4625000  0.2509000 -0.3530277  0.0000345  0.0272227
  1.4625000  0.2876000 -0.4813328  0.0000212  0.0077865
  1.4500000  0.2876000 -0.4889763  0.0000099  0.0077855
  1.4625000  0.3000000 -0.5106139 -0.0019268  0.0038877
  1.4500000  0.3000000 -0.5187196 -0.0019586  0.0038886
  1.4375000  0.2876000 -0.4966142  0.0000218  0.0077868
  1.4375000  0.2753000 -0.4521639  0.0000140  0.0149828
  1.4375000  0.3000000 -0.5268249 -0.0019880  0.0038879
  1.4250000  0.3000000 -0.5349310 -0.0020198  0.0038887
  1.4250000  0.2876000 -0.5042580  0.0000102  0.0077858
  1.4250000  0.2753000 -0.4591442  0.0000014  0.0149863
  1.4375000  0.2631000 -0.4079897  0.0000225  0.0214538
  1.4250000  0.2630000 -0.4143517  0.0000085  0.0214635
  1.4250000  0.2509000 -0.3698657  0.0000107  0.0272261
  1.4375000  0.2509000 -0.3642351  0.0000356  0.0272233
  1.4125000  0.2631000 -0.4205438  0.0000232  0.0214545
  1.4125000  0.2753000 -0.4660776  0.0000145  0.0149833
  1.4000000  0.2753000 -0.4730588  0.0000015  0.0149868
  1.4000000  0.2630000 -0.4269086  0.0000089  0.0214641
  1.4000000  0.2509000 -0.3810742  0.0000114  0.0272267
  1.4125000  0.2509000 -0.3754427  0.0000367  0.0272242
  1.4125000  0.2876000 -0.5118960  0.0000225  0.0077871
  1.4000000  0.2876000 -0.5195402  0.0000105  0.0077861
  1.4125000  0.3000000 -0.5430366 -0.0020492  0.0038881
  1.4000000  0.3000000 -0.5511430 -0.0020810  0.0038889
  1.3875000  0.2876000 -0.5271784  0.0000232  0.0077874
  1.3875000  0.2753000 -0.4799917  0.0000149  0.0149838
  1.3875000  0.3000000 -0.5592490 -0.0021104  0.0038882
  1.3750000  0.3000000 -0.5673557 -0.0021423  0.0038891
  1.3750000  0.2876000 -0.5348229  0.0000108  0.0077864
  1.3750000  0.2753000 -0.4869737  0.0000016  0.0149873
  1.3875000  0.2631000 -0.4330982  0.0000239  0.0214550
  1.3750000  0.2630000 -0.4394655  0.0000092  0.0214646
  1.3750000  0.2509000 -0.3922824  0.0000116  0.0272273
  1.3875000  0.2509000 -0.3866502  0.0000380  0.0272246
  1.3625000  0.2631000 -0.4456525  0.0000249  0.0214555
  1.3625000  0.2753000 -0.4939060  0.0000155  0.0149842
  1.3500000  0.2753000 -0.5008888  0.0000018  0.0149876
  1.3500000  0.2630000 -0.4520224  0.0000099  0.0214649
  1.3500000  0.2509000 -0.4034907  0.0000128  0.0272274
  1.3625000  0.2509000 -0.3978577  0.0000395  0.0272252
  1.3625000  0.2876000 -0.5424612  0.0000239  0.0077877
  1.3500000  0.2876000 -0.5501060  0.0000112  0.0077866
  1.3625000  0.3000000 -0.5754620 -0.0021716  0.0038884
  1.3500000  0.3000000 -0.5835691 -0.0022035  0.0038892
  1.3375000  0.2876000 -0.5577444  0.0000246  0.0077878
  1.3375000  0.2753000 -0.5078203  0.0000161  0.0149843
  1.3375000  0.3000000 -0.5916756 -0.0022328  0.0038885
  1.3250000  0.3000000 -0.5997828 -0.0022648  0.0038892
  1.3250000  0.2876000 -0.5653893  0.0000116  0.0077866
  1.3250000  0.2753000 -0.5148037  0.0000021  0.0149875
  1.3375000  0.2631000 -0.4582067  0.0000260  0.0214554
  1.3250000  0.2630000 -0.4645789  0.0000107  0.0214645
  1.3250000  0.2509000 -0.4146984  0.0000139  0.0272268
  1.3375000  0.2509000 -0.4090649  0.0000413  0.0272248
  1.3125000  0.2631000 -0.4707604  0.0000276  0.0214547
  1.3125000  0.2753000 -0.5217341  0.0000170  0.0149839
  1.3000000  0.2753000 -0.5287178  0.0000027  0.0149866
  1.3000000  0.2630000 -0.4771346  0.0000121  0.0214631
  1.3000000  0.2509000 -0.4259055  0.0000165  0.0272248
  1.3125000  0.2509000 -0.4202716  0.0000439  0.0272238
  1.3125000  0.2876000 -0.5730274  0.0000254  0.0077877
  1.3000000  0.2876000 -0.5806720  0.0000121  0.0077862
  1.3125000  0.3000000 -0.6078893 -0.0022940  0.0038884
  1.3000000  0.3000000 -0.6159964 -0.0023260  0.0038891
  1.2875000  0.2876000 -0.5883095  0.0000264  0.0077870
  1.2875000  0.2753000 -0.5356468  0.0000181  0.0149825
  1.2875000  0.3000000 -0.6241025 -0.0023552  0.0038882
  1.2750000  0.3000000 -0.6322088 -0.0023872  0.0038887
  1.2750000  0.2876000 -0.5959533  0.0000127  0.0077852
  1.2750000  0.2753000 -0.5426302  0.0000037  0.0149845
  1.2875000  0.2631000 -0.4833128  0.0000297  0.0214524
  1.2750000  0.2630000 -0.4896887  0.0000142  0.0214599
  1.2750000  0.2509000 -0.4371110  0.0000196  0.0272207
  1.2875000  0.2509000 -0.4314772  0.0000474  0.0272206
  1.2625000  0.2631000 -0.4958630  0.0000328  0.0214480
  1.2625000  0.2753000 -0.5495571  0.0000198  0.0149795
  1.2500000  0.2753000 -0.5565393  0.0000053  0.0149803
  1.2500000  0.2630000 -0.5022398  0.0000176  0.0214537
  1.2500000  0.2509000 -0.4483145  0.0000253  0.0272129
  1.2625000  0.2509000 -0.4426810  0.0000525  0.0272151
  1.2625000  0.2876000 -0.6035894  0.0000275  0.0077856
  1.2500000  0.2876000 -0.6112315  0.0000136  0.0077832
  1.2625000  0.3000000 -0.6403138 -0.0024164  0.0038875
  1.2500000  0.3000000 -0.6484184 -0.0024484  0.0038877
  1.2375000  0.2876000 -0.6188648  0.0000288  0.0077827
  1.2375000  0.2753000 -0.5634631  0.0000221  0.0149738
  1.2375000  0.3000000 -0.6565209 -0.0024775  0.0038861
  1.2250000  0.3000000 -0.6646222 -0.0025095  0.0038858
  1.2250000  0.2876000 -0.6265037  0.0000147  0.0077794
  1.2250000  0.2753000 -0.5704429  0.0000076  0.0149728
  1.2375000  0.2631000 -0.5084094  0.0000373  0.0214397
  1.2250000  0.2630000 -0.5147861  0.0000225  0.0214431
  1.2250000  0.2509000 -0.4595142  0.0000328  0.0271998
  1.2375000  0.2509000 -0.4538820  0.0000598  0.0272047
  1.2125000  0.2631000 -0.5209499  0.0000437  0.0214261
  1.2125000  0.2753000 -0.5773619  0.0000254  0.0149642
  1.2000000  0.2753000 -0.5843373  0.0000112  0.0149605
  1.2000000  0.2630000 -0.5273251  0.0000297  0.0214257
  1.2000000  0.2509000 -0.4707090  0.0000447  0.0271786
  1.2125000  0.2509000 -0.4650787  0.0000701  0.0271882
  1.2125000  0.2876000 -0.6341325  0.0000305  0.0077777
  1.2000000  0.2876000 -0.6417658  0.0000163  0.0077730
  1.2125000  0.3000000 -0.6727202 -0.0025385  0.0038837
  1.2000000  0.3000000 -0.6808157 -0.0025704  0.0038827
  1.1875000  0.2876000 -0.6493873  0.0000327  0.0077696
  1.1875000  0.2753000 -0.5912492  0.0000300  0.0149486
  1.1875000  0.3000000 -0.6889062 -0.0025993  0.0038796
  1.1750000  0.3000000 -0.6969922 -0.0026312  0.0038776
  1.1750000  0.2876000 -0.6570116  0.0000184  0.0077627
  1.1750000  0.2753000 -0.5982174  0.0000163  0.0149410
  1.1875000  0.2631000 -0.5334811  0.0000527  0.0214043
  1.1750000  0.2630000 -0.5398527  0.0000398  0.0213987
  1.1750000  0.2509000 -0.4818959  0.0000605  0.0271462
  1.1875000  0.2509000 -0.4762690  0.0000845  0.0271616
  1.1625000  0.2631000 -0.5459989  0.0000650  0.0213711
  1.1625000  0.2753000 -0.6051191  0.0000364  0.0149245
  1.1500000  0.2753000 -0.6120765  0.0000234  0.0149115
  1.1500000  0.2630000 -0.5523643  0.0000538  0.0213583
  1.1500000  0.2509000 -0.4930726  0.0000830  0.0270982
  1.1625000  0.2509000 -0.4874505  0.0001043  0.0271223
  1.1625000  0.2876000 -0.6646219  0.0000356  0.0077568
  1.1500000  0.2876000 -0.6722324  0.0000213  0.0077470
  1.1625000  0.3000000 -0.7050707 -0.0026598  0.0038732
  1.1500000  0.3000000 -0.7131418 -0.0026916  0.0038696
  1.1375000  0.2876000 -0.6798257  0.0000393  0.0077376
  1.1375000  0.2753000 -0.6189635  0.0000451  0.0148886
  1.1375000  0.3000000 -0.7212019 -0.0027199  0.0038635
  1.1250000  0.3000000 -0.7292505 -0.0027514  0.0038578
  1.1250000  0.2876000 -0.6874159  0.0000251  0.0077237
  1.1250000  0.2753000 -0.6259049  0.0000329  0.0148683
  1.1375000  0.2631000 -0.5584975  0.0000816  0.0213223
  1.1250000  0.2630000 -0.5648532  0.0000724  0.0212998
  1.1250000  0.2509000 -0.5042351  0.0001121  0.0270295
  1.1375000  0.2509000 -0.4986197  0.0001307  0.0270643
  1.1125000  0.2631000 -0.5709698  0.0001034  0.0212528
  1.1125000  0.2753000 -0.6327715  0.0000565  0.0148370
  1.1000000  0.2753000 -0.6396905  0.0000455  0.0148070
  1.1000000  0.2630000 -0.5773117  0.0000968  0.0212177
  1.1000000  0.2509000 -0.5153801  0.0001504  0.0269342
  1.1125000  0.2509000 -0.5097731  0.0001650  0.0269834
  1.1125000  0.2876000 -0.6949846  0.0000440  0.0077097
  1.1000000  0.2876000 -0.7025457  0.0000301  0.0076903
  1.1125000  0.3000000 -0.7372834 -0.0027794  0.0038492
  1.1000000  0.3000000 -0.7452993 -0.0028104  0.0038406
  1.0875000  0.2876000 -0.7100798  0.0000500  0.0076701
  1.0875000  0.2753000 -0.6465296  0.0000711  0.0147647
  1.0875000  0.3000000 -0.7532930 -0.0028379  0.0038288
  1.0750000  0.3000000 -0.7612625 -0.0028684  0.0038165
  1.0750000  0.2876000 -0.7176005  0.0000364  0.0076438
  1.0750000  0.2753000 -0.6534183  0.0000615  0.0147225
  1.0875000  0.2631000 -0.5834072  0.0001311  0.0211568
  1.0750000  0.2630000 -0.5897306  0.0001271  0.0211062
  1.0750000  0.2509000 -0.5265035  0.0001969  0.0268065
  1.0875000  0.2509000 -0.5209069  0.0002081  0.0268723
  1.0625000  0.2631000 -0.5958004  0.0001651  0.0210284
  1.0625000  0.2753000 -0.6602213  0.0000893  0.0146667
  1.0500000  0.2753000 -0.6670706  0.0000812  0.0146096
  1.0500000  0.2630000 -0.6021009  0.0001638  0.0209595
  1.0500000  0.2509000 -0.5376042  0.0002525  0.0266413
  1.0625000  0.2509000 -0.5320183  0.0002601  0.0267266
  1.0625000  0.2876000 -0.7250872  0.0000574  0.0076157
  1.0500000  0.2876000 -0.7325534  0.0000442  0.0075807
  1.0625000  0.3000000 -0.7692016 -0.0028950  0.0038004
  1.0500000  0.3000000 -0.7771072 -0.0029247  0.0037834
  1.0375000  0.2876000 -0.7399774  0.0000662  0.0075431
  1.0375000  0.2753000 -0.6738280  0.0001110  0.0145377
  1.0375000  0.3000000 -0.7849720 -0.0029502  0.0037621
  1.0250000  0.3000000 -0.7927917 -0.0029787  0.0037393
  1.0250000  0.2876000 -0.7473723  0.0000534  0.0074977
  1.0250000  0.2753000 -0.6806284  0.0001040  0.0144635
  1.0375000  0.2631000 -0.6081409  0.0002047  0.0208625
  1.0250000  0.2630000 -0.6144150  0.0002051  0.0207737
  1.0250000  0.2509000 -0.5486835  0.0003125  0.0264370
  1.0375000  0.2509000 -0.5431068  0.0003192  0.0265415
  1.0125000  0.2631000 -0.6204236  0.0002477  0.0206569
  1.0125000  0.2753000 -0.6873311  0.0001354  0.0143738
  1.0000000  0.2753000 -0.6940743  0.0001289  0.0142815
  1.0000000  0.2630000 -0.6266717  0.0002478  0.0205492
  1.0000000  0.2509000 -0.5597530  0.0003709  0.0261990
  1.0125000  0.2509000 -0.5541784  0.0003805  0.0263193
  1.0125000  0.2876000 -0.7547158  0.0000764  0.0074489
  1.0000000  0.2876000 -0.7620209  0.0000638  0.0073917
  1.0125000  0.3000000 -0.8005581 -0.0030028  0.0037117
  1.0000000  0.3000000 -0.8082659 -0.0030296  0.0036821
  0.9875000  0.2876000 -0.7692649  0.0000875  0.0073308
  0.9875000  0.2753000 -0.7007160  0.0001606  0.0141742
  0.9875000  0.3000000 -0.8159057 -0.0030516  0.0036473
  0.9750000  0.3000000 -0.8234715 -0.0030760  0.0036100
  0.9750000  0.2876000 -0.7764616  0.0000746  0.0072614
  0.9750000  0.2753000 -0.7073987  0.0001528  0.0140656
  0.9875000  0.2631000 -0.6326527  0.0002888  0.0204158
  0.9750000  0.2630000 -0.6388832  0.0002839  0.0202957
  0.9750000  0.2509000 -0.5708384  0.0004107  0.0259469
  0.9875000  0.2509000 -0.5652504  0.0004329  0.0260702
  0.9625000  0.2631000 -0.6448520  0.0003167  0.0201569
  0.9625000  0.2753000 -0.7139810  0.0001822  0.0139449
  0.9500000  0.2753000 -0.7206120  0.0001694  0.0138279
  0.9500000  0.2630000 -0.6510896  0.0002974  0.0200420
  0.9500000  0.2509000 -0.5819967  0.0004020  0.0257278
  0.9625000  0.2509000 -0.5763621  0.0004545  0.0258265
  0.9625000  0.2876000 -0.7835892  0.0000983  0.0071887
  0.9500000  0.2876000 -0.7906635  0.0000842  0.0071088
  0.9625000  0.3000000 -0.8309532 -0.0030951  0.0035674
  0.9500000  0.3000000 -0.8383447 -0.0031160  0.0035223
  0.9375000  0.2876000 -0.7976655  0.0001065  0.0070278
  0.9375000  0.2753000 -0.7271545  0.0001913  0.0137068
  0.9375000  0.3000000 -0.8456363 -0.0031308  0.0034721
  0.9250000  0.3000000 -0.8528226 -0.0031464  0.0034201
  0.9250000  0.2876000 -0.8046165  0.0000895  0.0069431
  0.9250000  0.2753000 -0.7337691  0.0001658  0.0136015
  0.9375000  0.2631000 -0.6570844  0.0003083  0.0199244
  0.9250000  0.2630000 -0.6633859  0.0002549  0.0198551
  0.9250000  0.2509000 -0.5933335  0.0002783  0.0256435
  0.9375000  0.2509000 -0.5875913  0.0004003  0.0256565
  0.9125000  0.2631000 -0.6694902  0.0002159  0.0198180
  0.9125000  0.2753000 -0.7403305  0.0001686  0.0135106
  0.9000000  0.2753000 -0.7470205  0.0001120  0.0134640
  0.9000000  0.2630000 -0.6759753  0.0000833  0.0198812
  0.9000000  0.2509000 -0.6050448 -0.0000917  0.0259028
  0.9125000  0.2509000 -0.5990847  0.0001781  0.0257091
  0.9125000  0.2876000 -0.8115049  0.0001074  0.0068632
  0.9000000  0.2876000 -0.8183639  0.0000821  0.0067892
  0.9125000  0.3000000 -0.8598959 -0.0031548  0.0033642
  0.9000000  0.3000000 -0.8668549 -0.0031625  0.0033089
  0.8875000  0.2876000 -0.8252015  0.0000869  0.0067363
  0.8875000  0.2753000 -0.7537411  0.0000629  0.0134769
  0.8875000  0.3000000 -0.8736987 -0.0031604  0.0032538
  0.8750000  0.3000000 -0.8804371 -0.0031540  0.0032055
  0.8750000  0.2876000 -0.8320820  0.0000421  0.0067144
  0.8750000  0.2753000 -0.7607255 -0.0000748  0.0136107
  0.8875000  0.2631000 -0.6823558 -0.0000794  0.0200530
  0.8750000  0.2630000 -0.6892605 -0.0004280  0.0204606
  0.8750000  0.2509000 -0.6173792 -0.0010848  0.0269598
  0.8875000  0.2509000 -0.6110451 -0.0004445  0.0262829
  0.8625000  0.2631000 -0.6961989 -0.0008950  0.0211689
  0.8625000  0.2753000 -0.7679443 -0.0002455  0.0139168
  0.8500000  0.2753000 -0.7756957 -0.0006353  0.0145391
  0.8500000  0.2630000 -0.7038275 -0.0017846  0.0224162
  0.8500000  0.2508000 -0.6306770 -0.0034931  0.0297530
  0.8625000  0.2509000 -0.6238122 -0.0019621  0.0280289
  0.8625000  0.2876000 -0.8390640  0.0000157  0.0067536
  0.8500000  0.2876000 -0.8462927 -0.0000903  0.0068934
  0.8625000  0.3000000 -0.8870846 -0.0031311  0.0031663
  0.8500000  0.3000000 -0.8936789 -0.0031007  0.0031511
  0.8375000  0.2876000 -0.8539879 -0.0002562  0.0072423
  0.8375000  0.2753000 -0.7842052 -0.0012691  0.0157115
  0.8375000  0.3000000 -0.9002992 -0.0030472  0.0031891
  0.8250000  0.3000000 -0.9071065 -0.0029607  0.0033219
  0.8250000  0.2876000 -0.8625906 -0.0005935  0.0079719
  0.8250000  0.2753000 -0.7940731 -0.0024897  0.0178361
  0.8375000  0.2630000 -0.7120258 -0.0032338  0.0244778
  0.8250000  0.2630000 -0.7212608 -0.0058993  0.0278793
  0.8250000  0.2508000 -0.6451200 -0.0101784  0.0362255
  0.8375000  0.2508000 -0.6377293 -0.0059605  0.0323518
  0.8125000  0.2630000 -0.7313548 -0.0109295  0.0334751
  0.8125000  0.2753000 -0.8059837 -0.0050054  0.0218204
  0.8000000  0.2753000 -0.8208185 -0.0107009  0.0294475
  0.8000000  0.2630000 -0.7414672 -0.0209638  0.0424769
  0.8000000  0.2508000 -0.6567323 -0.0300202  0.0487947
  0.8125000  0.2508000 -0.6519678 -0.0174059  0.0417523
  0.8125000  0.2876000 -0.8729420 -0.0013499  0.0094972
  0.8000000  0.2876000 -0.8868973 -0.0032627  0.0129916
  0.8125000  0.3000000 -0.9144244 -0.0028664  0.0036924
  0.8000000  0.3000000 -0.9231508 -0.0026923  0.0045593
  0.7875000  0.2876000 -0.9083110 -0.0092959  0.0212180
  0.7875000  0.2753000 -0.8385088 -0.0249060  0.0447541
  0.7875000  0.3000000 -0.9355324 -0.0039534  0.0080312
  0.7750000  0.3000000 -0.9647457 -0.0069659  0.0176788
  0.7750000  0.2876000 -0.9468781 -0.0318050  0.0480633
  0.7750000  0.2752000 -0.8472781 -0.0656764  0.0702598
  0.7875000  0.2630000 -0.7474857 -0.0417785  0.0551413
  0.7750000  0.2630000 -0.7428862 -0.0826229  0.0643261
  0.7750000  0.2507000 -0.6508982 -0.0808487  0.0543799
  0.7875000  0.2508000 -0.6566702 -0.0510637  0.0550470
  0.7625000  0.2630000 -0.7298068 -0.1356420  0.0511033
  0.7625000  0.2507000 -0.6429590 -0.1104165  0.0402160
  0.7625000  0.2753000 -0.8301235 -0.1630378  0.0757020
  0.7500000  0.2752000 -0.8181858 -0.2384163  0.0075082
  0.7500000  0.2629000 -0.7244667 -0.1624995  0.0107633
  0.7500000  0.2507000 -0.6408358 -0.1234713  0.0136555
  0.7625000  0.2876000 -0.9589608 -0.1472965  0.0955168
  0.7625000  0.3000000 -1.0711200 -0.1284490  0.1308157
  0.7500000  0.3000000 -1.2347678 -0.5561769  0.0019430
  0.7500000  0.2876000 -0.9883284 -0.4073361  0.0039001
  0.7375000  0.2630000 -0.7360786 -0.1356420 -0.0295904
  0.7375000  0.2753000 -0.8370729 -0.1630366 -0.0607045
  0.7250000  0.2752000 -0.8611860 -0.0656804 -0.0552551
  0.7250000  0.2630000 -0.7554240 -0.0826242 -0.0428184
  0.7250000  0.2507000 -0.6620867 -0.0808442 -0.0270865
  0.7375000  0.2507000 -0.6485554 -0.1104171 -0.0129112
  0.7375000  0.2876000 -0.9665987 -0.1472980 -0.0877181
  0.7250000  0.2876000 -0.9621585 -0.0318052 -0.0402595
  0.7375000  0.3000000 -1.0792254 -0.1284799 -0.1269258
  0.7250000  0.3000000 -0.9809568 -0.0070263 -0.0137931
  0.7125000  0.2876000 -0.9311667 -0.0092897 -0.0134332
  0.7125000  0.3000000 -0.9598393 -0.0040415 -0.0041486
  0.7000000  0.3000000 -0.9555656 -0.0028268 -0.0006663
  0.7000000  0.2876000 -0.9173945 -0.0032943 -0.0052305
  0.7000000  0.2752000 -0.8486060 -0.0106835 -0.0144674
  0.7125000  0.2753000 -0.8592750 -0.0248745 -0.0297505
  0.7125000  0.2630000 -0.7662325 -0.0418076 -0.0336609
  0.7000000  0.2630000 -0.7664785 -0.0210080 -0.0210187
  0.7000000  0.2508000 -0.6790576 -0.0300307 -0.0215180
  0.7125000  0.2508000 -0.6734560 -0.0510548 -0.0277640
  0.6875000  0.2630000 -0.7626657 -0.0109423 -0.0119962
  0.6875000  0.2508000 -0.6798720 -0.0174311 -0.0144959
  0.6875000  0.2753000 -0.8406662 -0.0049841 -0.0068189
  0.6750000  0.2753000 -0.8358038 -0.0024962 -0.0028374
  0.6750000  0.2630000 -0.7589086 -0.0058935 -0.0063932
  0.6750000  0.2508000 -0.6786473 -0.0101768 -0.0089754
  0.6875000  0.2876000 -0.9110897 -0.0013572 -0.0017175
  0.6875000  0.3000000 -0.9549494 -0.0030084  0.0001981
  0.6750000  0.3000000 -0.9557400 -0.0031470  0.0005637
  0.6750000  0.2876000 -0.9084277 -0.0005970 -0.0001889
  0.6625000  0.2630000 -0.7559479 -0.0032393 -0.0029975
  0.6625000  0.2753000 -0.8328938 -0.0012710 -0.0007135
  0.6500000  0.2753000 -0.8312788 -0.0006346  0.0004490
  0.6500000  0.2630000 -0.7539364 -0.0017615 -0.0009363
  0.6500000  0.2508000 -0.6754226 -0.0034888 -0.0024980
  0.6625000  0.2508000 -0.6769197 -0.0059777 -0.0051005
  0.6625000  0.2876000 -0.9074680 -0.0002544  0.0005437
  0.6500000  0.2876000 -0.9074111 -0.0000836  0.0008885
  0.6625000  0.3000000 -0.9570331 -0.0032614  0.0006981
  0.6500000  0.3000000 -0.9585153 -0.0033442  0.0007347
  0.6375000  0.2876000 -0.9078252  0.0000066  0.0010334
  0.6375000  0.2753000 -0.8304722 -0.0002650  0.0010640
  0.6375000  0.3000000 -0.9600244 -0.0034098  0.0007215
  0.6250000  0.3000000 -0.9614849 -0.0034588  0.0006855
  0.6250000  0.2876000 -0.9084826  0.0000503  0.0010744
  0.6250000  0.2753000 -0.8302304 -0.0000746  0.0013762
  0.6375000  0.2630000 -0.7526428 -0.0008599  0.0002873
  0.6250000  0.2630000 -0.7519463 -0.0004046  0.0010004
  0.6250000  0.2509000 -0.6733490 -0.0010851  0.0002719
  0.6375000  0.2509000 -0.6741489 -0.0019791 -0.0008049
  0.6125000  0.2631000 -0.7513989 -0.0000795  0.0013997
  0.6125000  0.2753000 -0.8302583  0.0000644  0.0015014
  0.6000000  0.2753000 -0.8304994  0.0001110  0.0015204
  0.6000000  0.2630000 -0.7513117  0.0000845  0.0015786
  0.6000000  0.2509000 -0.6722917 -0.0000840  0.0013176
  0.6125000  0.2509000 -0.6726749 -0.0004375  0.0009468
  0.6125000  0.2876000 -0.9092434  0.0000923  0.0010483
  0.6000000  0.2876000 -0.9100451  0.0000830  0.0009947
  0.6125000  0.3000000 -0.9628543 -0.0034953  0.0006332
  0.6000000  0.3000000 -0.9641142 -0.0035303  0.0005783
  0.5875000  0.2876000 -0.9108258  0.0001111  0.0009226
  0.5875000  0.2753000 -0.8307617  0.0001701  0.0014708
  0.5875000  0.3000000 -0.9652588 -0.0035527  0.0005230
  0.5750000  0.3000000 -0.9662904 -0.0035749  0.0004682
  0.5750000  0.2876000 -0.9115784  0.0000914  0.0008419
  0.5750000  0.2753000 -0.8311619  0.0001657  0.0013838
  0.5875000  0.2631000 -0.7510869  0.0002165  0.0016341
  0.5750000  0.2630000 -0.7512778  0.0002568  0.0016081
  0.5750000  0.2509000 -0.6717890  0.0002867  0.0015837
  0.5875000  0.2509000 -0.6719333  0.0001706  0.0015124
  0.5625000  0.2631000 -0.7512356  0.0003151  0.0015278
  0.5625000  0.2753000 -0.8314990  0.0001950  0.0012751
  0.5500000  0.2753000 -0.8319184  0.0001701  0.0011569
  0.5500000  0.2630000 -0.7515374  0.0002997  0.0014191
  0.5500000  0.2509000 -0.6716595  0.0004040  0.0014956
  0.5625000  0.2509000 -0.6716457  0.0004105  0.0015633
  0.5625000  0.2876000 -0.9122671  0.0001117  0.0007585
  0.5500000  0.2876000 -0.9129061  0.0000868  0.0006761
  0.5625000  0.3000000 -0.9672092 -0.0035895  0.0004154
  0.5500000  0.3000000 -0.9680230 -0.0036056  0.0003659
  0.5375000  0.2876000 -0.9134713  0.0001040  0.0005973
  0.5375000  0.2753000 -0.8322379  0.0001860  0.0010366
  0.5375000  0.3000000 -0.9687365 -0.0036150  0.0003200
  0.5250000  0.3000000 -0.9693598 -0.0036268  0.0002782
  0.5250000  0.2876000 -0.9139847  0.0000774  0.0005234
  0.5250000  0.2753000 -0.8326183  0.0001532  0.0009193
  0.5375000  0.2631000 -0.7515557  0.0003225  0.0012952
  0.5250000  0.2630000 -0.7518870  0.0002863  0.0011659
  0.5250000  0.2509000 -0.6717103  0.0004139  0.0012773
  0.5375000  0.2509000 -0.6716226  0.0004636  0.0013953
  0.5125000  0.2631000 -0.7519102  0.0002956  0.0010365
  0.5125000  0.2753000 -0.8328856  0.0001648  0.0008074
  0.5000000  0.2753000 -0.8332074  0.0001294  0.0007034
  0.5000000  0.2630000 -0.7522318  0.0002507  0.0009124
  0.5000000  0.2509000 -0.6718329  0.0003746  0.0010249
  0.5125000  0.2509000 -0.6717186  0.0004438  0.0011515
  0.5125000  0.2876000 -0.9144274  0.0000939  0.0004553
  0.5000000  0.2876000 -0.9148245  0.0000669  0.0003932
  0.5125000  0.3000000 -0.9698989 -0.0036327  0.0002402
  0.5000000  0.3000000 -0.9703642 -0.0036416  0.0002061
  0.4875000  0.2876000 -0.9151587  0.0000835  0.0003372
  0.4875000  0.2753000 -0.8334134  0.0001400  0.0006077
  0.4875000  0.3000000 -0.9707613 -0.0036450  0.0001757
  0.4750000  0.3000000 -0.9711000 -0.0036519  0.0001489
  0.4750000  0.2876000 -0.9154564  0.0000568  0.0002872
  0.4750000  0.2753000 -0.8336748  0.0001046  0.0005213
  0.4875000  0.2631000 -0.7522346  0.0002552  0.0007953
  0.4750000  0.2630000 -0.7525310  0.0002081  0.0006878
  0.4750000  0.2509000 -0.6719713  0.0003163  0.0007868
  0.4875000  0.2509000 -0.6718537  0.0003923  0.0009021
  0.4625000  0.2631000 -0.7525054  0.0002129  0.0005897
  0.4625000  0.2753000 -0.8338230  0.0001160  0.0004438
  0.4500000  0.2753000 -0.8340305  0.0000818  0.0003752
  0.4500000  0.2630000 -0.7527730  0.0001671  0.0005020
  0.4500000  0.2509000 -0.6721000  0.0002568  0.0005825
  0.4625000  0.2509000 -0.6719893  0.0003321  0.0006800
  0.4625000  0.2876000 -0.9157007  0.0000740  0.0002430
  0.4500000  0.2876000 -0.9159179  0.0000479  0.0002041
  0.4625000  0.3000000 -0.9713851 -0.0036537  0.0001253
  0.4500000  0.3000000 -0.9716253 -0.0036591  0.0001048
  0.4375000  0.2876000 -0.9160909  0.0000658  0.0001703
  0.4375000  0.2753000 -0.8341289  0.0000948  0.0003148
  0.4375000  0.3000000 -0.9718246 -0.0036596  0.0000870
  0.4250000  0.3000000 -0.9719906 -0.0036640  0.0000717
  0.4250000  0.2876000 -0.9162454  0.0000404  0.0001410
  0.4250000  0.2753000 -0.8342915  0.0000622  0.0002623
  0.4375000  0.2631000 -0.7527184  0.0001740  0.0004237
  0.4250000  0.2630000 -0.7529588  0.0001307  0.0003553
  0.4250000  0.2509000 -0.6722074  0.0002015  0.0004174
  0.4375000  0.2509000 -0.6721079  0.0002742  0.0004948
  0.4125000  0.2631000 -0.7528786  0.0001407  0.0002954
  0.4125000  0.2753000 -0.8343499  0.0000771  0.0002168
  0.4000000  0.2753000 -0.8344771  0.0000463  0.0001778
  0.4000000  0.2630000 -0.7530959  0.0001007  0.0002437
  0.4000000  0.2509000 -0.6722920  0.0001554  0.0002896
  0.4125000  0.2509000 -0.6722038  0.0002233  0.0003492
  0.4125000  0.2876000 -0.9163637  0.0000591  0.0001159
  0.4000000  0.2876000 -0.9164711  0.0000345  0.0000945
  0.4125000  0.3000000 -0.9721259 -0.0036636  0.0000586
  0.4000000  0.3000000 -0.9722373 -0.0036673  0.0000476
  0.3875000  0.2876000 -0.9165489  0.0000538  0.0000764
  0.3875000  0.2753000 -0.8345045  0.0000629  0.0001445
  0.3875000  0.3000000 -0.9723262 -0.0036663  0.0000382
  0.3750000  0.3000000 -0.9723984 -0.0036695  0.0000304
  0.3750000  0.2876000 -0.9166217  0.0000298  0.0000611
  0.3750000  0.2753000 -0.8346048  0.0000337  0.0001165
  0.3875000  0.2631000 -0.7529947  0.0001137  0.0001993
  0.3750000  0.2630000 -0.7531934  0.0000765  0.0001617
  0.3750000  0.2509000 -0.6723549  0.0001173  0.0001943
  0.3875000  0.2509000 -0.6722772  0.0001813  0.0002381
  0.3625000  0.2631000 -0.7530759  0.0000926  0.0001298
  0.3625000  0.2753000 -0.8346091  0.0000519  0.0000929
  0.3500000  0.2753000 -0.8346898  0.0000242  0.0000733
  0.3500000  0.2630000 -0.7532606  0.0000582  0.0001032
  0.3500000  0.2509000 -0.6724005  0.0000887  0.0001256
  0.3625000  0.2509000 -0.6723310  0.0001481  0.0001572
  0.3625000  0.2876000 -0.9166703  0.0000497  0.0000484
  0.3500000  0.2876000 -0.9167186  0.0000263  0.0000379
  0.3625000  0.3000000 -0.9724546 -0.0036680  0.0000239
  0.3500000  0.3000000 -0.9724995 -0.0036708  0.0000186
  0.3375000  0.2876000 -0.9167468  0.0000467  0.0000292
  0.3375000  0.2753000 -0.8346774  0.0000437  0.0000570
  0.3375000  0.3000000 -0.9725333 -0.0036691  0.0000142
  0.3250000  0.3000000 -0.9725598 -0.0036717  0.0000106
  0.3250000  0.2876000 -0.9167783  0.0000237  0.0000222
  0.3250000  0.2753000 -0.8347441  0.0000171  0.0000438
  0.3375000  0.2631000 -0.7531307  0.0000767  0.0000810
  0.3250000  0.2630000 -0.7533050  0.0000444  0.0000628
  0.3250000  0.2509000 -0.6724317  0.0000664  0.0000776
  0.3375000  0.2509000 -0.6723689  0.0001228  0.0000991
  0.3125000  0.2631000 -0.7531664  0.0000651  0.0000479
  0.3125000  0.2753000 -0.8347201  0.0000377  0.0000330
  0.3000000  0.2753000 -0.8347773  0.0000121  0.0000243
  0.3000000  0.2630000 -0.7533334  0.0000347  0.0000358
  0.3000000  0.2509000 -0.6724529  0.0000511  0.0000451
  0.3125000  0.2509000 -0.6723947  0.0001042  0.0000599
  0.3125000  0.2876000 -0.9167926  0.0000445  0.0000165
  0.3000000  0.2876000 -0.9168128  0.0000219  0.0000119
  0.3125000  0.3000000 -0.9725786 -0.0036697  0.0000078
  0.3000000  0.3000000 -0.9725932 -0.0036721  0.0000055
  0.2875000  0.2876000 -0.9168181  0.0000430  0.0000083
  0.2875000  0.2753000 -0.8347454  0.0000336  0.0000173
  0.2875000  0.3000000 -0.9726025 -0.0036701  0.0000038
  0.2750000  0.3000000 -0.9726095 -0.0036724  0.0000024
  0.2750000  0.2876000 -0.9168311  0.0000206  0.0000055
  0.2750000  0.2753000 -0.8347962  0.0000086  0.0000119
  0.2875000  0.2631000 -0.7531885  0.0000568  0.0000260
  0.2750000  0.2630000 -0.7533505  0.0000277  0.0000184
  0.2750000  0.2509000 -0.6724661  0.0000395  0.0000240
  0.2875000  0.2509000 -0.6724115  0.0000909  0.0000332
  0.2625000  0.2631000 -0.7532015  0.0000511  0.0000124
  0.2625000  0.2753000 -0.8347592  0.0000307  0.0000077
  0.2500000  0.2753000 -0.8348060  0.0000063  0.0000044
  0.2500000  0.2630000 -0.7533602  0.0000232  0.0000077
  0.2500000  0.2509000 -0.6724744  0.0000324  0.0000109
  0.2625000  0.2509000 -0.6724220  0.0000817  0.0000168
  0.2625000  0.2876000 -0.9168307  0.0000420  0.0000033
  0.2500000  0.2876000 -0.9168393  0.0000198  0.0000017
  0.2625000  0.3000000 -0.9726130 -0.0036703  0.0000013
  0.2500000  0.3000000 -0.9726156 -0.0036725  0.0000006
  0.2375000  0.2876000 -0.9168355  0.0000413  0.0000005
  0.2375000  0.2753000 -0.8347659  0.0000288  0.0000020
  0.2375000  0.3000000 -0.9726157 -0.0036703 -0.0000000
  0.2250000  0.3000000 -0.9726159 -0.0036725 -0.0000004
  0.2250000  0.2876000 -0.9168416  0.0000192 -0.0000004
  0.2250000  0.2753000 -0.8348102  0.0000048  0.0000003
  0.2375000  0.2631000 -0.7532085  0.0000474  0.0000042
  0.2250000  0.2630000 -0.7533650  0.0000200  0.0000016
  0.2250000  0.2509000 -0.6724788  0.0000270  0.0000031
  0.2375000  0.2509000 -0.6724282  0.0000755  0.0000063
  0.2125000  0.2631000 -0.7532118  0.0000450 -0.0000003
  0.2125000  0.2753000 -0.8347682  0.0000276 -0.0000010
  0.2000000  0.2753000 -0.8348111  0.0000039 -0.0000019
  0.2000000  0.2630000 -0.7533670  0.0000182 -0.0000017
  0.2000000  0.2509000 -0.6724814  0.0000244 -0.0000010
  0.2125000  0.2509000 -0.6724315  0.0000716  0.0000009
  0.2125000  0.2876000 -0.9168359  0.0000409 -0.0000010
  0.2000000  0.2876000 -0.9168407  0.0000189 -0.0000013
  0.2125000  0.3000000 -0.9726143 -0.0036703 -0.0000007
  0.2000000  0.3000000 -0.9726133 -0.0036725 -0.0000009
  0.1875000  0.2876000 -0.9168341  0.0000406 -0.0000016
  0.1875000  0.2753000 -0.8347681  0.0000269 -0.0000024
  0.1875000  0.3000000 -0.9726110 -0.0036703 -0.0000010
  0.1750000  0.3000000 -0.9726096 -0.0036725 -0.0000010
  0.1750000  0.2876000 -0.9168383  0.0000187 -0.0000017
  0.1750000  0.2753000 -0.8348103  0.0000033 -0.0000027
  0.1875000  0.2631000 -0.7532128  0.0000435 -0.0000026
  0.1750000  0.2630000 -0.7533673  0.0000170 -0.0000031
  0.1750000  0.2509000 -0.6724821  0.0000220 -0.0000030
  0.1875000  0.2509000 -0.6724331  0.0000691 -0.0000024
  0.1625000  0.2631000 -0.7532126  0.0000427 -0.0000033
  0.1625000  0.2753000 -0.8347668  0.0000265 -0.0000028
  0.1500000  0.2753000 -0.8348088  0.0000031 -0.0000028
  0.1500000  0.2630000 -0.7533668  0.0000165 -0.0000034
  0.1500000  0.2509000 -0.6724826  0.0000214 -0.0000036
  0.1625000  0.2509000 -0.6724337  0.0000677 -0.0000032
  0.1625000  0.2876000 -0.9168314  0.0000405 -0.0000017
  0.1500000  0.2876000 -0.9168354  0.0000186 -0.0000017
  0.1625000  0.3000000 -0.9726071 -0.0036703 -0.0000010
  0.1500000  0.3000000 -0.9726057 -0.0036724 -0.0000009
  0.1375000  0.2876000 -0.9168286  0.0000404 -0.0000016
  0.1375000  0.2753000 -0.8347652  0.0000263 -0.0000027
  0.1375000  0.3000000 -0.9726034 -0.0036702 -0.0000009
  0.1250000  0.3000000 -0.9726023 -0.0036724 -0.0000008
  0.1250000  0.2876000 -0.9168327  0.0000186 -0.0000015
  0.1250000  0.2753000 -0.8348071  0.0000029 -0.0000025
  0.1375000  0.2631000 -0.7532119  0.0000422 -0.0000034
  0.1250000  0.2630000 -0.7533659  0.0000161 -0.0000031
  0.1250000  0.2509000 -0.6724821  0.0000204 -0.0000034
  0.1375000  0.2509000 -0.6724336  0.0000670 -0.0000038
  0.1125000  0.2631000 -0.7532109  0.0000420 -0.0000028
  0.1125000  0.2753000 -0.8347635  0.0000262 -0.0000023
  0.1000000  0.2753000 -0.8348055  0.0000029 -0.0000020
  0.1000000  0.2630000 -0.7533650  0.0000161 -0.0000026
  0.1000000  0.2509000 -0.6724820  0.0000207 -0.0000029
  0.1125000  0.2509000 -0.6724333  0.0000666 -0.0000030
  0.1125000  0.2876000 -0.9168260  0.0000404 -0.0000013
  0.1000000  0.2876000 -0.9168304  0.0000186 -0.0000012
  0.1125000  0.3000000 -0.9726002 -0.0036702 -0.0000007
  0.1000000  0.3000000 -0.9725994 -0.0036724 -0.0000006
  0.0875000  0.2876000 -0.9168240  0.0000404 -0.0000010
  0.0875000  0.2753000 -0.8347620  0.0000262 -0.0000018
  0.0875000  0.3000000 -0.9725977 -0.0036701 -0.0000005
  0.0750000  0.3000000 -0.9725972 -0.0036723 -0.0000005
  0.0750000  0.2876000 -0.9168286  0.0000186 -0.0000009
  0.0750000  0.2753000 -0.8348042  0.0000028 -0.0000015
  0.0875000  0.2631000 -0.7532101  0.0000420 -0.0000023
  0.0750000  0.2630000 -0.7533642  0.0000160 -0.0000020
  0.0750000  0.2509000 -0.6724814  0.0000201 -0.0000022
  0.0875000  0.2509000 -0.6724329  0.0000665 -0.0000027
  0.0625000  0.2631000 -0.7532093  0.0000420 -0.0000016
  0.0625000  0.2753000 -0.8347609  0.0000262 -0.0000012
  0.0500000  0.2753000 -0.8348033  0.0000029 -0.0000010
  0.0500000  0.2630000 -0.7533636  0.0000161 -0.0000013
  0.0500000  0.2509000 -0.6724813  0.0000206 -0.0000015
  0.0625000  0.2509000 -0.6724326  0.0000665 -0.0000017
  0.0625000  0.2876000 -0.9168224  0.0000404 -0.0000007
  0.0500000  0.2876000 -0.9168273  0.0000186 -0.0000006
  0.0625000  0.3000000 -0.9725958 -0.0036701 -0.0000004
  0.0500000  0.3000000 -0.9725957 -0.0036723 -0.0000003
  0.0375000  0.2876000 -0.9168214  0.0000404 -0.0000004
  0.0375000  0.2753000 -0.8347602  0.0000262 -0.0000007
  0.0375000  0.3000000 -0.9725946 -0.0036701 -0.0000002
  0.0250000  0.3000000 -0.9725948 -0.0036723 -0.0000001
  0.0250000  0.2876000 -0.9168265  0.0000186 -0.0000003
  0.0250000  0.2753000 -0.8348027  0.0000029 -0.0000005
  0.0375000  0.2631000 -0.7532088  0.0000420 -0.0000010
  0.0250000  0.2630000 -0.7533632  0.0000160 -0.0000006
  0.0250000  0.2509000 -0.6724809  0.0000202 -0.0000007
  0.0375000  0.2509000 -0.6724323  0.0000665 -0.0000013
  0.0125000  0.2631000 -0.7532086  0.0000420 -0.0000003
  0.0125000  0.2753000 -0.8347598  0.0000262 -0.0000002
  0.0000000  0.2753000 -0.8348025  0.0000029  0.0000000
  0.0000000  0.2630000 -0.7533631  0.0000161  0.0000000
  0.0000000  0.2509000 -0.6724810  0.0000207  0.0000000
  0.0125000  0.2509000 -0.6724322  0.0000665 -0.0000002
  0.0125000  0.2876000 -0.9168209  0.0000404 -0.0000001
  0.0000000  0.2876000 -0.9168263  0.0000186  0.0000000
  0.0125000  0.3000000 -0.9725940 -0.0036701 -0.0000001
  0.0000000  0.3000000 -0.9725945 -0.0036723  0.0000000
 -0.0125000  0.2876000 -0.9168209  0.0000404  0.0000001
 -0.0125000  0.2753000 -0.8347598  0.0000262  0.0000002
 -0.0125000  0.3000000 -0.9725940 -0.0036701  0.0000001
 -0.0250000  0.3000000 -0.9725948 -0.0036723  0.0000001
 -0.0250000  0.2876000 -0.9168265  0.0000186  0.0000003
 -0.0250000  0.2753000 -0.8348027  0.0000029  0.0000005
 -0.0125000  0.2631000 -0.7532086  0.0000420  0.0000003
 -0.0250000  0.2630000 -0.7533632  0.0000160  0.0000006
 -0.0250000  0.2509000 -0.6724809  0.0000202  0.0000007
 -0.0125000  0.2509000 -0.6724322  0.0000665  0.0000002
 -0.0375000  0.2631000 -0.7532088  0.0000420  0.0000010
 -0.0375000  0.2753000 -0.8347602  0.0000262  0.0000007
 -0.0500000  0.2753000 -0.8348033  0.0000029  0.0000010
 -0.0500000  0.2630000 -0.7533636  0.0000161  0.0000013
 -0.0500000  0.2509000 -0.6724813  0.0000206  0.0000015
 -0.0375000  0.2509000 -0.6724323  0.0000665  0.0000013
 -0.0375000  0.2876000 -0.9168214  0.0000404  0.0000004
 -0.0500000  0.2876000 -0.9168273  0.0000186  0.0000006
 -0.0375000  0.3000000 -0.9725946 -0.0036701  0.0000002
 -0.0500000  0.3000000 -0.9725957 -0.0036723  0.0000003
 -0.0625000  0.2876000 -0.9168224  0.0000404  0.0000007
 -0.0625000  0.2753000 -0.8347609  0.0000262  0.0000012
 -0.0625000  0.3000000 -0.9725958 -0.0036701  0.0000004
 -0.0750000  0.3000000 -0.9725972 -0.0036723  0.0000005
 -0.0750000  0.2876000 -0.9168286  0.0000186  0.0000009
 -0.0750000  0.2753000 -0.8348042  0.0000028  0.0000015
 -0.0625000  0.2631000 -0.7532093  0.0000420  0.0000016
 -0.0750000  0.2630000 -0.7533642  0.0000160  0.0000020
 -0.0750000  0.2509000 -0.6724814  0.0000201  0.0000022
 -0.0625000  0.2509000 -0.6724326  0.0000665  0.0000017
 -0.0875000  0.2631000 -0.7532101  0.0000420  0.0000023
 -0.0875000  0.2753000 -0.8347620  0.0000262  0.0000018
 -0.1000000  0.2753000 -0.8348055  0.0000029  0.0000020
 -0.1000000  0.2630000 -0.7533650  0.0000161  0.0000026
 -0.1000000  0.2509000 -0.6724820  0.0000207  0.0000029
 -0.0875000  0.2509000 -0.6724329  0.0000665  0.0000027
 -0.0875000  0.2876000 -0.9168240  0.0000404  0.0000010
 -0.1000000  0.2876000 -0.9168304  0.0000186  0.0000012
 -0.0875000  0.3000000 -0.9725977 -0.0036701  0.0000005
 -0.1000000  0.3000000 -0.9725994 -0.0036724  0.0000006
 -0.1125000  0.2876000 -0.9168260  0.0000404  0.0000013
 -0.1125000  0.2753000 -0.8347635  0.0000262  0.0000023
 -0.1125000  0.3000000 -0.9726002 -0.0036702  0.0000007
 -0.1250000  0.3000000 -0.9726023 -0.0036724  0.0000008
 -0.1250000  0.2876000 -0.9168327  0.0000186  0.0000015
 -0.1250000  0.2753000 -0.8348071  0.0000029  0.0000025
 -0.1125000  0.2631000 -0.7532109  0.0000420  0.0000028
 -0.1250000  0.2630000 -0.7533659  0.0000161  0.0000031
 -0.1250000  0.2509000 -0.6724821  0.0000204  0.0000034
 -0.1125000  0.2509000 -0.6724333  0.0000666  0.0000030
 -0.1375000  0.2631000 -0.7532119  0.0000422  0.0000034
 -0.1375000  0.2753000 -0.8347652  0.0000263  0.0000027
 -0.1500000  0.2753000 -0.8348088  0.0000031  0.0000028
 -0.1500000  0.2630000 -0.7533668  0.0000165  0.0000034
 -0.1500000  0.2509000 -0.6724826  0.0000214  0.0000036
 -0.1375000  0.2509000 -0.6724336  0.0000670  0.0000038
 -0.1375000  0.2876000 -0.9168286  0.0000404  0.0000016
 -0.1500000  0.2876000 -0.9168354  0.0000186  0.0000017
 -0.1375000  0.3000000 -0.9726034 -0.0036702  0.0000009
 -0.1500000  0.3000000 -0.9726057 -0.0036724  0.0000009
 -0.1625000  0.2876000 -0.9168314  0.0000405  0.0000017
 -0.1625000  0.2753000 -0.8347668  0.0000265  0.0000028
 -0.1625000  0.3000000 -0.9726071 -0.0036703  0.0000010
 -0.1750000  0.3000000 -0.9726096 -0.0036725  0.0000010
 -0.1750000  0.2876000 -0.9168383  0.0000187  0.0000017
 -0.1750000  0.2753000 -0.8348103  0.0000033  0.0000027
 -0.1625000  0.2631000 -0.7532126  0.0000427  0.0000033
 -0.1750000  0.2630000 -0.7533673  0.0000170  0.0000031
 -0.1750000  0.2509000 -0.6724821  0.0000220  0.0000030
 -0.1625000  0.2509000 -0.6724337  0.0000677  0.0000032
 -0.1875000  0.2631000 -0.7532128  0.0000435  0.0000026
 -0.1875000  0.2753000 -0.8347681  0.0000269  0.0000024
 -0.2000000  0.2753000 -0.8348111  0.0000039  0.0000019
 -0.2000000  0.2630000 -0.7533670  0.0000182  0.0000017
 -0.2000000  0.2509000 -0.6724814  0.0000244  0.0000010
 -0.1875000  0.2509000 -0.6724331  0.0000691  0.0000024
 -0.1875000  0.2876000 -0.9168341  0.0000406  0.0000016
 -0.2000000  0.2876000 -0.9168407  0.0000189  0.0000013
 -0.1875000  0.3000000 -0.9726110 -0.0036703  0.0000010
 -0.2000000  0.3000000 -0.9726133 -0.0036725  0.0000009
 -0.2125000  0.2876000 -0.9168359  0.0000409  0.0000010
 -0.2125000  0.2753000 -0.8347682  0.0000276  0.0000010
 -0.2125000  0.3000000 -0.9726143 -0.0036703  0.0000007
 -0.2250000  0.3000000 -0.9726159 -0.0036725  0.0000004
 -0.2250000  0.2876000 -0.9168416  0.0000192  0.0000004
 -0.2250000  0.2753000 -0.8348102  0.0000048 -0.0000003
 -0.2125000  0.2631000 -0.7532118  0.0000450  0.0000003
 -0.2250000  0.2630000 -0.7533650  0.0000200 -0.0000016
 -0.2250000  0.2509000 -0.6724788  0.0000270 -0.0000031
 -0.2125000  0.2509000 -0.6724315  0.0000716 -0.0000009
 -0.2375000  0.2631000 -0.7532085  0.0000474 -0.0000042
 -0.2375000  0.2753000 -0.8347659  0.0000288 -0.0000020
 -0.2500000  0.2753000 -0.8348060  0.0000063 -0.0000044
 -0.2500000  0.2630000 -0.7533602  0.0000232 -0.0000077
 -0.2500000  0.2509000 -0.6724744  0.0000324 -0.0000109
 -0.2375000  0.2509000 -0.6724282  0.0000755 -0.0000063
 -0.2375000  0.2876000 -0.9168355  0.0000413 -0.0000005
 -0.2500000  0.2876000 -0.9168393  0.0000198 -0.0000017
 -0.2375000  0.3000000 -0.9726157 -0.0036703  0.0000000
 -0.2500000  0.3000000 -0.9726156 -0.0036725 -0.0000006
 -0.2625000  0.2876000 -0.9168307  0.0000420 -0.0000033
 -0.2625000  0.2753000 -0.8347592  0.0000307 -0.0000077
 -0.2625000  0.3000000 -0.9726130 -0.0036703 -0.0000013
 -0.2750000  0.3000000 -0.9726095 -0.0036724 -0.0000024
 -0.2750000  0.2876000 -0.9168311  0.0000206 -0.0000055
 -0.2750000  0.2753000 -0.8347962  0.0000086 -0.0000119
 -0.2625000  0.2631000 -0.7532015  0.0000511 -0.0000124
 -0.2750000  0.2630000 -0.7533505  0.0000277 -0.0000184
 -0.2750000  0.2509000 -0.6724661  0.0000395 -0.0000240
 -0.2625000  0.2509000 -0.6724220  0.0000817 -0.0000168
 -0.2875000  0.2631000 -0.7531885  0.0000568 -0.0000260
 -0.2875000  0.2753000 -0.8347454  0.0000336 -0.0000173
 -0.3000000  0.2753000 -0.8347773  0.0000121 -0.0000243
 -0.3000000  0.2630000 -0.7533334  0.0000347 -0.0000358
 -0.3000000  0.2509000 -0.6724529  0.0000511 -0.0000451
 -0.2875000  0.2509000 -0.6724115  0.0000909 -0.0000332
 -0.2875000  0.2876000 -0.9168181  0.0000430 -0.0000083
 -0.3000000  0.2876000 -0.9168128  0.0000219 -0.0000119
 -0.2875000  0.3000000 -0.9726025 -0.0036701 -0.0000038
 -0.3000000  0.3000000 -0.9725932 -0.0036721 -0.0000055
 -0.3125000  0.2876000 -0.9167926  0.0000445 -0.0000165
 -0.3125000  0.2753000 -0.8347201  0.0000377 -0.0000330
 -0.3125000  0.3000000 -0.9725786 -0.0036697 -0.0000078
 -0.3250000  0.3000000 -0.9725598 -0.0036717 -0.0000106
 -0.3250000  0.2876000 -0.9167783  0.0000237 -0.0000222
 -0.3250000  0.2753000 -0.8347441  0.0000171 -0.0000438
 -0.3125000  0.2631000 -0.7531664  0.0000651 -0.0000479
 -0.3250000  0.2630000 -0.7533050  0.0000444 -0.0000628
 -0.3250000  0.2509000 -0.6724317  0.0000664 -0.0000776
 -0.3125000  0.2509000 -0.6723947  0.0001042 -0.0000599
 -0.3375000  0.2631000 -0.7531307  0.0000767 -0.0000810
 -0.3375000  0.2753000 -0.8346774  0.0000437 -0.0000570
 -0.3500000  0.2753000 -0.8346898  0.0000242 -0.0000733
 -0.3500000  0.2630000 -0.7532606  0.0000582 -0.0001032
 -0.3500000  0.2509000 -0.6724005  0.0000887 -0.0001256
 -0.3375000  0.2509000 -0.6723689  0.0001228 -0.0000991
 -0.3375000  0.2876000 -0.9167468  0.0000467 -0.0000292
 -0.3500000  0.2876000 -0.9167186  0.0000263 -0.0000379
 -0.3375000  0.3000000 -0.9725333 -0.0036691 -0.0000142
 -0.3500000  0.3000000 -0.9724995 -0.0036708 -0.0000186
 -0.3625000  0.2876000 -0.9166703  0.0000497 -0.0000484
 -0.3625000  0.2753000 -0.8346091  0.0000519 -0.0000929
 -0.3625000  0.3000000 -0.9724546 -0.0036680 -0.0000239
 -0.3750000  0.3000000 -0.9723984 -0.0036695 -0.0000304
 -0.3750000  0.2876000 -0.9166217  0.0000298 -0.0000611
 -0.3750000  0.2753000 -0.8346048  0.0000337 -0.0001165
 -0.3625000  0.2631000 -0.7530759  0.0000926 -0.0001298
 -0.3750000  0.2630000 -0.7531934  0.0000765 -0.0001617
 -0.3750000  0.2509000 -0.6723549  0.0001173 -0.0001943
 -0.3625000  0.2509000 -0.6723310  0.0001481 -0.0001572
 -0.3875000  0.2631000 -0.7529947  0.0001137 -0.0001993
 -0.3875000  0.2753000 -0.8345045  0.0000629 -0.0001445
 -0.4000000  0.2753000 -0.8344771  0.0000463 -0.0001778
 -0.4000000  0.2630000 -0.7530959  0.0001007 -0.0002437
 -0.4000000  0.2509000 -0.6722920  0.0001554 -0.0002896
 -0.3875000  0.2509000 -0.6722772  0.0001813 -0.0002381
 -0.3875000  0.2876000 -0.9165489  0.0000538 -0.0000764
 -0.4000000  0.2876000 -0.9164711  0.0000345 -0.0000945
 -0.3875000  0.3000000 -0.9723262 -0.0036663 -0.0000382
 -0.4000000  0.3000000 -0.9722373 -0.0036673 -0.0000476
 -0.4125000  0.2876000 -0.9163638  0.0000591 -0.0001159
 -0.4125000  0.2753000 -0.8343499  0.0000771 -0.0002168
 -0.4125000  0.3000000 -0.9721260 -0.0036636 -0.0000586
 -0.4250000  0.3000000 -0.9719906 -0.0036640 -0.0000717
 -0.4250000  0.2876000 -0.9162454  0.0000404 -0.0001410
 -0.4250000  0.2753000 -0.8342915  0.0000622 -0.0002623
 -0.4125000  0.2631000 -0.7528786  0.0001407 -0.0002954
 -0.4250000  0.2630000 -0.7529588  0.0001307 -0.0003553
 -0.4250000  0.2509000 -0.6722074  0.0002015 -0.0004174
 -0.4125000  0.2509000 -0.6722038  0.0002233 -0.0003492
 -0.4375000  0.2631000 -0.7527184  0.0001740 -0.0004237
 -0.4375000  0.2753000 -0.8341290  0.0000948 -0.0003148
 -0.4500000  0.2753000 -0.8340305  0.0000818 -0.0003752
 -0.4500000  0.2630000 -0.7527730  0.0001671 -0.0005020
 -0.4500000  0.2509000 -0.6721000  0.0002568 -0.0005825
 -0.4375000  0.2509000 -0.6721079  0.0002742 -0.0004948
 -0.4375000  0.2876000 -0.9160909  0.0000658 -0.0001703
 -0.4500000  0.2876000 -0.9159179  0.0000479 -0.0002041
 -0.4375000  0.3000000 -0.9718246 -0.0036596 -0.0000870
 -0.4500000  0.3000000 -0.9716253 -0.0036591 -0.0001048
 -0.4625000  0.2876000 -0.9157007  0.0000740 -0.0002430
 -0.4625000  0.2753000 -0.8338230  0.0001160 -0.0004438
 -0.4625000  0.3000000 -0.9713851 -0.0036537 -0.0001253
 -0.4750000  0.3000000 -0.9711000 -0.0036519 -0.0001489
 -0.4750000  0.2876000 -0.9154564  0.0000568 -0.0002872
 -0.4750000  0.2753000 -0.8336749  0.0001046 -0.0005213
 -0.4625000  0.2631000 -0.7525054  0.0002129 -0.0005897
 -0.4750000  0.2630000 -0.7525310  0.0002081 -0.0006878
 -0.4750000  0.2509000 -0.6719714  0.0003163 -0.0007869
 -0.4625000  0.2509000 -0.6719893  0.0003321 -0.0006800
 -0.4875000  0.2631000 -0.7522346  0.0002552 -0.0007953
 -0.4875000  0.2753000 -0.8334134  0.0001400 -0.0006077
 -0.5000000  0.2753000 -0.8332074  0.0001294 -0.0007033
 -0.5000000  0.2630000 -0.7522317  0.0002506 -0.0009123
 -0.5000000  0.2509000 -0.6718328  0.0003745 -0.0010249
 -0.4875000  0.2509000 -0.6718537  0.0003923 -0.0009022
 -0.4875000  0.2876000 -0.9151587  0.0000835 -0.0003372
 -0.5000000  0.2876000 -0.9148245  0.0000669 -0.0003932
 -0.4875000  0.3000000 -0.9707613 -0.0036450 -0.0001757
 -0.5000000  0.3000000 -0.9703642 -0.0036416 -0.0002061
 -0.5125000  0.2876000 -0.9144274  0.0000939 -0.0004553
 -0.5125000  0.2753000 -0.8328856  0.0001648 -0.0008074
 -0.5125000  0.3000000 -0.9698990 -0.0036327 -0.0002402
 -0.5250000  0.3000000 -0.9693598 -0.0036268 -0.0002782
 -0.5250000  0.2876000 -0.9139848  0.0000774 -0.0005234
 -0.5250000  0.2753000 -0.8326184  0.0001532 -0.0009192
 -0.5125000  0.2631000 -0.7519102  0.0002955 -0.0010364
 -0.5250000  0.2630000 -0.7518871  0.0002863 -0.0011658
 -0.5250000  0.2509000 -0.6717102  0.0004139 -0.0012770
 -0.5125000  0.2509000 -0.6717185  0.0004436 -0.0011513
 -0.5375000  0.2631000 -0.7515560  0.0003227 -0.0012953
 -0.5375000  0.2753000 -0.8322380  0.0001860 -0.0010366
 -0.5500000  0.2753000 -0.8319182  0.0001698 -0.0011569
 -0.5500000  0.2630000 -0.7515375  0.0002996 -0.0014196
 -0.5500000  0.2509000 -0.6716605  0.0004049 -0.0014961
 -0.5375000  0.2509000 -0.6716229  0.0004641 -0.0013950
 -0.5375000  0.2876000 -0.9134713  0.0001040 -0.0005973
 -0.5500000  0.2876000 -0.9129062  0.0000867 -0.0006760
 -0.5375000  0.3000000 -0.9687365 -0.0036150 -0.0003200
 -0.5500000  0.3000000 -0.9680231 -0.0036056 -0.0003658
 -0.5625000  0.2876000 -0.9122672  0.0001116 -0.0007583
 -0.5625000  0.2753000 -0.8314988  0.0001946 -0.0012748
 -0.5625000  0.3000000 -0.9672096 -0.0035896 -0.0004153
 -0.5750000  0.3000000 -0.9662910 -0.0035749 -0.0004681
 -0.5750000  0.2876000 -0.9115786  0.0000917 -0.0008418
 -0.5750000  0.2753000 -0.8311619  0.0001662 -0.0013833
 -0.5625000  0.2631000 -0.7512349  0.0003137 -0.0015279
 -0.5750000  0.2630000 -0.7512777  0.0002569 -0.0016064
 -0.5750000  0.2509000 -0.6717893  0.0002808 -0.0015805
 -0.5625000  0.2509000 -0.6716451  0.0004087 -0.0015651
 -0.5875000  0.2631000 -0.7510873  0.0002207 -0.0016343
 -0.5875000  0.2753000 -0.8307620  0.0001716 -0.0014710
 -0.6000000  0.2753000 -0.8304999  0.0001124 -0.0015210
 -0.6000000  0.2630000 -0.7513109  0.0000853 -0.0015806
 -0.6000000  0.2509000 -0.6722927 -0.0000891 -0.0013215
 -0.5875000  0.2509000 -0.6719313  0.0001857 -0.0015125
 -0.5875000  0.2876000 -0.9108262  0.0001118 -0.0009229
 -0.6000000  0.2876000 -0.9100455  0.0000840 -0.0009958
 -0.5875000  0.3000000 -0.9652593 -0.0035523 -0.0005233
 -0.6000000  0.3000000 -0.9641132 -0.0035297 -0.0005793
 -0.6125000  0.2876000 -0.9092422  0.0000906 -0.0010499
 -0.6125000  0.2753000 -0.8302599  0.0000655 -0.0015048
 -0.6125000  0.3000000 -0.9628518 -0.0034969 -0.0006336
 -0.6250000  0.3000000 -0.9614851 -0.0034600 -0.0006828
 -0.6250000  0.2876000 -0.9084828  0.0000437 -0.0010706
 -0.6250000  0.2753000 -0.8302914 -0.0000745 -0.0013744
 -0.6125000  0.2631000 -0.7513986 -0.0000758 -0.0013997
 -0.6250000  0.2630000 -0.7520414 -0.0004273 -0.0009996
 -0.6250000  0.2509000 -0.6734128 -0.0010844 -0.0002743
 -0.6125000  0.2509000 -0.6726759 -0.0004381 -0.0009425
 -0.6375000  0.2631000 -0.7526820 -0.0008891 -0.0002880
 -0.6375000  0.2753000 -0.8305503 -0.0002431 -0.0010653
 -0.6500000  0.2753000 -0.8313397 -0.0006341 -0.0004510
 -0.6500000  0.2630000 -0.7540328 -0.0017824  0.0009386
 -0.6500000  0.2508000 -0.6754859 -0.0034899  0.0025030
 -0.6375000  0.2509000 -0.6742281 -0.0019573  0.0008010
 -0.6375000  0.2876000 -0.9078238  0.0000190 -0.0010328
 -0.6500000  0.2876000 -0.9074118 -0.0000895 -0.0008919
 -0.6375000  0.3000000 -0.9600273 -0.0034064 -0.0007213
 -0.6500000  0.3000000 -0.9585166 -0.0033454 -0.0007370
 -0.6625000  0.2876000 -0.9074675 -0.0002546 -0.0005424
 -0.6625000  0.2753000 -0.8328947 -0.0012683  0.0007165
 -0.6625000  0.3000000 -0.9570319 -0.0032617 -0.0006985
 -0.6750000  0.3000000 -0.9557347 -0.0031441 -0.0005656
 -0.6750000  0.2876000 -0.9084307 -0.0005918  0.0001869
 -0.6750000  0.2753000 -0.8358060 -0.0024891  0.0028401
 -0.6625000  0.2630000 -0.7559485 -0.0032305  0.0029960
 -0.6750000  0.2630000 -0.7589076 -0.0058972  0.0063975
 -0.6750000  0.2508000 -0.6787141 -0.0101754  0.0089686
 -0.6625000  0.2508000 -0.6769220 -0.0059558  0.0050937
 -0.6875000  0.2630000 -0.7627258 -0.0109285  0.0119936
 -0.6875000  0.2753000 -0.8407606 -0.0050051  0.0068244
 -0.7000000  0.2753000 -0.8486395 -0.0107008  0.0144525
 -0.7000000  0.2630000 -0.7665634 -0.0209636  0.0209961
 -0.7000000  0.2508000 -0.6791217 -0.0300176  0.0215238
 -0.6875000  0.2508000 -0.6799572 -0.0174020  0.0144912
 -0.6875000  0.2876000 -0.9111419 -0.0013484  0.0017119
 -0.7000000  0.2876000 -0.9174578 -0.0032609  0.0052060
 -0.6875000  0.3000000 -0.9549482 -0.0030192 -0.0001953
 -0.7000000  0.3000000 -0.9555687 -0.0028139  0.0006710
 -0.7125000  0.2876000 -0.9312249 -0.0092930  0.0134262
 -0.7125000  0.2753000 -0.8593719 -0.0249061  0.0297600
 -0.7125000  0.3000000 -0.9598438 -0.0040467  0.0041422
 -0.7250000  0.3000000 -0.9809535 -0.0070269  0.0137939
 -0.7250000  0.2876000 -0.9621568 -0.0318042  0.0402620
 -0.7250000  0.2752000 -0.8611879 -0.0656762  0.0552574
 -0.7125000  0.2630000 -0.7663057 -0.0417781  0.0336503
 -0.7250000  0.2630000 -0.7554270 -0.0826222  0.0428153
 -0.7250000  0.2507000 -0.6620850 -0.0808473  0.0270846
 -0.7125000  0.2508000 -0.6734575 -0.0510596  0.0277684
 -0.7375000  0.2630000 -0.7360791 -0.1356415  0.0295911
 -0.7375000  0.2507000 -0.6485557 -0.1104172  0.0129112
 -0.7375000  0.2753000 -0.8370727 -0.1630357  0.0607054
 -0.7500000  0.2752000 -0.8181858 -0.2384163 -0.0075071
 -0.7500000  0.2629000 -0.7244666 -0.1624995 -0.0107624
 -0.7500000  0.2507000 -0.6408358 -0.1234713 -0.0136552
 -0.7375000  0.2876000 -0.9665984 -0.1472973  0.0877190
 -0.7375000  0.3000000 -1.0792245 -0.1284793  0.1269265
 -0.7500000  0.3000000 -1.2347679 -0.5561769 -0.0019426
 -0.7500000  0.2876000 -0.9883285 -0.4073361 -0.0038994
 -0.7625000  0.2630000 -0.7298061 -0.1356424 -0.0511025
 -0.7625000  0.2753000 -0.8301235 -0.1630385 -0.0757011
 -0.7750000  0.2752000 -0.8472762 -0.0656802 -0.0702563
 -0.7750000  0.2630000 -0.7428821 -0.0826252 -0.0643294
 -0.7750000  0.2507000 -0.6509000 -0.0808456 -0.0543820
 -0.7625000  0.2507000 -0.6429585 -0.1104164 -0.0402162
 -0.7625000  0.2876000 -0.9589613 -0.1472971 -0.0955160
 -0.7750000  0.2876000 -0.9468809 -0.0318051 -0.0480612
 -0.7625000  0.3000000 -1.0711212 -0.1284494 -0.1308151
 -0.7750000  0.3000000 -0.9647480 -0.0069644 -0.0176787
 -0.7875000  0.2876000 -0.9082504 -0.0092906 -0.0212314
 -0.7875000  0.3000000 -0.9355257 -0.0039505 -0.0080384
 -0.8000000  0.3000000 -0.9231478 -0.0027047 -0.0045513
 -0.8000000  0.2876000 -0.8868368 -0.0032954 -0.0130317
 -0.8000000  0.2752000 -0.8207862 -0.0106847 -0.0294710
 -0.7875000  0.2753000 -0.8384150 -0.0248753 -0.0447427
 -0.7875000  0.2630000 -0.7474173 -0.0418099 -0.0551578
 -0.8000000  0.2630000 -0.7413842 -0.0210083 -0.0425136
 -0.8000000  0.2508000 -0.6566674 -0.0300312 -0.0487921
 -0.7875000  0.2508000 -0.6566707 -0.0510576 -0.0550431
 -0.8125000  0.2630000 -0.7312937 -0.0109411 -0.0334819
 -0.8125000  0.2508000 -0.6518847 -0.0174355 -0.0417687
 -0.8125000  0.2753000 -0.8058926 -0.0049851 -0.0218130
 -0.8250000  0.2753000 -0.7940712 -0.0024965 -0.0178320
 -0.8250000  0.2630000 -0.7212640 -0.0058946 -0.0278752
 -0.8250000  0.2508000 -0.6450582 -0.0101820 -0.0362371
 -0.8125000  0.2876000 -0.8728965 -0.0013606 -0.0095095
 -0.8125000  0.3000000 -0.9144281 -0.0028540 -0.0036908
 -0.8250000  0.3000000 -0.9071123 -0.0029642 -0.0033245
 -0.8250000  0.2876000 -0.8625869 -0.0005993 -0.0079742
 -0.8375000  0.2630000 -0.7120258 -0.0032419 -0.0244783
 -0.8375000  0.2753000 -0.7842058 -0.0012710 -0.0157089
 -0.8500000  0.2753000 -0.7756357 -0.0006339 -0.0145468
 -0.8500000  0.2630000 -0.7037386 -0.0017653 -0.0224123
 -0.8500000  0.2508000 -0.6306220 -0.0034937 -0.0297535
 -0.8375000  0.2508000 -0.6377253 -0.0059818 -0.0323577
 -0.8375000  0.2876000 -0.8539880 -0.0002562 -0.0072414
 -0.8500000  0.2876000 -0.8462909 -0.0000856 -0.0068968
 -0.8375000  0.3000000 -0.9002998 -0.0030474 -0.0031897
 -0.8500000  0.3000000 -0.8936773 -0.0030995 -0.0031529
 -0.8625000  0.2876000 -0.8390652  0.0000044 -0.0067516
 -0.8625000  0.2753000 -0.7678724 -0.0002658 -0.0139323
 -0.8625000  0.3000000 -0.8870818 -0.0031342 -0.0031661
 -0.8750000  0.3000000 -0.8804371 -0.0031530 -0.0032026
 -0.8750000  0.2876000 -0.8320828  0.0000490 -0.0067111
 -0.8750000  0.2753000 -0.7606733 -0.0000767 -0.0136150
 -0.8625000  0.2630000 -0.6961629 -0.0008680 -0.0211776
 -0.8750000  0.2630000 -0.6891730 -0.0004071 -0.0204583
 -0.8750000  0.2509000 -0.6173178 -0.0010837 -0.0269673
 -0.8625000  0.2509000 -0.6237394 -0.0019824 -0.0280458
 -0.8875000  0.2631000 -0.6823558 -0.0000830 -0.0200519
 -0.8875000  0.2753000 -0.7537384  0.0000614 -0.0134802
 -0.9000000  0.2753000 -0.7470198  0.0001106 -0.0134644
 -0.9000000  0.2630000 -0.6759759  0.0000825 -0.0198827
 -0.9000000  0.2509000 -0.6050434 -0.0000876 -0.0259063
 -0.8875000  0.2509000 -0.6110452 -0.0004435 -0.0262794
 -0.8875000  0.2876000 -0.8252029  0.0000883 -0.0067381
 -0.9000000  0.2876000 -0.8183634  0.0000810 -0.0067903
 -0.8875000  0.3000000 -0.8737014 -0.0031588 -0.0032543
 -0.9000000  0.3000000 -0.8668561 -0.0031631 -0.0033099
 -0.9125000  0.2876000 -0.8115045  0.0001067 -0.0068634
 -0.9125000  0.2753000 -0.7403302  0.0001672 -0.0135108
 -0.9125000  0.3000000 -0.8598955 -0.0031551 -0.0033645
 -0.9250000  0.3000000 -0.8528220 -0.0031465 -0.0034200
 -0.9250000  0.2876000 -0.8046162  0.0000893 -0.0069430
 -0.9250000  0.2753000 -0.7337690  0.0001653 -0.0136011
 -0.9125000  0.2631000 -0.6694899  0.0002122 -0.0198181
 -0.9250000  0.2630000 -0.6633861  0.0002548 -0.0198535
 -0.9250000  0.2509000 -0.5933339  0.0002840 -0.0256407
 -0.9125000  0.2509000 -0.5990866  0.0001647 -0.0257082
 -0.9375000  0.2631000 -0.6570851  0.0003097 -0.0199244
 -0.9375000  0.2753000 -0.7271548  0.0001916 -0.0137064
 -0.9500000  0.2753000 -0.7206121  0.0001697 -0.0138279
 -0.9500000  0.2630000 -0.6510896  0.0002975 -0.0200424
 -0.9500000  0.2509000 -0.5819958  0.0004012 -0.0257284
 -0.9375000  0.2509000 -0.5875921  0.0004018 -0.0256583
 -0.9375000  0.2876000 -0.7976654  0.0001066 -0.0070276
 -0.9500000  0.2876000 -0.7906635  0.0000844 -0.0071087
 -0.9375000  0.3000000 -0.8456359 -0.0031308 -0.0034720
 -0.9500000  0.3000000 -0.8383446 -0.0031159 -0.0035223
 -0.9625000  0.2876000 -0.7835891  0.0000983 -0.0071887
 -0.9625000  0.2753000 -0.7139810  0.0001822 -0.0139450
 -0.9625000  0.3000000 -0.8309532 -0.0030950 -0.0035674
 -0.9750000  0.3000000 -0.8234714 -0.0030760 -0.0036100
 -0.9750000  0.2876000 -0.7764616  0.0000746 -0.0072614
 -0.9750000  0.2753000 -0.7073986  0.0001527 -0.0140655
 -0.9625000  0.2631000 -0.6448517  0.0003165 -0.0201570
 -0.9750000  0.2630000 -0.6388831  0.0002838 -0.0202956
 -0.9750000  0.2509000 -0.5708385  0.0004107 -0.0259466
 -0.9625000  0.2509000 -0.5763617  0.0004541 -0.0258262
 -0.9875000  0.2631000 -0.6326527  0.0002888 -0.0204157
 -0.9875000  0.2753000 -0.7007160  0.0001606 -0.0141741
 -1.0000000  0.2753000 -0.6940742  0.0001289 -0.0142814
 -1.0000000  0.2630000 -0.6266717  0.0002479 -0.0205492
 -1.0000000  0.2509000 -0.5597530  0.0003710 -0.0261990
 -0.9875000  0.2509000 -0.5652505  0.0004331 -0.0260701
 -0.9875000  0.2876000 -0.7692648  0.0000875 -0.0073307
 -1.0000000  0.2876000 -0.7620208  0.0000638 -0.0073917
 -0.9875000  0.3000000 -0.8159057 -0.0030516 -0.0036473
 -1.0000000  0.3000000 -0.8082659 -0.0030296 -0.0036821
 -1.0125000  0.2876000 -0.7547158  0.0000764 -0.0074489
 -1.0125000  0.2753000 -0.6873311  0.0001354 -0.0143738
 -1.0125000  0.3000000 -0.8005581 -0.0030028 -0.0037117
 -1.0250000  0.3000000 -0.7927917 -0.0029787 -0.0037393
 -1.0250000  0.2876000 -0.7473723  0.0000534 -0.0074977
 -1.0250000  0.2753000 -0.6806283  0.0001040 -0.0144635
 -1.0125000  0.2631000 -0.6204236  0.0002477 -0.0206569
 -1.0250000  0.2630000 -0.6144150  0.0002051 -0.0207737
 -1.0250000  0.2509000 -0.5486835  0.0003124 -0.0264370
 -1.0125000  0.2509000 -0.5541784  0.0003805 -0.0263194
 -1.0375000  0.2631000 -0.6081409  0.0002047 -0.0208625
 -1.0375000  0.2753000 -0.6738280  0.0001110 -0.0145377
 -1.0500000  0.2753000 -0.6670706  0.0000812 -0.0146096
 -1.0500000  0.2630000 -0.6021009  0.0001638 -0.0209595
 -1.0500000  0.2509000 -0.5376042  0.0002525 -0.0266413
 -1.0375000  0.2509000 -0.5431068  0.0003192 -0.0265415
 -1.0375000  0.2876000 -0.7399774  0.0000662 -0.0075431
 -1.0500000  0.2876000 -0.7325534  0.0000442 -0.0075807
 -1.0375000  0.3000000 -0.7849719 -0.0029502 -0.0037621
 -1.0500000  0.3000000 -0.7771072 -0.0029247 -0.0037834
 -1.0625000  0.2876000 -0.7250872  0.0000574 -0.0076157
 -1.0625000  0.2753000 -0.6602213  0.0000893 -0.0146667
 -1.0625000  0.3000000 -0.7692016 -0.0028950 -0.0038004
 -1.0750000  0.3000000 -0.7612625 -0.0028684 -0.0038165
 -1.0750000  0.2876000 -0.7176004  0.0000364 -0.0076438
 -1.0750000  0.2753000 -0.6534183  0.0000615 -0.0147225
 -1.0625000  0.2631000 -0.5958004  0.0001651 -0.0210284
 -1.0750000  0.2630000 -0.5897306  0.0001271 -0.0211062
 -1.0750000  0.2509000 -0.5265035  0.0001969 -0.0268065
 -1.0625000  0.2509000 -0.5320183  0.0002601 -0.0267266
 -1.0875000  0.2631000 -0.5834072  0.0001311 -0.0211568
 -1.0875000  0.2753000 -0.6465296  0.0000711 -0.0147647
 -1.1000000  0.2753000 -0.6396905  0.0000455 -0.0148070
 -1.1000000  0.2630000 -0.5773117  0.0000968 -0.0212177
 -1.1000000  0.2509000 -0.5153801  0.0001504 -0.0269342
 -1.0875000  0.2509000 -0.5209069  0.0002081 -0.0268723
 -1.0875000  0.2876000 -0.7100798  0.0000500 -0.0076701
 -1.1000000  0.2876000 -0.7025457  0.0000301 -0.0076903
 -1.0875000  0.3000000 -0.7532930 -0.0028379 -0.0038288
 -1.1000000  0.3000000 -0.7452993 -0.0028104 -0.0038406
 -1.1125000  0.2876000 -0.6949846  0.0000440 -0.0077097
 -1.1125000  0.2753000 -0.6327715  0.0000565 -0.0148370
 -1.1125000  0.3000000 -0.7372834 -0.0027794 -0.0038492
 -1.1250000  0.3000000 -0.7292505 -0.0027514 -0.0038578
 -1.1250000  0.2876000 -0.6874159  0.0000251 -0.0077237
 -1.1250000  0.2753000 -0.6259048  0.0000329 -0.0148683
 -1.1125000  0.2631000 -0.5709698  0.0001034 -0.0212528
 -1.1250000  0.2630000 -0.5648532  0.0000724 -0.0212998
 -1.1250000  0.2509000 -0.5042351  0.0001121 -0.0270295
 -1.1125000  0.2509000 -0.5097731  0.0001650 -0.0269834
 -1.1375000  0.2631000 -0.5584975  0.0000816 -0.0213223
 -1.1375000  0.2753000 -0.6189635  0.0000451 -0.0148886
 -1.1500000  0.2753000 -0.6120765  0.0000234 -0.0149115
 -1.1500000  0.2630000 -0.5523643  0.0000538 -0.0213583
 -1.1500000  0.2509000 -0.4930726  0.0000830 -0.0270982
 -1.1375000  0.2509000 -0.4986197  0.0001307 -0.0270643
 -1.1375000  0.2876000 -0.6798257  0.0000393 -0.0077376
 -1.1500000  0.2876000 -0.6722324  0.0000213 -0.0077470
 -1.1375000  0.3000000 -0.7212019 -0.0027199 -0.0038635
 -1.1500000  0.3000000 -0.7131418 -0.0026916 -0.0038696
 -1.1625000  0.2876000 -0.6646219  0.0000356 -0.0077568
 -1.1625000  0.2753000 -0.6051191  0.0000364 -0.0149245
 -1.1625000  0.3000000 -0.7050707 -0.0026598 -0.0038732
 -1.1750000  0.3000000 -0.6969922 -0.0026312 -0.0038776
 -1.1750000  0.2876000 -0.6570116  0.0000184 -0.0077627
 -1.1750000  0.2753000 -0.5982174  0.0000163 -0.0149410
 -1.1625000  0.2631000 -0.5459989  0.0000650 -0.0213711
 -1.1750000  0.2630000 -0.5398527  0.0000398 -0.0213987
 -1.1750000  0.2509000 -0.4818959  0.0000605 -0.0271462
 -1.1625000  0.2509000 -0.4874505  0.0001043 -0.0271223
 -1.1875000  0.2631000 -0.5334811  0.0000527 -0.0214043
 -1.1875000  0.2753000 -0.5912492  0.0000300 -0.0149486
 -1.2000000  0.2753000 -0.5843373  0.0000112 -0.0149605
 -1.2000000  0.2630000 -0.5273251  0.0000297 -0.0214257
 -1.2000000  0.2509000 -0.4707090  0.0000447 -0.0271786
 -1.1875000  0.2509000 -0.4762690  0.0000845 -0.0271616
 -1.1875000  0.2876000 -0.6493873  0.0000327 -0.0077696
 -1.2000000  0.2876000 -0.6417658  0.0000163 -0.0077730
 -1.1875000  0.3000000 -0.6889062 -0.0025993 -0.0038796
 -1.2000000  0.3000000 -0.6808157 -0.0025704 -0.0038827
 -1.2125000  0.2876000 -0.6341325  0.0000305 -0.0077777
 -1.2125000  0.2753000 -0.5773619  0.0000254 -0.0149642
 -1.2125000  0.3000000 -0.6727202 -0.0025385 -0.0038837
 -1.2250000  0.3000000 -0.6646222 -0.0025095 -0.0038858
 -1.2250000  0.2876000 -0.6265037  0.0000147 -0.0077794
 -1.2250000  0.2753000 -0.5704429  0.0000076 -0.0149728
 -1.2125000  0.2631000 -0.5209499  0.0000437 -0.0214261
 -1.2250000  0.2630000 -0.5147861  0.0000225 -0.0214431
 -1.2250000  0.2509000 -0.4595142  0.0000328 -0.0271998
 -1.2125000  0.2509000 -0.4650787  0.0000701 -0.0271882
 -1.2375000  0.2631000 -0.5084094  0.0000373 -0.0214397
 -1.2375000  0.2753000 -0.5634631  0.0000221 -0.0149738
 -1.2500000  0.2753000 -0.5565393  0.0000053 -0.0149803
 -1.2500000  0.2630000 -0.5022398  0.0000176 -0.0214537
 -1.2500000  0.2509000 -0.4483145  0.0000253 -0.0272129
 -1.2375000  0.2509000 -0.4538820  0.0000598 -0.0272047
 -1.2375000  0.2876000 -0.6188648  0.0000288 -0.0077827
 -1.2500000  0.2876000 -0.6112315  0.0000136 -0.0077832
 -1.2375000  0.3000000 -0.6565209 -0.0024775 -0.0038861
 -1.2500000  0.3000000 -0.6484184 -0.0024484 -0.0038877
 -1.2625000  0.2876000 -0.6035894  0.0000275 -0.0077856
 -1.2625000  0.2753000 -0.5495571  0.0000198 -0.0149795
 -1.2625000  0.3000000 -0.6403138 -0.0024164 -0.0038875
 -1.2750000  0.3000000 -0.6322088 -0.0023872 -0.0038887
 -1.2750000  0.2876000 -0.5959533  0.0000127 -0.0077852
 -1.2750000  0.2753000 -0.5426302  0.0000037 -0.0149845
 -1.2625000  0.2631000 -0.4958630  0.0000328 -0.0214480
 -1.2750000  0.2630000 -0.4896887  0.0000142 -0.0214599
 -1.2750000  0.2509000 -0.4371110  0.0000196 -0.0272207
 -1.2625000  0.2509000 -0.4426810  0.0000525 -0.0272151
 -1.2875000  0.2631000 -0.4833128  0.0000297 -0.0214524
 -1.2875000  0.2753000 -0.5356468  0.0000181 -0.0149825
 -1.3000000  0.2753000 -0.5287178  0.0000027 -0.0149866
 -1.3000000  0.2630000 -0.4771346  0.0000121 -0.0214631
 -1.3000000  0.2509000 -0.4259055  0.0000165 -0.0272248
 -1.2875000  0.2509000 -0.4314772  0.0000474 -0.0272206
 -1.2875000  0.2876000 -0.5883095  0.0000264 -0.0077870
 -1.3000000  0.2876000 -0.5806720  0.0000121 -0.0077862
 -1.2875000  0.3000000 -0.6241025 -0.0023552 -0.0038882
 -1.3000000  0.3000000 -0.6159964 -0.0023260 -0.0038891
 -1.3125000  0.2876000 -0.5730274  0.0000254 -0.0077877
 -1.3125000  0.2753000 -0.5217341  0.0000170 -0.0149839
 -1.3125000  0.3000000 -0.6078893 -0.0022940 -0.0038884
 -1.3250000  0.3000000 -0.5997828 -0.0022648 -0.0038892
 -1.3250000  0.2876000 -0.5653893  0.0000116 -0.0077866
 -1.3250000  0.2753000 -0.5148037  0.0000021 -0.0149875
 -1.3125000  0.2631000 -0.4707604  0.0000276 -0.0214547
 -1.3250000  0.2630000 -0.4645789  0.0000107 -0.0214645
 -1.3250000  0.2509000 -0.4146984  0.0000139 -0.0272268
 -1.3125000  0.2509000 -0.4202716  0.0000439 -0.0272238
 -1.3375000  0.2631000 -0.4582067  0.0000260 -0.0214554
 -1.3375000  0.2753000 -0.5078203  0.0000161 -0.0149843
 -1.3500000  0.2753000 -0.5008888  0.0000018 -0.0149876
 -1.3500000  0.2630000 -0.4520224  0.0000099 -0.0214649
 -1.3500000  0.2509000 -0.4034907  0.0000128 -0.0272274
 -1.3375000  0.2509000 -0.4090649  0.0000413 -0.0272248
 -1.3375000  0.2876000 -0.5577444  0.0000246 -0.0077878
 -1.3500000  0.2876000 -0.5501060  0.0000112 -0.0077866
 -1.3375000  0.3000000 -0.5916756 -0.0022328 -0.0038885
 -1.3500000  0.3000000 -0.5835691 -0.0022035 -0.0038892
 -1.3625000  0.2876000 -0.5424612  0.0000239 -0.0077877
 -1.3625000  0.2753000 -0.4939060  0.0000155 -0.0149842
 -1.3625000  0.3000000 -0.5754620 -0.0021716 -0.0038884
 -1.3750000  0.3000000 -0.5673557 -0.0021423 -0.0038891
 -1.3750000  0.2876000 -0.5348229  0.0000108 -0.0077864
 -1.3750000  0.2753000 -0.4869737  0.0000016 -0.0149873
 -1.3625000  0.2631000 -0.4456525  0.0000249 -0.0214555
 -1.3750000  0.2630000 -0.4394655  0.0000092 -0.0214646
 -1.3750000  0.2509000 -0.3922824  0.0000116 -0.0272273
 -1.3625000  0.2509000 -0.3978577  0.0000395 -0.0272252
 -1.3875000  0.2631000 -0.4330982  0.0000239 -0.0214550
 -1.3875000  0.2753000 -0.4799917  0.0000149 -0.0149838
 -1.4000000  0.2753000 -0.4730588  0.0000015 -0.0149868
 -1.4000000  0.2630000 -0.4269086  0.0000089 -0.0214641
 -1.4000000  0.2509000 -0.3810742  0.0000114 -0.0272267
 -1.3875000  0.2509000 -0.3866502  0.0000380 -0.0272246
 -1.3875000  0.2876000 -0.5271784  0.0000232 -0.0077874
 -1.4000000  0.2876000 -0.5195402  0.0000105 -0.0077861
 -1.3875000  0.3000000 -0.5592490 -0.0021104 -0.0038882
 -1.4000000  0.3000000 -0.5511430 -0.0020810 -0.0038889
 -1.4125000  0.2876000 -0.5118960  0.0000225 -0.0077871
 -1.4125000  0.2753000 -0.4660776  0.0000145 -0.0149833
 -1.4125000  0.3000000 -0.5430366 -0.0020492 -0.0038881
 -1.4250000  0.3000000 -0.5349310 -0.0020198 -0.0038887
 -1.4250000  0.2876000 -0.5042580  0.0000102 -0.0077858
 -1.4250000  0.2753000 -0.4591442  0.0000014 -0.0149863
 -1.4125000  0.2631000 -0.4205438  0.0000232 -0.0214545
 -1.4250000  0.2630000 -0.4143517  0.0000085 -0.0214635
 -1.4250000  0.2509000 -0.3698657  0.0000107 -0.0272261
 -1.4125000  0.2509000 -0.3754427  0.0000367 -0.0272242
 -1.4375000  0.2631000 -0.4079897  0.0000225 -0.0214538
 -1.4375000  0.2753000 -0.4521639  0.0000140 -0.0149828
 -1.4500000  0.2753000 -0.4452299  0.0000014 -0.0149858
 -1.4500000  0.2630000 -0.4017951  0.0000083 -0.0214628
 -1.4500000  0.2509000 -0.3586575  0.0000106 -0.0272253
 -1.4375000  0.2509000 -0.3642351  0.0000356 -0.0272233
 -1.4375000  0.2876000 -0.4966142  0.0000218 -0.0077868
 -1.4500000  0.2876000 -0.4889763  0.0000099 -0.0077855
 -1.4375000  0.3000000 -0.5268249 -0.0019880 -0.0038879
 -1.4500000  0.3000000 -0.5187196 -0.0019586 -0.0038886
 -1.4625000  0.2876000 -0.4813328  0.0000212 -0.0077865
 -1.4625000  0.2753000 -0.4382505  0.0000136 -0.0149823
 -1.4625000  0.3000000 -0.5106139 -0.0019268 -0.0038877
 -1.4750000  0.3000000 -0.5025089 -0.0018974 -0.0038884
 -1.4750000  0.2876000 -0.4736952  0.0000096 -0.0077852
 -1.4750000  0.2753000 -0.4313160  0.0000013 -0.0149853
 -1.4625000  0.2631000 -0.3954357  0.0000218 -0.0214532
 -1.4750000  0.2630000 -0.3892387  0.0000080 -0.0214622
 -1.4750000  0.2509000 -0.3474492  0.0000100 -0.0272246
 -1.4625000  0.2509000 -0.3530277  0.0000345 -0.0272227
 -1.4875000  0.2631000 -0.3828821  0.0000211 -0.0214525
 -1.4875000  0.2753000 -0.4243375  0.0000132 -0.0149818
 -1.5000000  0.2753000 -0.4174025  0.0000013 -0.0149848
 -1.5000000  0.2630000 -0.3766826  0.0000078 -0.0214615
 -1.5000000  0.2509000 -0.3362412  0.0000099 -0.0272238
 -1.4875000  0.2509000 -0.3418204  0.0000334 -0.0272218
 -1.4875000  0.2876000 -0.4660520  0.0000205 -0.0077863
 -1.5000000  0.2876000 -0.4584146  0.0000092 -0.0077849
 -1.4875000  0.3000000 -0.4944034 -0.0018657 -0.0038876
 -1.5000000  0.3000000 -0.4862987 -0.0018362 -0.0038883
 -1.5125000  0.2876000 -0.4507717  0.0000198 -0.0077860
 -1.5125000  0.2753000 -0.4104249  0.0000127 -0.0149813
 -1.5125000  0.3000000 -0.4781936 -0.0018045 -0.0038875
 -1.5250000  0.3000000 -0.4700891 -0.0017750 -0.0038882
 -1.5250000  0.2876000 -0.4431344  0.0000089 -0.0077847
 -1.5250000  0.2753000 -0.4034894  0.0000012 -0.0149843
 -1.5125000  0.2631000 -0.3703286  0.0000204 -0.0214519
 -1.5250000  0.2630000 -0.3641267  0.0000074 -0.0214609
 -1.5250000  0.2509000 -0.3250332  0.0000093 -0.0272231
 -1.5125000  0.2509000 -0.3306132  0.0000323 -0.0272212
 -1.5375000  0.2631000 -0.3577754  0.0000197 -0.0214512
 -1.5375000  0.2753000 -0.3965126  0.0000123 -0.0149809
 -1.5500000  0.2753000 -0.3895766  0.0000012 -0.0149839
 -1.5500000  0.2630000 -0.3515710  0.0000072 -0.0214602
 -1.5500000  0.2509000 -0.3138255  0.0000092 -0.0272224
 -1.5375000  0.2509000 -0.3194062  0.0000311 -0.0272203
 -1.5375000  0.2876000 -0.4354919  0.0000191 -0.0077857
 -1.5500000  0.2876000 -0.4278548  0.0000086 -0.0077844
 -1.5375000  0.3000000 -0.4619843 -0.0017433 -0.0038873
 -1.5500000  0.3000000 -0.4538802 -0.0017138 -0.0038880
 -1.5625000  0.2876000 -0.4202127  0.0000185 -0.0077855
 -1.5625000  0.2753000 -0.3826008  0.0000118 -0.0149804
 -1.5625000  0.3000000 -0.4457757 -0.0016822 -0.0038872
 -1.5750000  0.3000000 -0.4376718 -0.0016526 -0.0038879
 -1.5750000  0.2876000 -0.4125757  0.0000083 -0.0077841
 -1.5750000  0.2753000 -0.3756642  0.0000011 -0.0149833
 -1.5625000  0.2631000 -0.3452225  0.0000189 -0.0214506
 -1.5750000  0.2630000 -0.3390156  0.0000069 -0.0214596
 -1.5750000  0.2509000 -0.3026177  0.0000086 -0.0272217
 -1.5625000  0.2509000 -0.3081993  0.0000300 -0.0272198
 -1.5875000  0.2631000 -0.3326697  0.0000182 -0.0214499
 -1.5875000  0.2753000 -0.3686893  0.0000114 -0.0149798
 -1.6000000  0.2753000 -0.3617522  0.0000011 -0.0149828
 -1.6000000  0.2630000 -0.3264604  0.0000067 -0.0214589
 -1.6000000  0.2509000 -0.2914102  0.0000085 -0.0272210
 -1.5875000  0.2509000 -0.2969924  0.0000289 -0.0272189
 -1.5875000  0.2876000 -0.4049339  0.0000178 -0.0077852
 -1.6000000  0.2876000 -0.3972971  0.0000080 -0.0077838
 -1.5875000  0.3000000 -0.4295677 -0.0016210 -0.0038870
 -1.6000000  0.3000000 -0.4214641 -0.0015914 -0.0038877
 -1.6125000  0.2876000 -0.3896557  0.0000171 -0.0077849
 -1.6125000  0.2753000 -0.3547781  0.0000110 -0.0149794
 -1.6125000  0.3000000 -0.4133603 -0.0015599 -0.0038869
 -1.6250000  0.3000000 -0.4052571 -0.0015302 -0.0038876
 -1.6250000  0.2876000 -0.3820190  0.0000077 -0.0077835
 -1.6250000  0.2753000 -0.3478404  0.0000011 -0.0149824
 -1.6125000  0.2631000 -0.3201172  0.0000176 -0.0214493
 -1.6250000  0.2630000 -0.3139053  0.0000065 -0.0214584
 -1.6250000  0.2509000 -0.2802025  0.0000081 -0.0272205
 -1.6125000  0.2509000 -0.2857856  0.0000279 -0.0272184
 -1.6375000  0.2631000 -0.3075647  0.0000171 -0.0214489
 -1.6375000  0.2753000 -0.3408671  0.0000106 -0.0149790
 -1.6500000  0.2753000 -0.3339288  0.0000012 -0.0149821
 -1.6500000  0.2630000 -0.3013502  0.0000065 -0.0214582
 -1.6500000  0.2509000 -0.2689948  0.0000085 -0.0272203
 -1.6375000  0.2509000 -0.2745788  0.0000271 -0.0272179
 -1.6375000  0.2876000 -0.3743779  0.0000165 -0.0077846
 -1.6500000  0.2876000 -0.3667413  0.0000074 -0.0077833
 -1.6375000  0.3000000 -0.3971537 -0.0014988 -0.0038867
 -1.6500000  0.3000000 -0.3890507 -0.0014691 -0.0038874
 -1.6625000  0.2876000 -0.3591004  0.0000159 -0.0077845
 -1.6625000  0.2753000 -0.3269562  0.0000104 -0.0149789
 -1.6625000  0.3000000 -0.3809475 -0.0014376 -0.0038866
 -1.6750000  0.3000000 -0.3728447 -0.0014079 -0.0038874
 -1.6750000  0.2876000 -0.3514638  0.0000072 -0.0077833
 -1.6750000  0.2753000 -0.3200170  0.0000014 -0.0149822
 -1.6625000  0.2631000 -0.2950120  0.0000168 -0.0214490
 -1.6750000  0.2630000 -0.2887947  0.0000068 -0.0214586
 -1.6750000  0.2509000 -0.2577865  0.0000091 -0.0272210
 -1.6625000  0.2509000 -0.2633716  0.0000268 -0.0272183
 -1.6875000  0.2631000 -0.2824587  0.0000169 -0.0214498
 -1.6875000  0.2753000 -0.3130448  0.0000104 -0.0149793
 -1.7000000  0.2753000 -0.3061044  0.0000019 -0.0149831
 -1.7000000  0.2630000 -0.2762383  0.0000078 -0.0214600
 -1.7000000  0.2509000 -0.2465776  0.0000108 -0.0272230
 -1.6875000  0.2509000 -0.2521639  0.0000271 -0.0272193
 -1.6875000  0.2876000 -0.3438228  0.0000153 -0.0077847
 -1.7000000  0.2876000 -0.3361857  0.0000071 -0.0077837
 -1.6875000  0.3000000 -0.3647415 -0.0013765 -0.0038867
 -1.7000000  0.3000000 -0.3566385 -0.0013467 -0.0038875
 -1.7125000  0.2876000 -0.3285442  0.0000149 -0.0077853
 -1.7125000  0.2753000 -0.2991322  0.0000107 -0.0149808
 -1.7125000  0.3000000 -0.3485348 -0.0013154 -0.0038870
 -1.7250000  0.3000000 -0.3404311 -0.0012855 -0.0038880
 -1.7250000  0.2876000 -0.3209061  0.0000071 -0.0077847
 -1.7250000  0.2753000 -0.2921900  0.0000028 -0.0149853
 -1.7125000  0.2631000 -0.2699042  0.0000177 -0.0214521
 -1.7250000  0.2630000 -0.2636803  0.0000094 -0.0214633
 -1.7250000  0.2509000 -0.2353672  0.0000134 -0.0272272
 -1.7125000  0.2509000 -0.2409552  0.0000284 -0.0272225
 -1.7375000  0.2631000 -0.2573475  0.0000195 -0.0214566
 -1.7375000  0.2753000 -0.2852172  0.0000114 -0.0149839
 -1.7500000  0.2753000 -0.2782724  0.0000043 -0.0149896
 -1.7500000  0.2630000 -0.2511194  0.0000122 -0.0214696
 -1.7500000  0.2509000 -0.2241547  0.0000182 -0.0272350
 -1.7375000  0.2509000 -0.2297447  0.0000313 -0.0272282
 -1.7375000  0.2876000 -0.3132633  0.0000147 -0.0077868
 -1.7500000  0.2876000 -0.3056232  0.0000073 -0.0077869
 -1.7375000  0.3000000 -0.3323262 -0.0012542 -0.0038877
 -1.7500000  0.3000000 -0.3242207 -0.0012243 -0.0038890
 -1.7625000  0.2876000 -0.2979780  0.0000147 -0.0077897
 -1.7625000  0.2753000 -0.2712978  0.0000129 -0.0149896
 -1.7625000  0.3000000 -0.3161133 -0.0011929 -0.0038891
 -1.7750000  0.3000000 -0.3080044 -0.0011630 -0.0038909
 -1.7750000  0.2876000 -0.2903344  0.0000079 -0.0077907
 -1.7750000  0.2753000 -0.2643492  0.0000066 -0.0149971
 -1.7625000  0.2631000 -0.2447870  0.0000225 -0.0214649
 -1.7750000  0.2630000 -0.2385537  0.0000165 -0.0214803
 -1.7750000  0.2509000 -0.2129386  0.0000253 -0.0272483
 -1.7625000  0.2509000 -0.2185314  0.0000364 -0.0272385
 -1.7875000  0.2631000 -0.2322206  0.0000275 -0.0214787
 -1.7875000  0.2753000 -0.2573712  0.0000153 -0.0149994
 -1.8000000  0.2753000 -0.2504168  0.0000100 -0.0150096
 -1.8000000  0.2630000 -0.2259806  0.0000231 -0.0214977
 -1.8000000  0.2509000 -0.2017175  0.0000360 -0.0272693
 -1.7875000  0.2509000 -0.2073138  0.0000443 -0.0272552
 -1.7875000  0.2876000 -0.2826848  0.0000150 -0.0077948
 -1.8000000  0.2876000 -0.2750353  0.0000088 -0.0077972
 -1.7875000  0.3000000 -0.2998925 -0.0011316 -0.0038915
 -1.8000000  0.3000000 -0.2917776 -0.0011015 -0.0038941
 -1.8125000  0.2876000 -0.2673786  0.0000159 -0.0078030
 -1.8125000  0.2753000 -0.2434332  0.0000190 -0.0150150
 -1.8125000  0.3000000 -0.2836581 -0.0010701 -0.0038956
 -1.8250000  0.3000000 -0.2755337 -0.0010398 -0.0038993
 -1.8250000  0.2876000 -0.2597200  0.0000103 -0.0078075
 -1.8250000  0.2753000 -0.2364703  0.0000148 -0.0150290
 -1.8125000  0.2631000 -0.2196452  0.0000348 -0.0215004
 -1.8250000  0.2630000 -0.2133965  0.0000323 -0.0215245
 -1.8250000  0.2509000 -0.1904888  0.0000508 -0.0273015
 -1.8125000  0.2509000 -0.1960900  0.0000563 -0.0272815
 -1.8375000  0.2631000 -0.2070564  0.0000453 -0.0215331
 -1.8375000  0.2753000 -0.2294781  0.0000242 -0.0150388
 -1.8500000  0.2753000 -0.2225031  0.0000214 -0.0150579
 -1.8500000  0.2630000 -0.2007966  0.0000449 -0.0215641
 -1.8500000  0.2509000 -0.1792499  0.0000711 -0.0273484
 -1.8375000  0.2509000 -0.1848574  0.0000729 -0.0273204
 -1.8375000  0.2876000 -0.2520522  0.0000173 -0.0078156
 -1.8500000  0.2876000 -0.2443800  0.0000124 -0.0078229
 -1.8375000  0.3000000 -0.2674022 -0.0010082 -0.0039020
 -1.8500000  0.3000000 -0.2592629 -0.0009778 -0.0039071
 -1.8625000  0.2876000 -0.2366958  0.0000194 -0.0078344
 -1.8625000  0.2753000 -0.2154981  0.0000314 -0.0150736
 -1.8625000  0.3000000 -0.2511134 -0.0009460 -0.0039115
 -1.8750000  0.3000000 -0.2429523 -0.0009153 -0.0039186
 -1.8750000  0.2876000 -0.2290038  0.0000153 -0.0078454
 -1.8750000  0.2753000 -0.2085065  0.0000299 -0.0150994
 -1.8625000  0.2631000 -0.1944491  0.0000592 -0.0215804
 -1.8750000  0.2630000 -0.1881749  0.0000612 -0.0216202
 -1.8750000  0.2509000 -0.1679971  0.0000968 -0.0274145
 -1.8625000  0.2509000 -0.1736129  0.0000951 -0.0273765
 -1.8875000  0.2631000 -0.1818165  0.0000769 -0.0216463
 -1.8875000  0.2753000 -0.2014835  0.0000405 -0.0151226
 -1.9000000  0.2753000 -0.1944697  0.0000403 -0.0151566
 -1.9000000  0.2630000 -0.1755242  0.0000810 -0.0216967
 -1.9000000  0.2509000 -0.1567265  0.0001280 -0.0275038
 -1.8875000  0.2509000 -0.1623525  0.0001229 -0.0274536
 -1.8875000  0.2876000 -0.2212964  0.0000223 -0.0078610
 -1.9000000  0.2876000 -0.2135769  0.0000189 -0.0078766
 -1.8875000  0.3000000 -0.2347766 -0.0008832 -0.0039252
 -1.9000000  0.3000000 -0.2265843 -0.0008521 -0.0039347
 -1.9125000  0.2876000 -0.2058378  0.0000258 -0.0078973
 -1.9125000  0.2753000 -0.1874228  0.0000513 -0.0151886
 -1.9125000  0.3000000 -0.2183723 -0.0008196 -0.0039440
 -1.9250000  0.3000000 -0.2101379 -0.0007880 -0.0039564
 -1.9250000  0.2876000 -0.1980818  0.0000230 -0.0079182
 -1.9250000  0.2753000 -0.1803803  0.0000521 -0.0152319
 -1.9125000  0.2631000 -0.1691509  0.0000975 -0.0217342
 -1.9250000  0.2630000 -0.1628366  0.0001030 -0.0217965
 -1.9250000  0.2509000 -0.1454340  0.0001621 -0.0276193
 -1.9125000  0.2509000 -0.1510724  0.0001552 -0.0275559
 -1.9375000  0.2631000 -0.1564447  0.0001192 -0.0218458
 -1.9375000  0.2753000 -0.1733031  0.0000628 -0.0152735
 -1.9500000  0.2753000 -0.1662258  0.0000637 -0.0153262
 -1.9500000  0.2630000 -0.1501047  0.0001243 -0.0219197
 -1.9500000  0.2509000 -0.1341164  0.0001946 -0.0277605
 -1.9375000  0.2509000 -0.1397685  0.0001885 -0.0276845
 -1.9375000  0.2876000 -0.1903015  0.0000297 -0.0079444
 -1.9500000  0.2876000 -0.1824991  0.0000272 -0.0079709
 -1.9375000  0.3000000 -0.2018775 -0.0007551 -0.0039688
 -1.9500000  0.3000000 -0.1935884 -0.0007228 -0.0039842
 -1.9625000  0.2876000 -0.1746681  0.0000332 -0.0080024
 -1.9625000  0.2753000 -0.1591126  0.0000730 -0.0153763
 -1.9625000  0.3000000 -0.1852671 -0.0006894 -0.0039995
 -1.9750000  0.3000000 -0.1769111 -0.0006564 -0.0040176
 -1.9750000  0.2876000 -0.1668108  0.0000304 -0.0080335
 -1.9750000  0.2753000 -0.1519957  0.0000723 -0.0154363
 -1.9625000  0.2631000 -0.1436912  0.0001377 -0.0219794
 -1.9750000  0.2630000 -0.1373235  0.0001390 -0.0220615
 -1.9750000  0.2509000 -0.1227719  0.0002155 -0.0279209
 -1.9625000  0.2509000 -0.1284382  0.0002160 -0.0278367
 -1.9875000  0.2631000 -0.1308880  0.0001453 -0.0221259
 -1.9875000  0.2753000 -0.1448433  0.0000779 -0.0154913
 -2.0000000  0.2753000 -0.1376862  0.0000729 -0.0155526
 -2.0000000  0.2630000 -0.1244939  0.0001374 -0.0222078
 -2.0000000  0.2509000 -0.1114035  0.0002096 -0.0280831
 -1.9875000  0.2509000 -0.1170819  0.0002251 -0.0280010
 -1.9875000  0.2876000 -0.1589219  0.0000349 -0.0080684
 -2.0000000  0.2876000 -0.1510050  0.0000308 -0.0081012
 -1.9875000  0.3000000 -0.1685180 -0.0006224 -0.0040351
 -2.0000000  0.3000000 -0.1600866 -0.0005889 -0.0040545
 -2.0125000  0.2876000 -0.1430572  0.0000325 -0.0081353
 -2.0125000  0.2753000 -0.1304975  0.0000715 -0.0156041
 -2.0125000  0.3000000 -0.1516166 -0.0005544 -0.0040720
 -2.0250000  0.3000000 -0.1431100 -0.0005205 -0.0040898
 -2.0250000  0.2876000 -0.1350846  0.0000257 -0.0081638
 -2.0250000  0.2753000 -0.1233074  0.0000581 -0.0156553
 -2.0125000  0.2631000 -0.1180406  0.0001300 -0.0222651
 -2.0250000  0.2630000 -0.1116281  0.0001051 -0.0223307
 -2.0250000  0.2509000 -0.1000217  0.0001532 -0.0282131
 -2.0125000  0.2509000 -0.1057058  0.0001965 -0.0281527
 -2.0375000  0.2631000 -0.1051696  0.0000749 -0.0223599
 -2.0375000  0.2753000 -0.1160957  0.0000451 -0.0156882
 -2.0500000  0.2753000 -0.1088935  0.0000181 -0.0157101
 -2.0500000  0.2630000 -0.0987571  0.0000227 -0.0223828
 -2.0500000  0.2509000 -0.0886503  0.0000155 -0.0282538
 -2.0375000  0.2509000 -0.0943260  0.0001029 -0.0282469
 -2.0375000  0.2876000 -0.1270889  0.0000230 -0.0081890
 -2.0500000  0.2876000 -0.1190807  0.0000115 -0.0082029
 -2.0375000  0.3000000 -0.1345707 -0.0004859 -0.0041033
 -2.0500000  0.3000000 -0.1260061 -0.0004520 -0.0041142
 -2.0625000  0.2876000 -0.1110679  0.0000022 -0.0082065
 -2.0625000  0.2753000 -0.1016887 -0.0000122 -0.0157006
 -2.0625000  0.3000000 -0.1174267 -0.0004178 -0.0041173
 -2.0750000  0.3000000 -0.1088483 -0.0003845 -0.0041134
 -2.0750000  0.2876000 -0.1030681 -0.0000160 -0.0081906
 -2.0750000  0.2753000 -0.0945152 -0.0000584 -0.0156648
 -2.0625000  0.2631000 -0.0923192 -0.0000411 -0.0223515
 -2.0750000  0.2630000 -0.0859412 -0.0001318 -0.0222926
 -2.0750000  0.2509000 -0.0773342 -0.0002393 -0.0281190
 -2.0625000  0.2509000 -0.0829758 -0.0000897 -0.0282126
 -2.0875000  0.2631000 -0.0795686 -0.0002396 -0.0221558
 -2.0875000  0.2753000 -0.0873710 -0.0001114 -0.0155801
 -2.1000000  0.2753000 -0.0802945 -0.0001817 -0.0154494
 -2.1000000  0.2630000 -0.0732815 -0.0003778 -0.0219644
 -2.1000000  0.2509000 -0.0661503 -0.0006430 -0.0276924
 -2.0875000  0.2509000 -0.0717145 -0.0004163 -0.0279482
 -2.0875000  0.2876000 -0.0950982 -0.0000339 -0.0081548
 -2.1000000  0.2876000 -0.0871847 -0.0000606 -0.0080887
 -2.0875000  0.3000000 -0.1002911 -0.0003515 -0.0040968
 -2.1000000  0.3000000 -0.0917815 -0.0003199 -0.0040677
 -2.1125000  0.2876000 -0.0793553 -0.0000884 -0.0079914
 -2.1125000  0.2753000 -0.0732954 -0.0002605 -0.0152491
 -2.1125000  0.3000000 -0.0833520 -0.0002891 -0.0040199
 -2.1250000  0.3000000 -0.0750415 -0.0002599 -0.0039534
 -2.1250000  0.2876000 -0.0716466 -0.0001240 -0.0078523
 -2.1250000  0.2753000 -0.0664172 -0.0003561 -0.0149814
 -2.1125000  0.2631000 -0.0670432 -0.0005366 -0.0216671
 -2.1250000  0.2630000 -0.0609333 -0.0007251 -0.0212835
 -2.1250000  0.2509000 -0.0552146 -0.0012132 -0.0268437
 -2.1125000  0.2509000 -0.0606317 -0.0009033 -0.0273272
 -2.1375000  0.2631000 -0.0549219 -0.0009277 -0.0207733
 -2.1375000  0.2753000 -0.0596813 -0.0004588 -0.0146240
 -2.1500000  0.2753000 -0.0531292 -0.0005740 -0.0141845
 -2.1500000  0.2630000 -0.0490903 -0.0011587 -0.0201575
 -2.1500000  0.2508000 -0.0447005 -0.0019225 -0.0254291
 -2.1375000  0.2509000 -0.0498852 -0.0015484 -0.0262029
 -2.1375000  0.2876000 -0.0640973 -0.0001609 -0.0076706
 -2.1500000  0.2876000 -0.0567532 -0.0002041 -0.0074371
 -2.1375000  0.3000000 -0.0668952 -0.0002323 -0.0038624
 -2.1500000  0.3000000 -0.0589640 -0.0002061 -0.0037469
 -2.1625000  0.2876000 -0.0496636 -0.0002468 -0.0071513
 -2.1625000  0.2753000 -0.0468107 -0.0006938 -0.0136447
 -2.1625000  0.3000000 -0.0513029 -0.0001823 -0.0036033
 -2.1750000  0.3000000 -0.0439700 -0.0001594 -0.0034319
 -2.1750000  0.2876000 -0.0428778 -0.0002903 -0.0068121
 -2.1750000  0.2753000 -0.0407578 -0.0008141 -0.0130003
 -2.1625000  0.2630000 -0.0434514 -0.0013940 -0.0193911
 -2.1750000  0.2630000 -0.0380505 -0.0016329 -0.0184803
 -2.1750000  0.2508000 -0.0348579 -0.0027020 -0.0233339
 -2.1625000  0.2508000 -0.0396723 -0.0023098 -0.0244733
 -2.1875000  0.2630000 -0.0329205 -0.0018632 -0.0174315
 -2.1875000  0.2753000 -0.0350162 -0.0009300 -0.0122561
 -2.2000000  0.2753000 -0.0296259 -0.0010358 -0.0114182
 -2.2000000  0.2630000 -0.0280983 -0.0020734 -0.0162527
 -2.2000000  0.2508000 -0.0259576 -0.0034312 -0.0205568
 -2.1875000  0.2508000 -0.0302716 -0.0030805 -0.0220250
 -2.1875000  0.2876000 -0.0364458 -0.0003327 -0.0064193
 -2.2000000  0.2876000 -0.0304174 -0.0003711 -0.0059762
 -2.1875000  0.3000000 -0.0370232 -0.0001385 -0.0032330
 -2.2000000  0.3000000 -0.0305178 -0.0001187 -0.0030080
 -2.2125000  0.2876000 -0.0248327 -0.0004038 -0.0054922
 -2.2125000  0.2753000 -0.0246237 -0.0011258 -0.0104981
 -2.2125000  0.3000000 -0.0245060 -0.0001025 -0.0027599
 -2.2250000  0.3000000 -0.0190335 -0.0000838 -0.0024901
 -2.2250000  0.2876000 -0.0197405 -0.0004315 -0.0049745
 -2.2250000  0.2752000 -0.0200442 -0.0011964 -0.0095172
 -2.2125000  0.2630000 -0.0236154 -0.0022542 -0.0149666
 -2.2250000  0.2630000 -0.0195000 -0.0023968 -0.0135914
 -2.2250000  0.2507000 -0.0182569 -0.0039615 -0.0172126
 -2.2125000  0.2508000 -0.0219410 -0.0037268 -0.0189417
 -2.2375000  0.2630000 -0.0157811 -0.0024849 -0.0121389
 -2.2375000  0.2507000 -0.0149268 -0.0041103 -0.0153958
 -2.2375000  0.2753000 -0.0159052 -0.0012386 -0.0084788
 -2.2500000  0.2752000 -0.0122321 -0.0012610 -0.0074293
 -2.2500000  0.2629000 -0.0124672 -0.0025220 -0.0106554
 -2.2500000  0.2507000 -0.0119598 -0.0041670 -0.0135276
 -2.2375000  0.2876000 -0.0151585 -0.0004482 -0.0044218
 -2.2375000  0.3000000 -0.0141329 -0.0000684 -0.0022118
 -2.2500000  0.3000000 -0.0098242 -0.0000528 -0.0019218
 -2.2500000  0.2876000 -0.0111099 -0.0004544 -0.0038580
 -2.2625000  0.2630000 -0.0095596 -0.0024958 -0.0091558
 -2.2625000  0.2753000 -0.0090233 -0.0012461 -0.0063591
 -2.2750000  0.2752000 -0.0062709 -0.0012072 -0.0053195
 -2.2750000  0.2630000 -0.0070617 -0.0024182 -0.0076935
 -2.2750000  0.2507000 -0.0071358 -0.0039950 -0.0098149
 -2.2625000  0.2507000 -0.0093626 -0.0041258 -0.0116506
 -2.2625000  0.2876000 -0.0076023 -0.0004495 -0.0032915
 -2.2750000  0.2876000 -0.0046272 -0.0004361 -0.0027386
 -2.2625000  0.3000000 -0.0061173 -0.0000392 -0.0016349
 -2.2750000  0.3000000 -0.0030055 -0.0000249 -0.0013506
 -2.2875000  0.2876000 -0.0021722 -0.0004125 -0.0022064
 -2.2875000  0.3000000 -0.0004711 -0.0000135 -0.0010813
 -2.3000000  0.3000000  0.0015179 -0.0000015 -0.0008270
 -2.3000000  0.2876000 -0.0002072 -0.0003820 -0.0017101
 -2.3000000  0.2752000 -0.0020915 -0.0010584 -0.0033881
 -2.2875000  0.2753000 -0.0039709 -0.0011417 -0.0043194
 -2.2875000  0.2630000 -0.0049535 -0.0022865 -0.0062875
 -2.3000000  0.2630000 -0.0032159 -0.0021155 -0.0049736
 -2.3000000  0.2508000 -0.0037025 -0.0034950 -0.0064099
 -2.2875000  0.2508000 -0.0052539 -0.0037778 -0.0080541
 -2.3125000  0.2630000 -0.0018220 -0.0019120 -0.0037689
 -2.3125000  0.2508000 -0.0024542 -0.0031619 -0.0049091
 -2.3125000  0.2753000 -0.0006086 -0.0009554 -0.0025303
 -2.3250000  0.2753000  0.0005182 -0.0008433 -0.0017645
 -2.3250000  0.2630000 -0.0007402 -0.0016890 -0.0026931
 -2.3250000  0.2508000 -0.0014740 -0.0027901 -0.0035652
 -2.3125000  0.2876000  0.0013006 -0.0003446 -0.0012541
 -2.3125000  0.3000000  0.0030017  0.0000082 -0.0005969
 -2.3250000  0.3000000  0.0040308  0.0000163 -0.0003906
 -2.3250000  0.2876000  0.0023976 -0.0003031 -0.0008468
 -2.3375000  0.2630000  0.0000677 -0.0014555 -0.0017524
 -2.3375000  0.2753000  0.0013252 -0.0007259 -0.0010956
 -2.3500000  0.2753000  0.0018562 -0.0006076 -0.0005258
 -2.3500000  0.2630000  0.0006382 -0.0012205 -0.0009509
 -2.3500000  0.2508000 -0.0001842 -0.0020177 -0.0013960
 -2.3375000  0.2508000 -0.0007291 -0.0024037 -0.0023928
 -2.3375000  0.2876000  0.0031259 -0.0002603 -0.0004933
 -2.3500000  0.2876000  0.0035380 -0.0002175 -0.0001932
 -2.3375000  0.3000000  0.0046584  0.0000229 -0.0002115
 -2.3500000  0.3000000  0.0049414  0.0000275 -0.0000600
 -2.3625000  0.2876000  0.0036839 -0.0001759  0.0000542
 -2.3625000  0.2753000  0.0021536 -0.0004931 -0.0000544
 -2.3625000  0.3000000  0.0049371  0.0000303  0.0000642
 -2.3750000  0.3000000  0.0047009  0.0000315  0.0001625
 -2.3750000  0.2876000  0.0036129 -0.0001364  0.0002509
 -2.3750000  0.2753000  0.0022591 -0.0003836  0.0003226
 -2.3625000  0.2630000  0.0010086 -0.0009912 -0.0002851
 -2.3750000  0.2630000  0.0012140 -0.0007749  0.0002478
 -2.3750000  0.2508000  0.0004377 -0.0012876  0.0000937
 -2.3625000  0.2509000  0.0001940 -0.0016416 -0.0005690
 -2.3875000  0.2630000  0.0012872 -0.0005725  0.0006576
 -2.3875000  0.2753000  0.0022117 -0.0002819  0.0006103
 -2.4000000  0.2753000  0.0020486 -0.0001865  0.0008148
 -2.4000000  0.2630000  0.0012592 -0.0003845  0.0009529
 -2.4000000  0.2508000  0.0006270 -0.0006502  0.0009782
 -2.3875000  0.2509000  0.0005732 -0.0009556  0.0006060
 -2.3875000  0.2876000  0.0033719 -0.0000995  0.0003998
 -2.4000000  0.2876000  0.0030050 -0.0000650  0.0005041
 -2.3875000  0.3000000  0.0042854  0.0000312  0.0002364
 -2.4000000  0.3000000  0.0037398  0.0000299  0.0002874
 -2.4125000  0.2876000  0.0025536 -0.0000324  0.0005664
 -2.4125000  0.2753000  0.0018034 -0.0000969  0.0009415
 -2.4125000  0.3000000  0.0031103  0.0000280  0.0003169
 -2.4250000  0.3000000  0.0024408  0.0000265  0.0003257
 -2.4250000  0.2876000  0.0020566 -0.0000006  0.0005887
 -2.4250000  0.2753000  0.0015074 -0.0000106  0.0009949
 -2.4125000  0.2630000  0.0011567 -0.0002088  0.0011421
 -2.4250000  0.2630000  0.0010035 -0.0000410  0.0012333
 -2.4250000  0.2508000  0.0005642 -0.0000983  0.0013529
 -2.4125000  0.2508000  0.0006179 -0.0003658  0.0012236
 -2.4375000  0.2630000  0.0008190  0.0001226  0.0012324
 -2.4375000  0.2753000  0.0011880  0.0000754  0.0009779
 -2.4500000  0.2753000  0.0008698  0.0001629  0.0008921
 -2.4500000  0.2630000  0.0006195  0.0002850  0.0011444
 -2.4500000  0.2508000  0.0003718  0.0004092  0.0012991
 -2.4375000  0.2508000  0.0004783  0.0001587  0.0013756
 -2.4375000  0.2876000  0.0015511  0.0000318  0.0005713
 -2.4500000  0.2876000  0.0010728  0.0000658  0.0005136
 -2.4375000  0.3000000  0.0017744  0.0000261  0.0003136
 -2.4500000  0.3000000  0.0011560  0.0000282  0.0002794
 -2.4625000  0.2876000  0.0006561  0.0001010  0.0004148
 -2.4625000  0.2753000  0.0005734  0.0002501  0.0007399
 -2.4625000  0.3000000  0.0006338  0.0000341  0.0002210
 -2.4750000  0.3000000  0.0002578  0.0000426  0.0001390
 -2.4750000  0.2876000  0.0003308  0.0001300  0.0002786
 -2.4750000  0.2753000  0.0003171  0.0003214  0.0005287
 -2.4625000  0.2630000  0.0004192  0.0004429  0.0009743
 -2.4750000  0.2630000  0.0002350  0.0005776  0.0007273
 -2.4750000  0.2507000  0.0001433  0.0008683  0.0008635
 -2.4625000  0.2508000  0.0002554  0.0006506  0.0011286
 -2.4875000  0.2630000  0.0000947  0.0006369  0.0004028
 -2.4875000  0.2507000  0.0000567  0.0010263  0.0004897
 -2.4875000  0.2753000  0.0001278  0.0003246  0.0002750
 -2.5000000  0.2753000  0.0000413  0.0002467  0.0001355
 -2.5000000  0.2630000  0.0000306  0.0006015  0.0002123
 -2.5000000  0.2507000  0.0000224  0.0010809  0.0002629
 -2.4875000  0.2387000  0.0000240  0.0014690  0.0005368
 -2.5000000  0.2386000  0.0000190  0.0016381  0.0002894
 -2.5000000  0.2266000  0.0000180  0.0022183  0.0002968
 -2.4875000  0.2266000 -0.0000024  0.0019274  0.0005502
 -2.4750000  0.2266000 -0.0000071  0.0014976  0.0009563
 -2.4750000  0.2387000  0.0000612  0.0011819  0.0009372
 -2.4625000  0.2387000  0.0001079  0.0008607  0.0012094
 -2.4625000  0.2267000 -0.0000170  0.0010634  0.0012266
 -2.4500000  0.2267000 -0.0000342  0.0006243  0.0013811
 -2.4500000  0.2387000  0.0001519  0.0005241  0.0013731
 -2.4624000  0.2148000 -0.0001193  0.0012558  0.0011906
 -2.4749000  0.2147000 -0.0000627  0.0018079  0.0009308
 -2.4749000  0.2029000 -0.0001089  0.0020981  0.0008678
 -2.4624000  0.2030000 -0.0002049  0.0014324  0.0011097
 -2.4499000  0.2031000 -0.0003179  0.0007909  0.0012426
 -2.4499000  0.2149000 -0.0001886  0.0007137  0.0013343
 -2.4875000  0.2147000 -0.0000235  0.0023850  0.0005348
 -2.5000000  0.2147000  0.0000199  0.0027971  0.0002879
 -2.5000000  0.2028000  0.0000216  0.0033406  0.0002695
 -2.4874000  0.2028000 -0.0000411  0.0028154  0.0004988
 -2.4623000  0.1913000 -0.0002787  0.0015920  0.0009912
 -2.4748000  0.1911000 -0.0001478  0.0023599  0.0007738
 -2.4747000  0.1794000 -0.0001831  0.0025828  0.0006517
 -2.4622000  0.1796000 -0.0003457  0.0017273  0.0008390
 -2.4497000  0.1798000 -0.0005321  0.0009237  0.0009503
 -2.4498000  0.1914000 -0.0004298  0.0008615  0.0011130
 -2.4874000  0.1910000 -0.0000559  0.0032056  0.0004434
 -2.5000000  0.1910000  0.0000238  0.0038355  0.0002388
 -2.5000000  0.1791000  0.0000265  0.0042615  0.0002011
 -2.4873000  0.1792000 -0.0000688  0.0035404  0.0003730
 -2.4619000  0.1680000 -0.0004108  0.0018341  0.0006563
 -2.4745000  0.1676000 -0.0002160  0.0027536  0.0005049
 -2.4741000  0.1559000 -0.0002511  0.0028591  0.0003304
 -2.4616000  0.1565000 -0.0004786  0.0019063  0.0004471
 -2.4492000  0.1569000 -0.0007285  0.0010258  0.0005401
 -2.4495000  0.1683000 -0.0006304  0.0009781  0.0007571
 -2.4872000  0.1673000 -0.0000798  0.0038039  0.0002882
 -2.5000000  0.1672000  0.0000298  0.0046065  0.0001558
 -2.5000000  0.1550000  0.0000348  0.0048545  0.0001025
 -2.4869000  0.1553000 -0.0000917  0.0039779  0.0001863
 -2.4611000  0.1453000 -0.0005521  0.0019428  0.0002212
 -2.4733000  0.1444000 -0.0002981  0.0028792  0.0001425
 -2.4722000  0.1338000 -0.0003658  0.0028109 -0.0000523
 -2.4606000  0.1345000 -0.0006077  0.0019465 -0.0000176
 -2.4487000  0.1348000 -0.0008937  0.0011098  0.0000347
 -2.4489000  0.1458000 -0.0008199  0.0010685  0.0002996
 -2.4862000  0.1428000 -0.0001265  0.0040553  0.0000644
 -2.5000000  0.1422000  0.0000148  0.0049665  0.0000066
 -2.5000000  0.1240000 -0.0000197  0.0046483 -0.0001057
 -2.4834000  0.1314000 -0.0001572  0.0039600 -0.0000053
 -2.4604000  0.1239000 -0.0006342  0.0019431 -0.0002829
 -2.4717000  0.1240000 -0.0003881  0.0027339 -0.0002622
 -2.4722000  0.1141000 -0.0003885  0.0027106 -0.0004683
 -2.4606000  0.1134000 -0.0006482  0.0019399 -0.0005601
 -2.4487000  0.1131000 -0.0009666  0.0012014 -0.0005681
 -2.4486000  0.1239000 -0.0009456  0.0011552 -0.0002566
 -2.4805000  0.1240000 -0.0002105  0.0036018 -0.0001977
 -2.4834000  0.1165000 -0.0001706  0.0037828 -0.0003139
 -2.4611000  0.1026000 -0.0006142  0.0019121 -0.0008263
 -2.4733000  0.1035000 -0.0003268  0.0026649 -0.0006638
 -2.4741000  0.0921000 -0.0002754  0.0025087 -0.0008625
 -2.4616000  0.0915000 -0.0005321  0.0018318 -0.0010867
 -2.4492000  0.0910000 -0.0008409  0.0012376 -0.0011912
 -2.4489000  0.1021000 -0.0009379  0.0012354 -0.0008820
 -2.4862000  0.1052000 -0.0001293  0.0036937 -0.0003636
 -2.4869000  0.0927000 -0.0000985  0.0033517 -0.0005006
 -2.5000000  0.1057000  0.0000227  0.0045515 -0.0001851
 -2.5000000  0.0930000  0.0000216  0.0040361 -0.0002780
 -2.4872000  0.0808000 -0.0000774  0.0029171 -0.0006032
 -2.5000000  0.0809000  0.0000122  0.0034459 -0.0003306
 -2.5000000  0.0691000  0.0000114  0.0027765 -0.0003671
 -2.4873000  0.0691000 -0.0000424  0.0024079 -0.0006715
 -2.4747000  0.0689000 -0.0001183  0.0019185 -0.0011618
 -2.4745000  0.0805000 -0.0002112  0.0022475 -0.0010405
 -2.4619000  0.0801000 -0.0004112  0.0016889 -0.0013188
 -2.4621000  0.0686000 -0.0002388  0.0014872 -0.0014899
 -2.4496000  0.0684000 -0.0004083  0.0010949 -0.0016936
 -2.4495000  0.0797000 -0.0006671  0.0011931 -0.0014715
 -2.4623000  0.0572000 -0.0000086  0.0012351 -0.0015698
 -2.4748000  0.0573000  0.0000064  0.0015448 -0.0012066
 -2.4749000  0.0458000  0.0001596  0.0011541 -0.0011559
 -2.4624000  0.0457000  0.0002705  0.0009487 -0.0015342
 -2.4499000  0.0456000  0.0003680  0.0007452 -0.0018191
 -2.4498000  0.0570000 -0.0000593  0.0009437 -0.0018203
 -2.4874000  0.0575000  0.0000060  0.0018596 -0.0006924
 -2.4874000  0.0459000  0.0000667  0.0013160 -0.0006541
 -2.5000000  0.0575000  0.0000162  0.0020645 -0.0003773
 -2.5000000  0.0459000  0.0000276  0.0013707 -0.0003538
 -2.4875000  0.0344000  0.0001328  0.0008194 -0.0005470
 -2.5000000  0.0344000  0.0000438  0.0007584 -0.0002878
 -2.5000000  0.0229000  0.0000608  0.0003091 -0.0001840
 -2.4875000  0.0229000  0.0001866  0.0004212 -0.0003769
 -2.4750000  0.0229000  0.0004635  0.0004301 -0.0007344
 -2.4749000  0.0344000  0.0003248  0.0007714 -0.0009974
 -2.4624000  0.0343000  0.0005732  0.0006466 -0.0013648
 -2.4624000  0.0229000  0.0008444  0.0003623 -0.0010513
 -2.4499000  0.0228000  0.0013013  0.0002900 -0.0013141
 -2.4499000  0.0342000  0.0008429  0.0005161 -0.0016596
 -2.4625000  0.0114000  0.0009862  0.0001447 -0.0005917
 -2.4750000  0.0114000  0.0004898  0.0001730 -0.0003892
 -2.4750000  0.0000000  0.0003864  0.0000542 -0.0001929
 -2.4625000  0.0000000  0.0009595  0.0000472 -0.0003117
 -2.4500000  0.0000000  0.0017752  0.0000471 -0.0004077
 -2.4500000  0.0114000  0.0016454  0.0001145 -0.0007575
 -2.4875000  0.0115000  0.0001760  0.0001554 -0.0001749
 -2.4875000  0.0000000  0.0000914  0.0000476 -0.0000712
 -2.5000000  0.0115000  0.0000543  0.0000726 -0.0000683
 -2.5000000  0.0000000  0.0000074  0.0000040 -0.0000141
 -2.4374000  0.0341000  0.0011128  0.0004004 -0.0018834
 -2.4374000  0.0227000  0.0018144  0.0002306 -0.0015221
 -2.4249000  0.0227000  0.0023633  0.0001827 -0.0016818
 -2.4249000  0.0340000  0.0013594  0.0002976 -0.0020360
 -2.4249000  0.0454000  0.0004380  0.0003735 -0.0021221
 -2.4374000  0.0455000  0.0004311  0.0005559 -0.0020173
 -2.4375000  0.0114000  0.0024412  0.0000918 -0.0008903
 -2.4250000  0.0114000  0.0033463  0.0000754 -0.0009982
 -2.4375000  0.0000000  0.0027861  0.0000538 -0.0004844
 -2.4250000  0.0000000  0.0039538  0.0000654 -0.0005471
 -2.4125000  0.0113000  0.0043324  0.0000644 -0.0010838
 -2.4125000  0.0227000  0.0029215  0.0001394 -0.0017927
 -2.4125000  0.0000000  0.0052584  0.0000848 -0.0005991
 -2.4000000  0.0000000  0.0066854  0.0001097 -0.0006487
 -2.4000000  0.0113000  0.0053725  0.0000537 -0.0011523
 -2.4000000  0.0226000  0.0034435  0.0000929 -0.0018504
 -2.4124000  0.0340000  0.0015577  0.0001946 -0.0021101
 -2.4000000  0.0339000  0.0016606  0.0000709 -0.0020870
 -2.3999000  0.0452000  0.0001571 -0.0000676 -0.0019724
 -2.4124000  0.0453000  0.0003592  0.0001776 -0.0021165
 -2.3875000  0.0339000  0.0016042 -0.0000981 -0.0019319
 -2.3875000  0.0226000  0.0038760  0.0000316 -0.0018409
 -2.3750000  0.0226000  0.0041334 -0.0000644 -0.0017294
 -2.3750000  0.0339000  0.0012966 -0.0003559 -0.0015837
 -2.3750000  0.0452000 -0.0008479 -0.0009185 -0.0010249
 -2.3875000  0.0452000 -0.0002215 -0.0004086 -0.0016349
 -2.3875000  0.0113000  0.0064330  0.0000400 -0.0011990
 -2.3750000  0.0113000  0.0074630  0.0000186 -0.0012146
 -2.3875000  0.0000000  0.0082174  0.0001404 -0.0006938
 -2.3750000  0.0000000  0.0098448  0.0001788 -0.0007333
 -2.3625000  0.0113000  0.0083908 -0.0000184 -0.0011782
 -2.3625000  0.0226000  0.0040943 -0.0002235 -0.0014550
 -2.3625000  0.0000000  0.0115490  0.0002276 -0.0007621
 -2.3500000  0.0000000  0.0132927  0.0002915 -0.0007708
 -2.3500000  0.0113000  0.0090861 -0.0000858 -0.0010488
 -2.3500000  0.0226000  0.0035526 -0.0005045 -0.0009060
 -2.3625000  0.0339000  0.0006201 -0.0007716 -0.0009377
 -2.3500000  0.0339000 -0.0006051 -0.0014740  0.0001828
 -2.3500000  0.0452000 -0.0031532 -0.0030094  0.0016044
 -2.3625000  0.0452000 -0.0017955 -0.0017166 -0.0000110
 -2.3375000  0.0340000 -0.0026122 -0.0027122  0.0020882
 -2.3375000  0.0227000  0.0022028 -0.0010233  0.0001273
 -2.3250000  0.0227000 -0.0004880 -0.0020215  0.0020446
 -2.3251000  0.0341000 -0.0056728 -0.0049881  0.0053094
 -2.3251000  0.0454000 -0.0071583 -0.0089281  0.0080296
 -2.3376000  0.0453000 -0.0049725 -0.0051752  0.0041341
 -2.3375000  0.0113000  0.0093183 -0.0002161 -0.0007485
 -2.3250000  0.0114000  0.0086865 -0.0004894 -0.0001101
 -2.3375000  0.0000000  0.0150006  0.0003800 -0.0007394
 -2.3250000  0.0000000  0.0165232  0.0004936 -0.0006262
 -2.3125000  0.0114000  0.0063681 -0.0010921  0.0012295
 -2.3125000  0.0228000 -0.0053376 -0.0041196  0.0056970
 -2.3125000  0.0000000  0.0175703  0.0006389 -0.0003099
 -2.3000000  0.0000000  0.0173165  0.0009433  0.0003843
 -2.3000000  0.0114000  0.0005134 -0.0026293  0.0043537
 -2.3000000  0.0228000 -0.0135252 -0.0090188  0.0128737
 -2.3126000  0.0341000 -0.0099224 -0.0094067  0.0107498
 -2.3001000  0.0342000 -0.0148436 -0.0185684  0.0199290
 -2.3001000  0.0456000 -0.0094900 -0.0277252  0.0216561
 -2.3126000  0.0455000 -0.0091970 -0.0155944  0.0138024
 -2.2876000  0.0343000 -0.0165237 -0.0387029  0.0339245
 -2.2875000  0.0229000 -0.0260082 -0.0219045  0.0281522
 -2.2750000  0.0229000 -0.0307403 -0.0616576  0.0559881
 -2.2751000  0.0344000 -0.0067605 -0.0812902  0.0461765
 -2.2751000  0.0458000  0.0065992 -0.0819097  0.0309060
 -2.2876000  0.0457000 -0.0049421 -0.0493080  0.0296417
 -2.2875000  0.0114000 -0.0129693 -0.0076495  0.0118106
 -2.2750000  0.0114000 -0.0461397 -0.0278759  0.0381861
 -2.2875000  0.0000000  0.0138267  0.0001140  0.0033754
 -2.2750000  0.0000000 -0.0059680 -0.0006369  0.0110220
 -2.2625000  0.0115000 -0.0547862 -0.1456652  0.0903738
 -2.2625000  0.0000000 -0.1083181 -0.1204765  0.1249502
 -2.2500000  0.0000000 -0.2734648 -0.5679734 -0.0018274
 -2.2500000  0.0115000 -0.0821121 -0.4249500 -0.0036651
 -2.2500000  0.0229000  0.0118410 -0.2544162 -0.0070887
 -2.2625000  0.0229000 -0.0073054 -0.1659429  0.0661951
 -2.2625000  0.0344000  0.0137477 -0.1415816  0.0345279
 -2.2500000  0.0344000  0.0266816 -0.1745383 -0.0102055
 -2.2500000  0.0459000  0.0300402 -0.1323529 -0.0130426
 -2.2626000  0.0459000  0.0213807 -0.1165230  0.0166344
 -2.2375000  0.0344000  0.0202348 -0.1415812 -0.0549323
 -2.2374000  0.0459000  0.0272314 -0.1165395 -0.0427099
 -2.2375000  0.0229000 -0.0001736 -0.1659376 -0.0803716
 -2.2250000  0.0229000 -0.0164901 -0.0616507 -0.0701526
 -2.2249000  0.0344000  0.0062103 -0.0812741 -0.0665692
 -2.2249000  0.0458000  0.0182652 -0.0819013 -0.0569680
 -2.2375000  0.0115000 -0.0470136 -0.1456657 -0.0977065
 -2.2375000  0.0000000 -0.1001147 -0.1204567 -0.1286013
 -2.2250000  0.0000000  0.0104525 -0.0005890 -0.0146493
 -2.2250000  0.0114000 -0.0305906 -0.0278749 -0.0455119
 -2.2124000  0.0343000  0.0029516 -0.0386710 -0.0542992
 -2.2124000  0.0457000  0.0125685 -0.0492460 -0.0556576
 -2.2125000  0.0229000 -0.0046230 -0.0218992 -0.0423043
 -2.2000000  0.0228000  0.0150636 -0.0089999 -0.0269887
 -2.1999000  0.0342000  0.0111615 -0.0185023 -0.0402492
 -2.1999000  0.0456000  0.0138960 -0.0276738 -0.0476341
 -2.2125000  0.0114000  0.0103649 -0.0076484 -0.0191388
 -2.2125000  0.0000000  0.0384762  0.0001995 -0.0069985
 -2.2000000  0.0000000  0.0501913  0.0010682 -0.0040136
 -2.2000000  0.0114000  0.0316434 -0.0026270 -0.0116714
 -2.1874000  0.0341000  0.0225800 -0.0093495 -0.0310719
 -2.1874000  0.0227000  0.0304159 -0.0040828 -0.0197873
 -2.1750000  0.0227000  0.0424759 -0.0019843 -0.0161236
 -2.1749000  0.0340000  0.0333844 -0.0049187 -0.0256073
 -2.1749000  0.0454000  0.0279869 -0.0088228 -0.0339347
 -2.1874000  0.0455000  0.0200629 -0.0155045 -0.0397317
 -2.1875000  0.0114000  0.0453313 -0.0010844 -0.0085373
 -2.1750000  0.0113000  0.0554937 -0.0004774 -0.0071772
 -2.1875000  0.0000000  0.0586934  0.0007646 -0.0033324
 -2.1750000  0.0000000  0.0659116  0.0006670 -0.0029875
 -2.1625000  0.0113000  0.0639474 -0.0002032 -0.0065485
 -2.1625000  0.0226000  0.0522965 -0.0009883 -0.0142269
 -2.1625000  0.0000000  0.0726750  0.0005812 -0.0028846
 -2.1500000  0.0000000  0.0792579  0.0005243 -0.0028605
 -2.1500000  0.0113000  0.0715571 -0.0000738 -0.0062622
 -2.1500000  0.0226000  0.0608510 -0.0004733 -0.0132072
 -2.1624000  0.0340000  0.0429680 -0.0026493 -0.0223960
 -2.1500000  0.0339000  0.0515003 -0.0014146 -0.0204935
 -2.1499000  0.0452000  0.0437800 -0.0029065 -0.0275222
 -2.1624000  0.0453000  0.0360622 -0.0050842 -0.0300560
 -2.1375000  0.0339000  0.0592749 -0.0007160 -0.0193958
 -2.1375000  0.0226000  0.0685830 -0.0001969 -0.0126838
 -2.1250000  0.0226000  0.0758526 -0.0000372 -0.0124221
 -2.1250000  0.0338000  0.0665243 -0.0002937 -0.0187561
 -2.1250000  0.0451000  0.0578827 -0.0008281 -0.0249033
 -2.1374000  0.0451000  0.0510328 -0.0016106 -0.0259052
 -2.1375000  0.0113000  0.0787220 -0.0000064 -0.0061497
 -2.1250000  0.0113000  0.0856792  0.0000270 -0.0061251
 -2.1375000  0.0000000  0.0858304  0.0004901 -0.0028783
 -2.1250000  0.0000000  0.0924638  0.0004738 -0.0029157
 -2.1125000  0.0113000  0.0925561  0.0000444 -0.0061403
 -2.1125000  0.0225000  0.0828264  0.0000604 -0.0123196
 -2.1125000  0.0000000  0.0991966  0.0004636 -0.0029668
 -2.1000000  0.0000000  0.1060444  0.0004623 -0.0030171
 -2.1000000  0.0113000  0.0994162  0.0000553 -0.0061918
 -2.1000000  0.0225000  0.0896263  0.0001118 -0.0123292
 -2.1125000  0.0338000  0.0733836 -0.0000509 -0.0184244
 -2.1000000  0.0338000  0.0800010  0.0000896 -0.0182682
 -2.1000000  0.0450000  0.0706545 -0.0000325 -0.0239839
 -2.1125000  0.0451000  0.0643795 -0.0003423 -0.0243171
 -2.0875000  0.0338000  0.0864571  0.0001759 -0.0182391
 -2.0875000  0.0225000  0.0963246  0.0001381 -0.0123912
 -2.0750000  0.0225000  0.1029803  0.0001505 -0.0124845
 -2.0750000  0.0338000  0.0927980  0.0002223 -0.0182878
 -2.0750000  0.0450000  0.0826996  0.0002682 -0.0238037
 -2.0875000  0.0450000  0.0767462  0.0001573 -0.0238374
 -2.0875000  0.0113000  0.1062866  0.0000594 -0.0062641
 -2.0750000  0.0113000  0.1132050  0.0000597 -0.0063426
 -2.0875000  0.0000000  0.1130086  0.0004677 -0.0030693
 -2.0750000  0.0000000  0.1200904  0.0004770 -0.0031206
 -2.0625000  0.0113000  0.1201837  0.0000576 -0.0064224
 -2.0625000  0.0225000  0.1096263  0.0001533 -0.0125943
 -2.0625000  0.0000000  0.1272866  0.0004896 -0.0031695
 -2.0500000  0.0000000  0.1345909  0.0005049 -0.0032154
 -2.0500000  0.0113000  0.1272283  0.0000542 -0.0065003
 -2.0500000  0.0225000  0.1162826  0.0001502 -0.0127108
 -2.0625000  0.0338000  0.0990790  0.0002437 -0.0183788
 -2.0500000  0.0338000  0.1053276  0.0002490 -0.0184937
 -2.0500000  0.0450000  0.0943708  0.0003586 -0.0239262
 -2.0625000  0.0450000  0.0885647  0.0003299 -0.0238423
 -2.0375000  0.0338000  0.1115630  0.0002439 -0.0186201
 -2.0375000  0.0225000  0.1229616  0.0001434 -0.0128275
 -2.0250000  0.0225000  0.1296705  0.0001344 -0.0129405
 -2.0250000  0.0338000  0.1177981  0.0002321 -0.0187496
 -2.0250000  0.0450000  0.1058837  0.0003577 -0.0241607
 -2.0375000  0.0450000  0.1001387  0.0003653 -0.0240367
 -2.0375000  0.0113000  0.1343404  0.0000500 -0.0065743
 -2.0250000  0.0113000  0.1415185  0.0000453 -0.0066435
 -2.0375000  0.0000000  0.1419957  0.0005223 -0.0032577
 -2.0250000  0.0000000  0.1494928  0.0005416 -0.0032963
 -2.0125000  0.0113000  0.1487595  0.0000405 -0.0067071
 -2.0125000  0.0225000  0.1364129  0.0001241 -0.0130472
 -2.0125000  0.0000000  0.1570740  0.0005622 -0.0033313
 -2.0000000  0.0000000  0.1647308  0.0005841 -0.0033626
 -2.0000000  0.0113000  0.1560593  0.0000357 -0.0067649
 -2.0000000  0.0225000  0.1431899  0.0001134 -0.0131462
 -2.0125000  0.0338000  0.1240411  0.0002163 -0.0188768
 -2.0000000  0.0338000  0.1302974  0.0001982 -0.0189980
 -2.0000000  0.0450000  0.1173456  0.0003181 -0.0244169
 -2.0125000  0.0450000  0.1116169  0.0003407 -0.0242895
 -1.9875000  0.0338000  0.1365698  0.0001791 -0.0191111
 -1.9875000  0.0225000  0.1500010  0.0001026 -0.0132366
 -1.9750000  0.0225000  0.1568448  0.0000922 -0.0133182
 -1.9750000  0.0338000  0.1428598  0.0001599 -0.0192149
 -1.9750000  0.0450000  0.1288092  0.0002654 -0.0246535
 -1.9875000  0.0450000  0.1230753  0.0002924 -0.0245391
 -1.9875000  0.0113000  0.1634129  0.0000311 -0.0068169
 -1.9750000  0.0113000  0.1708154  0.0000267 -0.0068632
 -1.9875000  0.0000000  0.1724554  0.0006070 -0.0033905
 -1.9750000  0.0000000  0.1802399  0.0006307 -0.0034151
 -1.9625000  0.0113000  0.1782618  0.0000225 -0.0069042
 -1.9625000  0.0225000  0.1637191  0.0000822 -0.0133911
 -1.9625000  0.0000000  0.1880772  0.0006552 -0.0034368
 -1.9500000  0.0000000  0.1959608  0.0006802 -0.0034556
 -1.9500000  0.0113000  0.1857471  0.0000186 -0.0069401
 -1.9500000  0.0225000  0.1706214  0.0000730 -0.0134555
 -1.9625000  0.0338000  0.1491676  0.0001412 -0.0193089
 -1.9500000  0.0338000  0.1554927  0.0001235 -0.0193930
 -1.9500000  0.0450000  0.1402975  0.0002120 -0.0248541
 -1.9625000  0.0450000  0.1345495  0.0002383 -0.0247587
 -1.9375000  0.0338000  0.1618344  0.0001068 -0.0194674
 -1.9375000  0.0225000  0.1775491  0.0000644 -0.0135121
 -1.9250000  0.0225000  0.1844994  0.0000567 -0.0135614
 -1.9250000  0.0338000  0.1681913  0.0000915 -0.0195328
 -1.9250000  0.0450000  0.1518178  0.0001639 -0.0250150
 -1.9375000  0.0450000  0.1460535  0.0001871 -0.0249394
 -1.9375000  0.0113000  0.1932667  0.0000151 -0.0069714
 -1.9250000  0.0113000  0.2008162  0.0000119 -0.0069984
 -1.9375000  0.0000000  0.2038845  0.0007058 -0.0034719
 -1.9250000  0.0000000  0.2118429  0.0007317 -0.0034859
 -1.9125000  0.0113000  0.2083917  0.0000089 -0.0070216
 -1.9125000  0.0225000  0.1914697  0.0000497 -0.0136039
 -1.9125000  0.0000000  0.2198309  0.0007581 -0.0034979
 -1.9000000  0.0000000  0.2278442  0.0007847 -0.0035081
 -1.9000000  0.0113000  0.2159895  0.0000063 -0.0070413
 -1.9000000  0.0225000  0.1984576  0.0000435 -0.0136403
 -1.9125000  0.0338000  0.1745622  0.0000775 -0.0195896
 -1.9000000  0.0338000  0.1809455  0.0000650 -0.0196386
 -1.9000000  0.0450000  0.1633694  0.0001235 -0.0251388
 -1.9125000  0.0450000  0.1575899  0.0001427 -0.0250812
 -1.8875000  0.0338000  0.1873398  0.0000538 -0.0196806
 -1.8875000  0.0225000  0.2054606  0.0000381 -0.0136713
 -1.8750000  0.0225000  0.2124768  0.0000333 -0.0136975
 -1.8750000  0.0338000  0.1937438  0.0000438 -0.0197162
 -1.8750000  0.0450000  0.1749482  0.0000911 -0.0252308
 -1.8875000  0.0450000  0.1691557  0.0001063 -0.0251884
 -1.8875000  0.0113000  0.2236064  0.0000040 -0.0070580
 -1.8750000  0.0113000  0.2312394  0.0000019 -0.0070721
 -1.8875000  0.0000000  0.2358789  0.0008115 -0.0035166
 -1.8750000  0.0000000  0.2439316  0.0008386 -0.0035238
 -1.8625000  0.0113000  0.2388859  0.0000001 -0.0070838
 -1.8625000  0.0225000  0.2195041  0.0000292 -0.0137195
 -1.8625000  0.0000000  0.2519993  0.0008658 -0.0035297
 -1.8500000  0.0000000  0.2600793  0.0008932 -0.0035346
 -1.8500000  0.0113000  0.2465438 -0.0000015 -0.0070935
 -1.8500000  0.0225000  0.2265409  0.0000257 -0.0137378
 -1.8625000  0.0338000  0.2001563  0.0000351 -0.0197463
 -1.8500000  0.0338000  0.2065760  0.0000276 -0.0197714
 -1.8500000  0.0450000  0.1865491  0.0000661 -0.0252969
 -1.8625000  0.0450000  0.1807462  0.0000777 -0.0252667
 -1.8375000  0.0338000  0.2130019  0.0000210 -0.0197923
 -1.8375000  0.0225000  0.2335856  0.0000227 -0.0137528
 -1.8250000  0.0225000  0.2406369  0.0000202 -0.0137652
 -1.8250000  0.0338000  0.2194329  0.0000153 -0.0198095
 -1.8250000  0.0450000  0.1981668  0.0000476 -0.0253429
 -1.8375000  0.0450000  0.1923561  0.0000562 -0.0253221
 -1.8375000  0.0113000  0.2542112 -0.0000030 -0.0071015
 -1.8250000  0.0113000  0.2618862 -0.0000042 -0.0071080
 -1.8375000  0.0000000  0.2681695  0.0009207 -0.0035386
 -1.8250000  0.0000000  0.2762680  0.0009483 -0.0035419
 -1.8125000  0.0113000  0.2695676 -0.0000053 -0.0071132
 -1.8125000  0.0225000  0.2476937  0.0000182 -0.0137752
 -1.8125000  0.0000000  0.2843732  0.0009760 -0.0035445
 -1.8000000  0.0000000  0.2924838  0.0010037 -0.0035466
 -1.8000000  0.0113000  0.2772540 -0.0000062 -0.0071174
 -1.8000000  0.0225000  0.2547549  0.0000165 -0.0137833
 -1.8125000  0.0338000  0.2258684  0.0000105 -0.0198235
 -1.8000000  0.0338000  0.2323074  0.0000064 -0.0198348
 -1.8000000  0.0450000  0.2097970  0.0000344 -0.0253739
 -1.8125000  0.0450000  0.2039806  0.0000404 -0.0253600
 -1.7875000  0.0338000  0.2387495  0.0000030 -0.0198439
 -1.7875000  0.0225000  0.2618198  0.0000151 -0.0137897
 -1.7750000  0.0225000  0.2688876  0.0000140 -0.0137947
 -1.7750000  0.0338000  0.2451940  0.0000001 -0.0198511
 -1.7750000  0.0450000  0.2214359  0.0000253 -0.0253940
 -1.7875000  0.0450000  0.2156155  0.0000294 -0.0253851
 -1.7875000  0.0113000  0.2849445 -0.0000070 -0.0071207
 -1.7750000  0.0113000  0.2926383 -0.0000078 -0.0071233
 -1.7875000  0.0000000  0.3005986  0.0010314 -0.0035482
 -1.7750000  0.0000000  0.3087167  0.0010592 -0.0035495
 -1.7625000  0.0113000  0.3003345 -0.0000084 -0.0071252
 -1.7625000  0.0225000  0.2759578  0.0000132 -0.0137986
 -1.7625000  0.0000000  0.3168373  0.0010871 -0.0035504
 -1.7500000  0.0000000  0.3249599  0.0011149 -0.0035512
 -1.7500000  0.0113000  0.3080327 -0.0000090 -0.0071267
 -1.7500000  0.0225000  0.2830298  0.0000125 -0.0138016
 -1.7625000  0.0338000  0.2516405 -0.0000024 -0.0198567
 -1.7500000  0.0338000  0.2580886 -0.0000044 -0.0198610
 -1.7500000  0.0450000  0.2330810  0.0000192 -0.0254065
 -1.7625000  0.0450000  0.2272578  0.0000219 -0.0254011
 -1.7375000  0.0338000  0.2645379 -0.0000061 -0.0198643
 -1.7375000  0.0225000  0.2901032  0.0000121 -0.0138038
 -1.7250000  0.0225000  0.2971777  0.0000117 -0.0138055
 -1.7250000  0.0338000  0.2709882 -0.0000074 -0.0198667
 -1.7250000  0.0450000  0.2447300  0.0000154 -0.0254138
 -1.7375000  0.0450000  0.2389051  0.0000171 -0.0254107
 -1.7375000  0.0113000  0.3157324 -0.0000094 -0.0071278
 -1.7250000  0.0113000  0.3234331 -0.0000099 -0.0071286
 -1.7375000  0.0000000  0.3330838  0.0011428 -0.0035517
 -1.7250000  0.0000000  0.3412088  0.0011707 -0.0035521
 -1.7125000  0.0113000  0.3311346 -0.0000103 -0.0071292
 -1.7125000  0.0225000  0.3042529  0.0000115 -0.0138066
 -1.7125000  0.0000000  0.3493345  0.0011986 -0.0035523
 -1.7000000  0.0000000  0.3574607  0.0012265 -0.0035525
 -1.7000000  0.0113000  0.3388367 -0.0000107 -0.0071295
 -1.7000000  0.0225000  0.3113288  0.0000114 -0.0138074
 -1.7125000  0.0338000  0.2774392 -0.0000086 -0.0198685
 -1.7000000  0.0338000  0.2838908 -0.0000096 -0.0198697
 -1.7000000  0.0450000  0.2563815  0.0000132 -0.0254177
 -1.7125000  0.0450000  0.2505555  0.0000141 -0.0254161
 -1.6875000  0.0338000  0.2903429 -0.0000103 -0.0198705
 -1.6875000  0.0225000  0.3184051  0.0000114 -0.0138079
 -1.6750000  0.0225000  0.3254817  0.0000115 -0.0138081
 -1.6750000  0.0338000  0.2967952 -0.0000110 -0.0198710
 -1.6750000  0.0450000  0.2680345  0.0000121 -0.0254195
 -1.6875000  0.0450000  0.2622079  0.0000125 -0.0254188
 -1.6875000  0.0113000  0.3465390 -0.0000110 -0.0071297
 -1.6750000  0.0113000  0.3542417 -0.0000113 -0.0071298
 -1.6875000  0.0000000  0.3655871  0.0012544 -0.0035525
 -1.6750000  0.0000000  0.3737137  0.0012823 -0.0035526
 -1.6625000  0.0113000  0.3619444 -0.0000116 -0.0071299
 -1.6625000  0.0225000  0.3325584  0.0000116 -0.0138082
 -1.6625000  0.0000000  0.3818402  0.0013101 -0.0035526
 -1.6500000  0.0000000  0.3899668  0.0013380 -0.0035525
 -1.6500000  0.0113000  0.3696471 -0.0000119 -0.0071298
 -1.6500000  0.0225000  0.3396353  0.0000117 -0.0138082
 -1.6625000  0.0338000  0.3032477 -0.0000115 -0.0198712
 -1.6500000  0.0338000  0.3097004 -0.0000120 -0.0198713
 -1.6500000  0.0450000  0.2796884  0.0000117 -0.0254201
 -1.6625000  0.0450000  0.2738614  0.0000118 -0.0254199
 -1.6375000  0.0338000  0.3161531 -0.0000124 -0.0198712
 -1.6375000  0.0225000  0.3467122  0.0000119 -0.0138081
 -1.6250000  0.0225000  0.3537890  0.0000121 -0.0138079
 -1.6250000  0.0338000  0.3226059 -0.0000127 -0.0198710
 -1.6250000  0.0450000  0.2913426  0.0000117 -0.0254199
 -1.6375000  0.0450000  0.2855155  0.0000117 -0.0254200
 -1.6375000  0.0113000  0.3773498 -0.0000122 -0.0071297
 -1.6250000  0.0113000  0.3850524 -0.0000124 -0.0071296
 -1.6375000  0.0000000  0.3980932  0.0013659 -0.0035525
 -1.6250000  0.0000000  0.4062195  0.0013938 -0.0035524
 -1.6125000  0.0113000  0.3927549 -0.0000127 -0.0071295
 -1.6125000  0.0225000  0.3608658  0.0000123 -0.0138077
 -1.6125000  0.0000000  0.4143456  0.0014217 -0.0035523
 -1.6000000  0.0000000  0.4224716  0.0014496 -0.0035523
 -1.6000000  0.0113000  0.4004572 -0.0000129 -0.0071294
 -1.6000000  0.0225000  0.3679426  0.0000126 -0.0138075
 -1.6125000  0.0338000  0.3290587 -0.0000130 -0.0198708
 -1.6000000  0.0338000  0.3355115 -0.0000133 -0.0198705
 -1.6000000  0.0450000  0.3029970  0.0000121 -0.0254194
 -1.6125000  0.0450000  0.2971698  0.0000119 -0.0254197
 -1.5875000  0.0338000  0.3419642 -0.0000136 -0.0198702
 -1.5875000  0.0225000  0.3750193  0.0000128 -0.0138073
 -1.5750000  0.0225000  0.3820958  0.0000131 -0.0138070
 -1.5750000  0.0338000  0.3484168 -0.0000138 -0.0198699
 -1.5750000  0.0450000  0.3146514  0.0000125 -0.0254187
 -1.5875000  0.0450000  0.3088242  0.0000123 -0.0254190
 -1.5875000  0.0113000  0.4081595 -0.0000132 -0.0071292
 -1.5750000  0.0113000  0.4158616 -0.0000134 -0.0071291
 -1.5875000  0.0000000  0.4305974  0.0014775 -0.0035522
 -1.5750000  0.0000000  0.4387230  0.0015054 -0.0035521
 -1.5625000  0.0113000  0.4235635 -0.0000137 -0.0071289
 -1.5625000  0.0225000  0.3891723  0.0000133 -0.0138068
 -1.5625000  0.0000000  0.4468484  0.0015333 -0.0035521
 -1.5500000  0.0000000  0.4549737  0.0015612 -0.0035520
 -1.5500000  0.0113000  0.4312654 -0.0000139 -0.0071288
 -1.5500000  0.0225000  0.3962487  0.0000136 -0.0138065
 -1.5625000  0.0338000  0.3548694 -0.0000141 -0.0198696
 -1.5500000  0.0338000  0.3613220 -0.0000143 -0.0198692
 -1.5500000  0.0450000  0.3263056  0.0000130 -0.0254180
 -1.5625000  0.0450000  0.3204785  0.0000128 -0.0254183
 -1.5375000  0.0338000  0.3677745 -0.0000146 -0.0198689
 -1.5375000  0.0225000  0.4033250  0.0000138 -0.0138063
 -1.5250000  0.0225000  0.4104011  0.0000141 -0.0138061
 -1.5250000  0.0338000  0.3742269 -0.0000148 -0.0198686
 -1.5250000  0.0450000  0.3379597  0.0000135 -0.0254173
 -1.5375000  0.0450000  0.3321327  0.0000133 -0.0254176
 -1.5375000  0.0113000  0.4389670 -0.0000142 -0.0071287
 -1.5250000  0.0113000  0.4466686 -0.0000144 -0.0071286
 -1.5375000  0.0000000  0.4630988  0.0015891 -0.0035519
 -1.5250000  0.0000000  0.4712238  0.0016170 -0.0035519
 -1.5125000  0.0113000  0.4543700 -0.0000146 -0.0071284
 -1.5125000  0.0225000  0.4174772  0.0000143 -0.0138058
 -1.5125000  0.0000000  0.4793486  0.0016448 -0.0035518
 -1.5000000  0.0000000  0.4874733  0.0016727 -0.0035517
 -1.5000000  0.0113000  0.4620713 -0.0000149 -0.0071283
 -1.5000000  0.0225000  0.4245532  0.0000146 -0.0138056
 -1.5125000  0.0338000  0.3806792 -0.0000150 -0.0198683
 -1.5000000  0.0338000  0.3871315 -0.0000153 -0.0198680
 -1.5000000  0.0450000  0.3496136  0.0000140 -0.0254165
 -1.5125000  0.0450000  0.3437867  0.0000138 -0.0254169
 -1.4875000  0.0338000  0.3935837 -0.0000155 -0.0198677
 -1.4875000  0.0225000  0.4316291  0.0000148 -0.0138054
 -1.4750000  0.0225000  0.4387049  0.0000151 -0.0138052
 -1.4750000  0.0338000  0.4000358 -0.0000158 -0.0198674
 -1.4750000  0.0450000  0.3612674  0.0000145 -0.0254158
 -1.4875000  0.0450000  0.3554405  0.0000143 -0.0254162
 -1.4875000  0.0113000  0.4697725 -0.0000151 -0.0071282
 -1.4750000  0.0113000  0.4774735 -0.0000154 -0.0071281
 -1.4875000  0.0000000  0.4955978  0.0017006 -0.0035517
 -1.4750000  0.0000000  0.5037222  0.0017285 -0.0035516
 -1.4625000  0.0113000  0.4851745 -0.0000156 -0.0071279
 -1.4625000  0.0225000  0.4457805  0.0000153 -0.0138049
 -1.4625000  0.0000000  0.5118465  0.0017563 -0.0035515
 -1.4500000  0.0000000  0.5199706  0.0017842 -0.0035515
 -1.4500000  0.0113000  0.4928752 -0.0000159 -0.0071278
 -1.4500000  0.0225000  0.4528561  0.0000155 -0.0138047
 -1.4625000  0.0338000  0.4064878 -0.0000160 -0.0198671
 -1.4500000  0.0338000  0.4129398 -0.0000163 -0.0198668
 -1.4500000  0.0450000  0.3729210  0.0000150 -0.0254151
 -1.4625000  0.0450000  0.3670942  0.0000148 -0.0254155
 -1.4375000  0.0338000  0.4193917 -0.0000165 -0.0198665
 -1.4375000  0.0225000  0.4599316  0.0000158 -0.0138045
 -1.4250000  0.0225000  0.4670070  0.0000160 -0.0138042
 -1.4250000  0.0338000  0.4258436 -0.0000168 -0.0198662
 -1.4250000  0.0450000  0.3845744  0.0000155 -0.0254144
 -1.4375000  0.0450000  0.3787477  0.0000152 -0.0254148
 -1.4375000  0.0113000  0.5005759 -0.0000161 -0.0071277
 -1.4250000  0.0113000  0.5082764 -0.0000164 -0.0071276
 -1.4375000  0.0000000  0.5280945  0.0018121 -0.0035514
 -1.4250000  0.0000000  0.5362182  0.0018400 -0.0035513
 -1.4125000  0.0113000  0.5159768 -0.0000166 -0.0071274
 -1.4125000  0.0225000  0.4740823  0.0000163 -0.0138040
 -1.4125000  0.0000000  0.5443418  0.0018678 -0.0035513
 -1.4000000  0.0000000  0.5524653  0.0018957 -0.0035512
 -1.4000000  0.0113000  0.5236770 -0.0000169 -0.0071273
 -1.4000000  0.0225000  0.4811575  0.0000165 -0.0138037
 -1.4125000  0.0338000  0.4322954 -0.0000170 -0.0198659
 -1.4000000  0.0338000  0.4387471 -0.0000173 -0.0198656
 -1.4000000  0.0450000  0.3962277  0.0000160 -0.0254137
 -1.4125000  0.0450000  0.3904011  0.0000157 -0.0254141
 -1.3875000  0.0338000  0.4451988 -0.0000175 -0.0198653
 -1.3875000  0.0225000  0.4882326  0.0000168 -0.0138035
 -1.3750000  0.0225000  0.4953076  0.0000170 -0.0138033
 -1.3750000  0.0338000  0.4516505 -0.0000177 -0.0198651
 -1.3750000  0.0450000  0.4078810  0.0000167 -0.0254132
 -1.3875000  0.0450000  0.4020544  0.0000163 -0.0254134
 -1.3875000  0.0113000  0.5313771 -0.0000171 -0.0071271
 -1.3750000  0.0113000  0.5390771 -0.0000174 -0.0071270
 -1.3875000  0.0000000  0.5605885  0.0019236 -0.0035511
 -1.3750000  0.0000000  0.5687116  0.0019514 -0.0035510
 -1.3625000  0.0113000  0.5467770 -0.0000176 -0.0071269
 -1.3625000  0.0225000  0.5023826  0.0000173 -0.0138031
 -1.3625000  0.0000000  0.5768345  0.0019793 -0.0035510
 -1.3500000  0.0000000  0.5849573  0.0020071 -0.0035509
 -1.3500000  0.0113000  0.5544768 -0.0000178 -0.0071268
 -1.3500000  0.0225000  0.5094576  0.0000177 -0.0138030
 -1.3625000  0.0338000  0.4581021 -0.0000178 -0.0198649
 -1.3500000  0.0338000  0.4645539 -0.0000179 -0.0198648
 -1.3500000  0.0450000  0.4195345  0.0000176 -0.0254131
 -1.3625000  0.0450000  0.4137077  0.0000171 -0.0254131
 -1.3375000  0.0338000  0.4710056 -0.0000179 -0.0198649
 -1.3375000  0.0225000  0.5165326  0.0000180 -0.0138030
 -1.3250000  0.0225000  0.5236078  0.0000184 -0.0138031
 -1.3250000  0.0338000  0.4774576 -0.0000179 -0.0198651
 -1.3250000  0.0450000  0.4311883  0.0000190 -0.0254136
 -1.3375000  0.0450000  0.4253613  0.0000183 -0.0254132
 -1.3375000  0.0113000  0.5621765 -0.0000180 -0.0071268
 -1.3250000  0.0113000  0.5698763 -0.0000182 -0.0071268
 -1.3375000  0.0000000  0.5930800  0.0020350 -0.0035509
 -1.3250000  0.0000000  0.6012026  0.0020629 -0.0035509
 -1.3125000  0.0113000  0.5775762 -0.0000184 -0.0071269
 -1.3125000  0.0225000  0.5306831  0.0000188 -0.0138034
 -1.3125000  0.0000000  0.6093253  0.0020907 -0.0035509
 -1.3000000  0.0000000  0.6174481  0.0021186 -0.0035510
 -1.3000000  0.0113000  0.5852763 -0.0000186 -0.0071271
 -1.3000000  0.0225000  0.5377586  0.0000194 -0.0138039
 -1.3125000  0.0338000  0.4839097 -0.0000177 -0.0198656
 -1.3000000  0.0338000  0.4903621 -0.0000174 -0.0198664
 -1.3000000  0.0450000  0.4428429  0.0000211 -0.0254154
 -1.3125000  0.0450000  0.4370155  0.0000200 -0.0254143
 -1.2875000  0.0338000  0.4968150 -0.0000170 -0.0198676
 -1.2875000  0.0225000  0.5448346  0.0000199 -0.0138047
 -1.2750000  0.0225000  0.5519112  0.0000206 -0.0138059
 -1.2750000  0.0338000  0.5032684 -0.0000163 -0.0198694
 -1.2750000  0.0450000  0.4544991  0.0000244 -0.0254194
 -1.2875000  0.0450000  0.4486708  0.0000226 -0.0254170
 -1.2875000  0.0113000  0.5929768 -0.0000187 -0.0071275
 -1.2750000  0.0113000  0.6006778 -0.0000188 -0.0071281
 -1.2875000  0.0000000  0.6255712  0.0021465 -0.0035512
 -1.2750000  0.0000000  0.6336948  0.0021743 -0.0035514
 -1.2625000  0.0113000  0.6083796 -0.0000188 -0.0071289
 -1.2625000  0.0225000  0.5589886  0.0000215 -0.0138075
 -1.2625000  0.0000000  0.6418191  0.0022022 -0.0035518
 -1.2500000  0.0000000  0.6499444  0.0022301 -0.0035523
 -1.2500000  0.0113000  0.6160825 -0.0000188 -0.0071300
 -1.2500000  0.0225000  0.5660671  0.0000224 -0.0138098
 -1.2625000  0.0338000  0.5097225 -0.0000154 -0.0198718
 -1.2500000  0.0338000  0.5161777 -0.0000142 -0.0198752
 -1.2500000  0.0450000  0.4661577  0.0000291 -0.0254267
 -1.2625000  0.0450000  0.4603280  0.0000265 -0.0254225
 -1.2375000  0.0338000  0.5226340 -0.0000127 -0.0198795
 -1.2375000  0.0225000  0.5731470  0.0000236 -0.0138128
 -1.2250000  0.0225000  0.5802288  0.0000249 -0.0138167
 -1.2250000  0.0338000  0.5290920 -0.0000107 -0.0198851
 -1.2250000  0.0450000  0.4778202  0.0000361 -0.0254392
 -1.2375000  0.0450000  0.4719883  0.0000323 -0.0254322
 -1.2375000  0.0113000  0.6237869 -0.0000187 -0.0071315
 -1.2250000  0.0113000  0.6314932 -0.0000186 -0.0071335
 -1.2375000  0.0000000  0.6580712  0.0022580 -0.0035531
 -1.2250000  0.0000000  0.6662000  0.0022859 -0.0035541
 -1.2125000  0.0113000  0.6392020 -0.0000184 -0.0071361
 -1.2125000  0.0225000  0.5873128  0.0000265 -0.0138217
 -1.2125000  0.0000000  0.6743313  0.0023139 -0.0035553
 -1.2000000  0.0000000  0.6824659  0.0023419 -0.0035570
 -1.2000000  0.0113000  0.6469141 -0.0000181 -0.0071394
 -1.2000000  0.0225000  0.5943998  0.0000283 -0.0138281
 -1.2125000  0.0338000  0.5355519 -0.0000084 -0.0198923
 -1.2000000  0.0338000  0.5420142 -0.0000055 -0.0199013
 -1.2000000  0.0450000  0.4894887  0.0000461 -0.0254592
 -1.2125000  0.0450000  0.4836535  0.0000407 -0.0254481
 -1.1875000  0.0338000  0.5484794 -0.0000020 -0.0199126
 -1.1875000  0.0225000  0.6014903  0.0000304 -0.0138361
 -1.1750000  0.0225000  0.6085853  0.0000329 -0.0138461
 -1.1750000  0.0338000  0.5549482  0.0000022 -0.0199264
 -1.1750000  0.0450000  0.5011658  0.0000599 -0.0254898
 -1.1875000  0.0450000  0.4953259  0.0000525 -0.0254729
 -1.1875000  0.0113000  0.6546302 -0.0000176 -0.0071436
 -1.1750000  0.0113000  0.6623514 -0.0000171 -0.0071488
 -1.1875000  0.0000000  0.6906048  0.0023699 -0.0035590
 -1.1750000  0.0000000  0.6987490  0.0023980 -0.0035616
 -1.1625000  0.0113000  0.6700788 -0.0000164 -0.0071552
 -1.1625000  0.0225000  0.6156856  0.0000358 -0.0138582
 -1.1625000  0.0000000  0.7068998  0.0024262 -0.0035649
 -1.1500000  0.0000000  0.7150589  0.0024545 -0.0035688
 -1.1500000  0.0113000  0.6778137 -0.0000155 -0.0071629
 -1.1500000  0.0225000  0.6227923  0.0000390 -0.0138729
 -1.1625000  0.0338000  0.5614212  0.0000071 -0.0199432
 -1.1500000  0.0338000  0.5678993  0.0000127 -0.0199635
 -1.1500000  0.0450000  0.5128550  0.0000782 -0.0255346
 -1.1625000  0.0450000  0.5070086  0.0000684 -0.0255101
 -1.1375000  0.0338000  0.5743833  0.0000191 -0.0199876
 -1.1375000  0.0225000  0.6299066  0.0000427 -0.0138905
 -1.1250000  0.0225000  0.6370299  0.0000468 -0.0139114
 -1.1250000  0.0338000  0.5808743  0.0000263 -0.0200162
 -1.1250000  0.0450000  0.5245608  0.0001014 -0.0255979
 -1.1375000  0.0450000  0.5187056  0.0000892 -0.0255637
 -1.1375000  0.0113000  0.6855577 -0.0000145 -0.0071723
 -1.1250000  0.0113000  0.6933126 -0.0000134 -0.0071835
 -1.1375000  0.0000000  0.7232278  0.0024829 -0.0035736
 -1.1250000  0.0000000  0.7314088  0.0025114 -0.0035793
 -1.1125000  0.0113000  0.7010803 -0.0000120 -0.0071968
 -1.1125000  0.0225000  0.6441637  0.0000513 -0.0139360
 -1.1125000  0.0000000  0.7396040  0.0025400 -0.0035860
 -1.1000000  0.0000000  0.7478160  0.0025688 -0.0035940
 -1.1000000  0.0113000  0.7088630 -0.0000106 -0.0072122
 -1.1000000  0.0225000  0.6513095  0.0000562 -0.0139646
 -1.1125000  0.0338000  0.5873731  0.0000343 -0.0200497
 -1.1000000  0.0338000  0.5938810  0.0000430 -0.0200883
 -1.1000000  0.0450000  0.5362880  0.0001293 -0.0256836
 -1.1125000  0.0450000  0.5304214  0.0001149 -0.0256377
 -1.0875000  0.0338000  0.6003992  0.0000522 -0.0201326
 -1.0875000  0.0225000  0.6584691  0.0000614 -0.0139974
 -1.0750000  0.0225000  0.6656443  0.0000668 -0.0140347
 -1.0750000  0.0338000  0.6069286  0.0000617 -0.0201826
 -1.0750000  0.0450000  0.5480419  0.0001601 -0.0257947
 -1.0875000  0.0450000  0.5421613  0.0001446 -0.0257359
 -1.0875000  0.0113000  0.7166630 -0.0000090 -0.0072301
 -1.0750000  0.0113000  0.7244828 -0.0000073 -0.0072505
 -1.0875000  0.0000000  0.7560477  0.0025978 -0.0036032
 -1.0750000  0.0000000  0.7643020  0.0026271 -0.0036138
 -1.0625000  0.0113000  0.7323249 -0.0000056 -0.0072735
 -1.0625000  0.0225000  0.6728367  0.0000722 -0.0140766
 -1.0625000  0.0000000  0.7725822  0.0026565 -0.0036258
 -1.0500000  0.0000000  0.7808913  0.0026863 -0.0036392
 -1.0500000  0.0113000  0.7401919 -0.0000040 -0.0072991
 -1.0500000  0.0225000  0.6800479  0.0000773 -0.0141227
 -1.0625000  0.0338000  0.6134705  0.0000711 -0.0202383
 -1.0500000  0.0338000  0.6200256  0.0000798 -0.0202993
 -1.0500000  0.0450000  0.5598273  0.0001894 -0.0259310
 -1.0625000  0.0450000  0.5539305  0.0001754 -0.0258599
 -1.0375000  0.0338000  0.6265948  0.0000873 -0.0203650
 -1.0375000  0.0225000  0.6872793  0.0000818 -0.0141727
 -1.0250000  0.0225000  0.6945318  0.0000853 -0.0142257
 -1.0250000  0.0338000  0.6331783  0.0000924 -0.0204341
 -1.0250000  0.0450000  0.5716465  0.0002091 -0.0260863
 -1.0375000  0.0450000  0.5657326  0.0002012 -0.0260070
 -1.0375000  0.0113000  0.7480859 -0.0000026 -0.0073269
 -1.0250000  0.0113000  0.7560089 -0.0000016 -0.0073568
 -1.0375000  0.0000000  0.7892326  0.0027163 -0.0036539
 -1.0250000  0.0000000  0.7976088  0.0027466 -0.0036698
 -1.0125000  0.0113000  0.7639624 -0.0000011 -0.0073879
 -1.0125000  0.0225000  0.7018058  0.0000871 -0.0142804
 -1.0125000  0.0000000  0.8060221  0.0027772 -0.0036864
 -1.0000000  0.0000000  0.8144740  0.0028081 -0.0037035
 -1.0000000  0.0113000  0.7719466 -0.0000014 -0.0074193
 -1.0000000  0.0225000  0.7091009  0.0000865 -0.0143350
 -1.0125000  0.0338000  0.6397758  0.0000942 -0.0205046
 -1.0000000  0.0338000  0.6463865  0.0000913 -0.0205738
 -1.0000000  0.0450000  0.5834973  0.0002056 -0.0262442
 -1.0125000  0.0450000  0.5775684  0.0002113 -0.0261665
 -0.9875000  0.0338000  0.6530085  0.0000819 -0.0206381
 -0.9875000  0.0225000  0.7164152  0.0000828 -0.0143867
 -0.9750000  0.0225000  0.7237457  0.0000749 -0.0144321
 -0.9750000  0.0338000  0.6596386  0.0000642 -0.0206926
 -0.9750000  0.0450000  0.5953685  0.0001589 -0.0263726
 -0.9875000  0.0450000  0.5894316  0.0001891 -0.0263149
 -0.9875000  0.0113000  0.7799608 -0.0000029 -0.0074497
 -0.9750000  0.0113000  0.7880024 -0.0000059 -0.0074772
 -0.9875000  0.0000000  0.8229644  0.0028392 -0.0037202
 -0.9750000  0.0000000  0.8314917  0.0028704 -0.0037357
 -0.9625000  0.0113000  0.7960667 -0.0000107 -0.0074996
 -0.9625000  0.0225000  0.7310872  0.0000619 -0.0144669
 -0.9625000  0.0000000  0.8400516  0.0029018 -0.0037488
 -0.9500000  0.0000000  0.8486373  0.0029333 -0.0037581
 -0.9500000  0.0113000  0.8041460 -0.0000177 -0.0075141
 -0.9500000  0.0225000  0.7384324  0.0000425 -0.0144857
 -0.9625000  0.0338000  0.6662720  0.0000360 -0.0207312
 -0.9500000  0.0338000  0.6729021 -0.0000048 -0.0207463
 -0.9500000  0.0450000  0.6072338  0.0000429 -0.0264174
 -0.9625000  0.0450000  0.6013044  0.0001114 -0.0264098
 -0.9375000  0.0338000  0.6795199 -0.0000604 -0.0207291
 -0.9375000  0.0225000  0.7457708  0.0000157 -0.0144821
 -0.9250000  0.0225000  0.7530886 -0.0000196 -0.0144489
 -0.9250000  0.0338000  0.6861135 -0.0001329 -0.0206690
 -0.9250000  0.0450000  0.6190427 -0.0001710 -0.0262976
 -0.9375000  0.0450000  0.6131497 -0.0000501 -0.0263841
 -0.9375000  0.0113000  0.8122297 -0.0000274 -0.0075172
 -0.9250000  0.0113000  0.8203035 -0.0000406 -0.0075051
 -0.9375000  0.0000000  0.8572380  0.0029646 -0.0037620
 -0.9250000  0.0000000  0.8658387  0.0029952 -0.0037580
 -0.9125000  0.0113000  0.8283479 -0.0000577 -0.0074721
 -0.9125000  0.0225000  0.7603713 -0.0000662 -0.0143782
 -0.9125000  0.0000000  0.8744181  0.0030262 -0.0037441
 -0.9000000  0.0000000  0.8829562  0.0030599 -0.0037200
 -0.9000000  0.0113000  0.8363340 -0.0000728 -0.0074148
 -0.9000000  0.0225000  0.7675932 -0.0001222 -0.0142512
 -0.9125000  0.0338000  0.6926656 -0.0002238 -0.0205574
 -0.9000000  0.0338000  0.6991091 -0.0003347 -0.0203745
 -0.9000000  0.0450000  0.6306170 -0.0005331 -0.0258992
 -0.9125000  0.0450000  0.6249013 -0.0003203 -0.0261421
 -0.8875000  0.0338000  0.7053876 -0.0004473 -0.0201247
 -0.8875000  0.0225000  0.7746351 -0.0001896 -0.0140693
 -0.8750000  0.0226000  0.7815562 -0.0003001 -0.0138417
 -0.8750000  0.0338000  0.7114660 -0.0005865 -0.0197889
 -0.8750000  0.0451000  0.6417244 -0.0010327 -0.0251245
 -0.8875000  0.0451000  0.6362601 -0.0007732 -0.0255675
 -0.8875000  0.0113000  0.8441835 -0.0000906 -0.0073321
 -0.8750000  0.0113000  0.8518898 -0.0001118 -0.0072229
 -0.8875000  0.0000000  0.8914122  0.0030763 -0.0036754
 -0.8750000  0.0000000  0.8997467  0.0031179 -0.0036100
 -0.8625000  0.0113000  0.8594539 -0.0001340 -0.0070656
 -0.8625000  0.0226000  0.7882535 -0.0003955 -0.0135338
 -0.8625000  0.0000000  0.9079162  0.0031379 -0.0035348
 -0.8500000  0.0000000  0.9158836  0.0031651 -0.0034298
 -0.8500000  0.0113000  0.8668712 -0.0001712 -0.0068546
 -0.8500000  0.0226000  0.7948608 -0.0004836 -0.0131304
 -0.8625000  0.0339000  0.7175275 -0.0008060 -0.0193353
 -0.8500000  0.0339000  0.7231927 -0.0009934 -0.0187582
 -0.8501000  0.0452000  0.6518278 -0.0015992 -0.0238500
 -0.8625000  0.0451000  0.6469557 -0.0013032 -0.0245388
 -0.8376000  0.0340000  0.7286195 -0.0011752 -0.0180978
 -0.8375000  0.0226000  0.8011346 -0.0005631 -0.0125950
 -0.8250000  0.0227000  0.8069245 -0.0006995 -0.0120316
 -0.8251000  0.0340000  0.7336270 -0.0013819 -0.0173356
 -0.8251000  0.0454000  0.6610379 -0.0023542 -0.0219108
 -0.8376000  0.0453000  0.6565569 -0.0019733 -0.0229863
 -0.8375000  0.0113000  0.8739815 -0.0001768 -0.0066016
 -0.8250000  0.0113000  0.8806069 -0.0002203 -0.0063048
 -0.8375000  0.0000000  0.9235821  0.0031903 -0.0033053
 -0.8250000  0.0000000  0.9308939  0.0032404 -0.0031448
 -0.8125000  0.0114000  0.8869186 -0.0002818 -0.0059702
 -0.8125000  0.0228000  0.8124224 -0.0008109 -0.0113729
 -0.8125000  0.0000000  0.9378028  0.0032471 -0.0029862
 -0.8000000  0.0000000  0.9442606  0.0032549 -0.0027826
 -0.8000000  0.0114000  0.8927910 -0.0003266 -0.0055675
 -0.8000000  0.0228000  0.8174561 -0.0009119 -0.0106175
 -0.8126000  0.0341000  0.7384242 -0.0015715 -0.0163902
 -0.8001000  0.0342000  0.7428155 -0.0017984 -0.0153141
 -0.8001000  0.0456000  0.6687785 -0.0029983 -0.0193855
 -0.8126000  0.0455000  0.6650902 -0.0026651 -0.0207283
 -0.7876000  0.0343000  0.7468961 -0.0019698 -0.0141399
 -0.7875000  0.0229000  0.8223010 -0.0009896 -0.0097816
 -0.7750000  0.0229000  0.8266073 -0.0010209 -0.0088766
 -0.7751000  0.0344000  0.7507167 -0.0021176 -0.0128161
 -0.7751000  0.0458000  0.6752441 -0.0034534 -0.0162847
 -0.7876000  0.0457000  0.6721478 -0.0032386 -0.0179080
 -0.7875000  0.0114000  0.8983479 -0.0003206 -0.0051176
 -0.7750000  0.0114000  0.9033359 -0.0003404 -0.0046345
 -0.7875000  0.0000000  0.9502975  0.0033061 -0.0025461
 -0.7750000  0.0000000  0.9557283  0.0033420 -0.0023071
 -0.7625000  0.0115000  0.9079248 -0.0003997 -0.0041376
 -0.7625000  0.0000000  0.9605903  0.0033357 -0.0020680
 -0.7500000  0.0000000  0.9648699  0.0033566 -0.0018077
 -0.7500000  0.0115000  0.9119367 -0.0004278 -0.0036256
 -0.7500000  0.0229000  0.8344296 -0.0010472 -0.0070133
 -0.7625000  0.0229000  0.8306760 -0.0010133 -0.0079827
 -0.7625000  0.0344000  0.7542515 -0.0021075 -0.0114650
 -0.7500000  0.0344000  0.7575484 -0.0021183 -0.0100998
 -0.7500000  0.0459000  0.6810080 -0.0035529 -0.0129164
 -0.7626000  0.0459000  0.6782050 -0.0035158 -0.0146570
 -0.7375000  0.0344000  0.7606792 -0.0021107 -0.0087282
 -0.7374000  0.0459000  0.6840070 -0.0035167 -0.0111641
 -0.7375000  0.0229000  0.8377361 -0.0010124 -0.0060422
 -0.7250000  0.0229000  0.8407141 -0.0010261 -0.0051304
 -0.7249000  0.0344000  0.7635749 -0.0021229 -0.0073646
 -0.7249000  0.0458000  0.6868432 -0.0034500 -0.0095038
 -0.7375000  0.0115000  0.9156136 -0.0004022 -0.0031150
 -0.7375000  0.0000000  0.9687037  0.0033543 -0.0015432
 -0.7250000  0.0000000  0.9719651  0.0033872 -0.0012778
 -0.7250000  0.0114000  0.9187153 -0.0003443 -0.0026072
 -0.7124000  0.0343000  0.7662060 -0.0019757 -0.0060063
 -0.7124000  0.0457000  0.6895574 -0.0032575 -0.0078303
 -0.7125000  0.0229000  0.8434711 -0.0010057 -0.0042001
 -0.7000000  0.0228000  0.8458004 -0.0009004 -0.0032856
 -0.6999000  0.0342000  0.7686861 -0.0018181 -0.0047773
 -0.6999000  0.0456000  0.6920059 -0.0029977 -0.0062788
 -0.7125000  0.0114000  0.9214199 -0.0003277 -0.0021173
 -0.7125000  0.0000000  0.9746612  0.0033885 -0.0010305
 -0.7000000  0.0000000  0.9767490  0.0033816 -0.0008041
 -0.7000000  0.0114000  0.9235664 -0.0003107 -0.0016565
 -0.6874000  0.0341000  0.7707046 -0.0015880 -0.0037177
 -0.6874000  0.0227000  0.8477916 -0.0007809 -0.0025296
 -0.6750000  0.0227000  0.8494393 -0.0006821 -0.0018024
 -0.6749000  0.0340000  0.7722998 -0.0013569 -0.0026789
 -0.6749000  0.0454000  0.6959323 -0.0023477 -0.0036552
 -0.6874000  0.0455000  0.6941468 -0.0026818 -0.0048820
 -0.6875000  0.0114000  0.9254714 -0.0003030 -0.0012912
 -0.6750000  0.0113000  0.9268995 -0.0002476 -0.0008718
 -0.6875000  0.0000000  0.9784052  0.0033602 -0.0005941
 -0.6750000  0.0000000  0.9796231  0.0034111 -0.0004049
 -0.6625000  0.0113000  0.9278677 -0.0001817 -0.0005640
 -0.6625000  0.0226000  0.8506233 -0.0005748 -0.0012572
 -0.6625000  0.0000000  0.9804471  0.0033844 -0.0002503
 -0.6500000  0.0000000  0.9808792  0.0033867 -0.0001226
 -0.6500000  0.0113000  0.9284651 -0.0001726 -0.0003036
 -0.6500000  0.0226000  0.8514371 -0.0004879 -0.0007055
 -0.6624000  0.0340000  0.7737378 -0.0011792 -0.0018798
 -0.6500000  0.0339000  0.7747038 -0.0009860 -0.0011809
 -0.6499000  0.0452000  0.6983919 -0.0016149 -0.0016027
 -0.6624000  0.0453000  0.6972916 -0.0019683 -0.0025490
 -0.6375000  0.0339000  0.7755536 -0.0008114 -0.0006369
 -0.6375000  0.0226000  0.8519050 -0.0004004 -0.0002974
 -0.6250000  0.0226000  0.8522960 -0.0003051  0.0000252
 -0.6250000  0.0338000  0.7760097 -0.0006018 -0.0001174
 -0.6250000  0.0451000  0.6999662 -0.0010329 -0.0002714
 -0.6374000  0.0451000  0.6993623 -0.0012976 -0.0009020
 -0.6375000  0.0113000  0.9287481 -0.0001347 -0.0000915
 -0.6250000  0.0113000  0.9288847 -0.0001153  0.0000711
 -0.6375000  0.0000000  0.9810359  0.0033880 -0.0000166
 -0.6250000  0.0000000  0.9809889  0.0033981  0.0000595
 -0.6125000  0.0113000  0.9288872 -0.0000957  0.0001966
 -0.6125000  0.0225000  0.8524623 -0.0001867  0.0002673
 -0.6125000  0.0000000  0.9807796  0.0033833  0.0001214
 -0.6000000  0.0000000  0.9804511  0.0033938  0.0001676
 -0.6000000  0.0113000  0.9287498 -0.0000763  0.0002862
 -0.6000000  0.0225000  0.8525037 -0.0001190  0.0004455
 -0.6125000  0.0338000  0.7763415 -0.0004451  0.0002320
 -0.6000000  0.0338000  0.7765261 -0.0003393  0.0005000
 -0.6000000  0.0450000  0.7005319 -0.0005325  0.0004842
 -0.6125000  0.0451000  0.7003361 -0.0007761  0.0001386
 -0.5875000  0.0338000  0.7765460 -0.0002275  0.0006895
 -0.5875000  0.0225000  0.8523589 -0.0000634  0.0005721
 -0.5750000  0.0225000  0.8521522 -0.0000163  0.0006432
 -0.5750000  0.0338000  0.7764453 -0.0001364  0.0008010
 -0.5750000  0.0450000  0.7006202 -0.0001675  0.0008814
 -0.5875000  0.0450000  0.7006520 -0.0003170  0.0007266
 -0.5875000  0.0113000  0.9284644 -0.0000611  0.0003435
 -0.5750000  0.0113000  0.9281212 -0.0000441  0.0003766
 -0.5875000  0.0000000  0.9800384  0.0033885  0.0001921
 -0.5750000  0.0000000  0.9795836  0.0033855  0.0002061
 -0.5625000  0.0113000  0.9277487 -0.0000311  0.0003888
 -0.5625000  0.0225000  0.8519102  0.0000194  0.0006764
 -0.5625000  0.0000000  0.9791075  0.0033828  0.0002101
 -0.5500000  0.0000000  0.9786314  0.0033793  0.0002063
 -0.5500000  0.0113000  0.9273662 -0.0000217  0.0003857
 -0.5500000  0.0225000  0.8516477  0.0000464  0.0006800
 -0.5625000  0.0338000  0.7763038 -0.0000641  0.0008611
 -0.5500000  0.0338000  0.7761381 -0.0000087  0.0008783
 -0.5500000  0.0450000  0.7004649  0.0000469  0.0010009
 -0.5625000  0.0450000  0.7005538 -0.0000464  0.0009677
 -0.5375000  0.0338000  0.7759602  0.0000318  0.0008632
 -0.5375000  0.0225000  0.8513784  0.0000661  0.0006612
 -0.5250000  0.0225000  0.8511127  0.0000794  0.0006264
 -0.5250000  0.0338000  0.7757789  0.0000597  0.0008246
 -0.5250000  0.0450000  0.7002533  0.0001633  0.0009561
 -0.5375000  0.0450000  0.7003623  0.0001156  0.0009933
 -0.5375000  0.0113000  0.9269881 -0.0000149  0.0003712
 -0.5250000  0.0113000  0.9266250 -0.0000103  0.0003488
 -0.5375000  0.0000000  0.9781703  0.0033758  0.0001969
 -0.5250000  0.0000000  0.9777349  0.0033723  0.0001838
 -0.5125000  0.0113000  0.9262846 -0.0000076  0.0003213
 -0.5125000  0.0225000  0.8508581  0.0000875  0.0005810
 -0.5125000  0.0000000  0.9773322  0.0033689  0.0001683
 -0.5000000  0.0000000  0.9769664  0.0033656  0.0001516
 -0.5000000  0.0113000  0.9259716 -0.0000064  0.0002909
 -0.5000000  0.0225000  0.8506197  0.0000915  0.0005293
 -0.5125000  0.0338000  0.7756011  0.0000772  0.0007701
 -0.5000000  0.0338000  0.7754313  0.0000863  0.0007058
 -0.5000000  0.0450000  0.7000359  0.0002105  0.0008277
 -0.5125000  0.0450000  0.7001432  0.0001938  0.0008984
 -0.4875000  0.0338000  0.7752728  0.0000891  0.0006365
 -0.4875000  0.0225000  0.8504006  0.0000922  0.0004748
 -0.4750000  0.0225000  0.8502024  0.0000907  0.0004200
 -0.4750000  0.0338000  0.7751274  0.0000870  0.0005660
 -0.4750000  0.0450000  0.6998388  0.0002145  0.0006697
 -0.4875000  0.0450000  0.6999338  0.0002165  0.0007499
 -0.4875000  0.0113000  0.9256886 -0.0000063  0.0002594
 -0.4750000  0.0113000  0.9254363 -0.0000070  0.0002283
 -0.4875000  0.0000000  0.9766391  0.0033627  0.0001346
 -0.4750000  0.0000000  0.9763503  0.0033599  0.0001179
 -0.4625000  0.0113000  0.9252145 -0.0000083  0.0001985
 -0.4625000  0.0225000  0.8500258  0.0000875  0.0003670
 -0.4625000  0.0000000  0.9760986  0.0033575  0.0001021
 -0.4500000  0.0000000  0.9758819  0.0033554  0.0000873
 -0.4500000  0.0113000  0.9250217 -0.0000099  0.0001706
 -0.4500000  0.0225000  0.8498703  0.0000832  0.0003170
 -0.4625000  0.0338000  0.7749961  0.0000816  0.0004970
 -0.4500000  0.0338000  0.7748792  0.0000739  0.0004313
 -0.4500000  0.0450000  0.6996734  0.0001954  0.0005144
 -0.4625000  0.0450000  0.6997519  0.0002068  0.0005904
 -0.4375000  0.0338000  0.7747762  0.0000649  0.0003702
 -0.4375000  0.0225000  0.8497350  0.0000783  0.0002709
 -0.4250000  0.0225000  0.8496185  0.0000732  0.0002290
 -0.4250000  0.0338000  0.7746866  0.0000553  0.0003145
 -0.4250000  0.0450000  0.6995419  0.0001665  0.0003781
 -0.4375000  0.0450000  0.6996035  0.0001815  0.0004433
 -0.4375000  0.0113000  0.9248560 -0.0000118  0.0001451
 -0.4250000  0.0113000  0.9247151 -0.0000137  0.0001221
 -0.4375000  0.0000000  0.9756974  0.0033535  0.0000740
 -0.4250000  0.0000000  0.9755418  0.0033519  0.0000620
 -0.4125000  0.0113000  0.9245965 -0.0000156  0.0001017
 -0.4125000  0.0225000  0.8495193  0.0000681  0.0001917
 -0.4125000  0.0000000  0.9754121  0.0033506  0.0000514
 -0.4000000  0.0000000  0.9753050  0.0033494  0.0000421
 -0.4000000  0.0113000  0.9244977 -0.0000175  0.0000838
 -0.4000000  0.0225000  0.8494356  0.0000631  0.0001589
 -0.4125000  0.0338000  0.7746094  0.0000456  0.0002645
 -0.4000000  0.0338000  0.7745435  0.0000361  0.0002203
 -0.4000000  0.0450000  0.6994418  0.0001363  0.0002670
 -0.4125000  0.0450000  0.6994882  0.0001512  0.0003193
 -0.3875000  0.0338000  0.7744877  0.0000272  0.0001816
 -0.3875000  0.0225000  0.8493657  0.0000585  0.0001303
 -0.3750000  0.0225000  0.8493078  0.0000542  0.0001057
 -0.3750000  0.0338000  0.7744411  0.0000189  0.0001481
 -0.3750000  0.0450000  0.6993684  0.0001088  0.0001813
 -0.3875000  0.0450000  0.6994021  0.0001220  0.0002211
 -0.3875000  0.0113000  0.9244162 -0.0000192  0.0000683
 -0.3750000  0.0113000  0.9243497 -0.0000208  0.0000551
 -0.3875000  0.0000000  0.9752175  0.0033485  0.0000342
 -0.3750000  0.0000000  0.9751469  0.0033477  0.0000274
 -0.3625000  0.0113000  0.9242961 -0.0000222  0.0000439
 -0.3625000  0.0225000  0.8492604  0.0000503  0.0000848
 -0.3625000  0.0000000  0.9750906  0.0033471  0.0000217
 -0.3500000  0.0000000  0.9750462  0.0033466  0.0000170
 -0.3500000  0.0113000  0.9242533 -0.0000234  0.0000345
 -0.3500000  0.0225000  0.8492220  0.0000469  0.0000672
 -0.3625000  0.0338000  0.7744024  0.0000115  0.0001196
 -0.3500000  0.0338000  0.7743706  0.0000048  0.0000954
 -0.3500000  0.0450000  0.6993165  0.0000860  0.0001180
 -0.3625000  0.0450000  0.6993401  0.0000968  0.0001471
 -0.3375000  0.0338000  0.7743447 -0.0000011  0.0000751
 -0.3375000  0.0225000  0.8491913  0.0000439  0.0000525
 -0.3250000  0.0225000  0.8491669  0.0000413  0.0000404
 -0.3250000  0.0338000  0.7743239 -0.0000062  0.0000583
 -0.3250000  0.0450000  0.6992811  0.0000682  0.0000731
 -0.3375000  0.0450000  0.6992970  0.0000765  0.0000935
 -0.3375000  0.0113000  0.9242196 -0.0000245  0.0000267
 -0.3250000  0.0113000  0.9241934 -0.0000255  0.0000204
 -0.3375000  0.0000000  0.9750118  0.0033462  0.0000130
 -0.3250000  0.0000000  0.9749855  0.0033459  0.0000098
 -0.3125000  0.0113000  0.9241735 -0.0000263  0.0000152
 -0.3125000  0.0225000  0.8491479  0.0000391  0.0000305
 -0.3125000  0.0000000  0.9749659  0.0033457  0.0000072
 -0.3000000  0.0000000  0.9749516  0.0033455  0.0000051
 -0.3000000  0.0113000  0.9241586 -0.0000269  0.0000110
 -0.3000000  0.0225000  0.8491333  0.0000372  0.0000224
 -0.3125000  0.0338000  0.7743074 -0.0000106  0.0000445
 -0.3000000  0.0338000  0.7742943 -0.0000144  0.0000332
 -0.3000000  0.0450000  0.6992578  0.0000550  0.0000426
 -0.3125000  0.0450000  0.6992682  0.0000611  0.0000563
 -0.2875000  0.0338000  0.7742843 -0.0000175  0.0000242
 -0.2875000  0.0225000  0.8491222  0.0000356  0.0000161
 -0.2750000  0.0225000  0.8491141  0.0000343  0.0000110
 -0.2750000  0.0338000  0.7742766 -0.0000201  0.0000170
 -0.2750000  0.0450000  0.6992432  0.0000455  0.0000226
 -0.2875000  0.0450000  0.6992496  0.0000498  0.0000315
 -0.2875000  0.0113000  0.9241478 -0.0000275  0.0000077
 -0.2750000  0.0113000  0.9241401 -0.0000280  0.0000051
 -0.2875000  0.0000000  0.9749416  0.0033454  0.0000035
 -0.2750000  0.0000000  0.9749349  0.0033453  0.0000022
 -0.2625000  0.0113000  0.9241351 -0.0000284  0.0000031
 -0.2625000  0.0225000  0.8491083  0.0000332  0.0000071
 -0.2625000  0.0000000  0.9749307  0.0033453  0.0000013
 -0.2500000  0.0000000  0.9749286  0.0033453  0.0000005
 -0.2500000  0.0113000  0.9241319 -0.0000287  0.0000016
 -0.2500000  0.0225000  0.8491043  0.0000323  0.0000041
 -0.2625000  0.0338000  0.7742709 -0.0000223  0.0000114
 -0.2500000  0.0338000  0.7742667 -0.0000241  0.0000071
 -0.2500000  0.0450000  0.6992345  0.0000390  0.0000101
 -0.2625000  0.0450000  0.6992382  0.0000419  0.0000156
 -0.2375000  0.0338000  0.7742638 -0.0000255  0.0000038
 -0.2375000  0.0225000  0.8491018  0.0000316  0.0000018
 -0.2250000  0.0225000  0.8491003  0.0000310  0.0000002
 -0.2250000  0.0338000  0.7742619 -0.0000267  0.0000013
 -0.2250000  0.0450000  0.6992297  0.0000347  0.0000028
 -0.2375000  0.0450000  0.6992317  0.0000366  0.0000059
 -0.2375000  0.0113000  0.9241302 -0.0000289  0.0000005
 -0.2250000  0.0113000  0.9241297 -0.0000291 -0.0000003
 -0.2375000  0.0000000  0.9749278  0.0033453  0.0000000
 -0.2250000  0.0000000  0.9749281  0.0033452 -0.0000004
 -0.2125000  0.0113000  0.9241299 -0.0000293 -0.0000009
 -0.2125000  0.0225000  0.8490996  0.0000305 -0.0000010
 -0.2125000  0.0000000  0.9749292  0.0033453 -0.0000006
 -0.2000000  0.0000000  0.9749307  0.0033453 -0.0000008
 -0.2000000  0.0113000  0.9241307 -0.0000294 -0.0000013
 -0.2000000  0.0225000  0.8490995  0.0000302 -0.0000018
 -0.2125000  0.0338000  0.7742607 -0.0000276 -0.0000004
 -0.2000000  0.0338000  0.7742601 -0.0000283 -0.0000017
 -0.2000000  0.0450000  0.6992274  0.0000320 -0.0000012
 -0.2125000  0.0450000  0.6992283  0.0000332  0.0000005
 -0.1875000  0.0338000  0.7742599 -0.0000288 -0.0000025
 -0.1875000  0.0225000  0.8490999  0.0000299 -0.0000023
 -0.1750000  0.0225000  0.8491005  0.0000297 -0.0000025
 -0.1750000  0.0338000  0.7742600 -0.0000292 -0.0000030
 -0.1750000  0.0450000  0.6992266  0.0000304 -0.0000030
 -0.1875000  0.0450000  0.6992269  0.0000311 -0.0000023
 -0.1875000  0.0113000  0.9241318 -0.0000295 -0.0000015
 -0.1750000  0.0113000  0.9241332 -0.0000296 -0.0000016
 -0.1875000  0.0000000  0.9749325  0.0033453 -0.0000009
 -0.1750000  0.0000000  0.9749344  0.0033453 -0.0000009
 -0.1625000  0.0113000  0.9241346 -0.0000296 -0.0000016
 -0.1625000  0.0225000  0.8491013  0.0000296 -0.0000026
 -0.1625000  0.0000000  0.9749363  0.0033453 -0.0000009
 -0.1500000  0.0000000  0.9749382  0.0033453 -0.0000009
 -0.1500000  0.0113000  0.9241361 -0.0000297 -0.0000015
 -0.1500000  0.0225000  0.8491022  0.0000295 -0.0000026
 -0.1625000  0.0338000  0.7742603 -0.0000295 -0.0000032
 -0.1500000  0.0338000  0.7742608 -0.0000298 -0.0000032
 -0.1500000  0.0450000  0.6992267  0.0000295 -0.0000035
 -0.1625000  0.0450000  0.6992266  0.0000298 -0.0000034
 -0.1375000  0.0338000  0.7742613 -0.0000299 -0.0000032
 -0.1375000  0.0225000  0.8491032  0.0000294 -0.0000025
 -0.1250000  0.0225000  0.8491041  0.0000294 -0.0000023
 -0.1250000  0.0338000  0.7742618 -0.0000300 -0.0000030
 -0.1250000  0.0450000  0.6992271  0.0000290 -0.0000034
 -0.1375000  0.0450000  0.6992268  0.0000292 -0.0000035
 -0.1375000  0.0113000  0.9241375 -0.0000297 -0.0000015
 -0.1250000  0.0113000  0.9241389 -0.0000297 -0.0000013
 -0.1375000  0.0000000  0.9749401  0.0033454 -0.0000008
 -0.1250000  0.0000000  0.9749417  0.0033454 -0.0000007
 -0.1125000  0.0113000  0.9241401 -0.0000297 -0.0000012
 -0.1125000  0.0225000  0.8491050  0.0000293 -0.0000021
 -0.1125000  0.0000000  0.9749433  0.0033454 -0.0000007
 -0.1000000  0.0000000  0.9749446  0.0033454 -0.0000006
 -0.1000000  0.0113000  0.9241413 -0.0000297 -0.0000011
 -0.1000000  0.0225000  0.8491058  0.0000293 -0.0000019
 -0.1125000  0.0338000  0.7742624 -0.0000301 -0.0000028
 -0.1000000  0.0338000  0.7742629 -0.0000301 -0.0000025
 -0.1000000  0.0450000  0.6992276  0.0000288 -0.0000028
 -0.1125000  0.0450000  0.6992273  0.0000289 -0.0000031
 -0.0875000  0.0338000  0.7742634 -0.0000301 -0.0000022
 -0.0875000  0.0225000  0.8491065  0.0000293 -0.0000017
 -0.0750000  0.0225000  0.8491072  0.0000293 -0.0000014
 -0.0750000  0.0338000  0.7742638 -0.0000301 -0.0000019
 -0.0750000  0.0450000  0.6992281  0.0000288 -0.0000022
 -0.0875000  0.0450000  0.6992279  0.0000288 -0.0000025
 -0.0875000  0.0113000  0.9241423 -0.0000297 -0.0000009
 -0.0750000  0.0113000  0.9241431 -0.0000297 -0.0000008
 -0.0875000  0.0000000  0.9749458  0.0033454 -0.0000005
 -0.0750000  0.0000000  0.9749468  0.0033454 -0.0000004
 -0.0625000  0.0113000  0.9241439 -0.0000297 -0.0000007
 -0.0625000  0.0225000  0.8491077  0.0000293 -0.0000012
 -0.0625000  0.0000000  0.9749477  0.0033454 -0.0000003
 -0.0500000  0.0000000  0.9749483  0.0033455 -0.0000003
 -0.0500000  0.0113000  0.9241444 -0.0000297 -0.0000005
 -0.0500000  0.0225000  0.8491082  0.0000293 -0.0000009
 -0.0625000  0.0338000  0.7742642 -0.0000301 -0.0000015
 -0.0500000  0.0338000  0.7742645 -0.0000301 -0.0000012
 -0.0500000  0.0450000  0.6992285  0.0000288 -0.0000014
 -0.0625000  0.0450000  0.6992283  0.0000288 -0.0000018
 -0.0375000  0.0338000  0.7742648 -0.0000301 -0.0000009
 -0.0375000  0.0225000  0.8491085  0.0000293 -0.0000007
 -0.0250000  0.0225000  0.8491088  0.0000293 -0.0000005
 -0.0250000  0.0338000  0.7742649 -0.0000301 -0.0000006
 -0.0250000  0.0450000  0.6992288  0.0000288 -0.0000007
 -0.0375000  0.0450000  0.6992287  0.0000288 -0.0000011
 -0.0375000  0.0113000  0.9241449 -0.0000297 -0.0000004
 -0.0250000  0.0113000  0.9241452 -0.0000297 -0.0000003
 -0.0375000  0.0000000  0.9749489  0.0033455 -0.0000002
 -0.0250000  0.0000000  0.9749492  0.0033455 -0.0000001
 -0.0125000  0.0113000  0.9241454 -0.0000297 -0.0000001
 -0.0125000  0.0225000  0.8491089  0.0000294 -0.0000002
 -0.0125000  0.0000000  0.9749494  0.0033455 -0.0000001
  0.0000000  0.0000000  0.9749495  0.0033455 -0.0000000
  0.0000000  0.0113000  0.9241455 -0.0000297 -0.0000000
  0.0000000  0.0225000  0.8491090  0.0000294 -0.0000000
 -0.0125000  0.0338000  0.7742650 -0.0000301 -0.0000003
  0.0000000  0.0338000  0.7742651 -0.0000301 -0.0000000
  0.0000000  0.0450000  0.6992289  0.0000288 -0.0000000
 -0.0125000  0.0450000  0.6992288  0.0000288 -0.0000004
  0.0125000  0.0338000  0.7742650 -0.0000301  0.0000003
  0.0125000  0.0225000  0.8491089  0.0000294  0.0000002
  0.0250000  0.0225000  0.8491088  0.0000293  0.0000005
  0.0250000  0.0338000  0.7742649 -0.0000301  0.0000006
  0.0250000  0.0450000  0.6992288  0.0000288  0.0000007
  0.0125000  0.0450000  0.6992288  0.0000288  0.0000004
  0.0125000  0.0113000  0.9241454 -0.0000297  0.0000001
  0.0250000  0.0113000  0.9241452 -0.0000297  0.0000003
  0.0125000  0.0000000  0.9749494  0.0033455  0.0000001
  0.0250000  0.0000000  0.9749492  0.0033455  0.0000001
  0.0375000  0.0113000  0.9241449 -0.0000297  0.0000004
  0.0375000  0.0225000  0.8491085  0.0000293  0.0000007
  0.0375000  0.0000000  0.9749489  0.0033455  0.0000002
  0.0500000  0.0000000  0.9749483  0.0033455  0.0000003
  0.0500000  0.0113000  0.9241444 -0.0000297  0.0000005
  0.0500000  0.0225000  0.8491082  0.0000293  0.0000009
  0.0375000  0.0338000  0.7742648 -0.0000301  0.0000009
  0.0500000  0.0338000  0.7742645 -0.0000301  0.0000012
  0.0500000  0.0450000  0.6992285  0.0000288  0.0000014
  0.0375000  0.0450000  0.6992287  0.0000288  0.0000011
  0.0625000  0.0338000  0.7742642 -0.0000301  0.0000015
  0.0625000  0.0225000  0.8491077  0.0000293  0.0000012
  0.0750000  0.0225000  0.8491072  0.0000293  0.0000014
  0.0750000  0.0338000  0.7742638 -0.0000301  0.0000019
  0.0750000  0.0450000  0.6992281  0.0000288  0.0000022
  0.0625000  0.0450000  0.6992283  0.0000288  0.0000018
  0.0625000  0.0113000  0.9241439 -0.0000297  0.0000007
  0.0750000  0.0113000  0.9241431 -0.0000297  0.0000008
  0.0625000  0.0000000  0.9749477  0.0033454  0.0000003
  0.0750000  0.0000000  0.9749468  0.0033454  0.0000004
  0.0875000  0.0113000  0.9241423 -0.0000297  0.0000009
  0.0875000  0.0225000  0.8491065  0.0000293  0.0000017
  0.0875000  0.0000000  0.9749458  0.0033454  0.0000005
  0.1000000  0.0000000  0.9749446  0.0033454  0.0000006
  0.1000000  0.0113000  0.9241413 -0.0000297  0.0000011
  0.1000000  0.0225000  0.8491058  0.0000293  0.0000019
  0.0875000  0.0338000  0.7742634 -0.0000301  0.0000022
  0.1000000  0.0338000  0.7742629 -0.0000301  0.0000025
  0.1000000  0.0450000  0.6992276  0.0000288  0.0000028
  0.0875000  0.0450000  0.6992279  0.0000288  0.0000025
  0.1125000  0.0338000  0.7742624 -0.0000301  0.0000028
  0.1125000  0.0225000  0.8491050  0.0000293  0.0000021
  0.1250000  0.0225000  0.8491041  0.0000294  0.0000023
  0.1250000  0.0338000  0.7742618 -0.0000300  0.0000030
  0.1250000  0.0450000  0.6992271  0.0000290  0.0000034
  0.1125000  0.0450000  0.6992273  0.0000289  0.0000031
  0.1125000  0.0113000  0.9241401 -0.0000297  0.0000012
  0.1250000  0.0113000  0.9241389 -0.0000297  0.0000013
  0.1125000  0.0000000  0.9749433  0.0033454  0.0000007
  0.1250000  0.0000000  0.9749417  0.0033454  0.0000007
  0.1375000  0.0113000  0.9241375 -0.0000297  0.0000015
  0.1375000  0.0225000  0.8491032  0.0000294  0.0000025
  0.1375000  0.0000000  0.9749401  0.0033454  0.0000008
  0.1500000  0.0000000  0.9749382  0.0033453  0.0000009
  0.1500000  0.0113000  0.9241361 -0.0000297  0.0000015
  0.1500000  0.0225000  0.8491022  0.0000295  0.0000026
  0.1375000  0.0338000  0.7742613 -0.0000299  0.0000032
  0.1500000  0.0338000  0.7742608 -0.0000298  0.0000032
  0.1500000  0.0450000  0.6992267  0.0000295  0.0000035
  0.1375000  0.0450000  0.6992268  0.0000292  0.0000035
  0.1625000  0.0338000  0.7742603 -0.0000295  0.0000032
  0.1625000  0.0225000  0.8491013  0.0000296  0.0000026
  0.1750000  0.0225000  0.8491005  0.0000297  0.0000025
  0.1750000  0.0338000  0.7742600 -0.0000292  0.0000030
  0.1750000  0.0450000  0.6992266  0.0000304  0.0000030
  0.1625000  0.0450000  0.6992266  0.0000298  0.0000034
  0.1625000  0.0113000  0.9241346 -0.0000296  0.0000016
  0.1750000  0.0113000  0.9241332 -0.0000296  0.0000016
  0.1625000  0.0000000  0.9749363  0.0033453  0.0000009
  0.1750000  0.0000000  0.9749344  0.0033453  0.0000009
  0.1875000  0.0113000  0.9241318 -0.0000295  0.0000015
  0.1875000  0.0225000  0.8490999  0.0000299  0.0000023
  0.1875000  0.0000000  0.9749325  0.0033453  0.0000009
  0.2000000  0.0000000  0.9749307  0.0033453  0.0000008
  0.2000000  0.0113000  0.9241307 -0.0000294  0.0000013
  0.2000000  0.0225000  0.8490995  0.0000302  0.0000018
  0.1875000  0.0338000  0.7742599 -0.0000288  0.0000025
  0.2000000  0.0338000  0.7742601 -0.0000283  0.0000017
  0.2000000  0.0450000  0.6992274  0.0000320  0.0000012
  0.1875000  0.0450000  0.6992269  0.0000311  0.0000023
  0.2125000  0.0338000  0.7742607 -0.0000276  0.0000004
  0.2125000  0.0225000  0.8490996  0.0000305  0.0000010
  0.2250000  0.0225000  0.8491003  0.0000310 -0.0000002
  0.2250000  0.0338000  0.7742619 -0.0000267 -0.0000013
  0.2250000  0.0450000  0.6992297  0.0000347 -0.0000028
  0.2125000  0.0450000  0.6992283  0.0000332 -0.0000005
  0.2125000  0.0113000  0.9241299 -0.0000293  0.0000009
  0.2250000  0.0113000  0.9241297 -0.0000291  0.0000003
  0.2125000  0.0000000  0.9749292  0.0033453  0.0000006
  0.2250000  0.0000000  0.9749281  0.0033452  0.0000004
  0.2375000  0.0113000  0.9241302 -0.0000289 -0.0000005
  0.2375000  0.0225000  0.8491018  0.0000316 -0.0000018
  0.2375000  0.0000000  0.9749278  0.0033453 -0.0000000
  0.2500000  0.0000000  0.9749286  0.0033453 -0.0000005
  0.2500000  0.0113000  0.9241319 -0.0000287 -0.0000016
  0.2500000  0.0225000  0.8491043  0.0000323 -0.0000041
  0.2375000  0.0338000  0.7742638 -0.0000255 -0.0000038
  0.2500000  0.0338000  0.7742667 -0.0000241 -0.0000071
  0.2500000  0.0450000  0.6992345  0.0000390 -0.0000101
  0.2375000  0.0450000  0.6992317  0.0000366 -0.0000059
  0.2625000  0.0338000  0.7742709 -0.0000223 -0.0000114
  0.2625000  0.0225000  0.8491083  0.0000332 -0.0000071
  0.2750000  0.0225000  0.8491141  0.0000343 -0.0000110
  0.2750000  0.0338000  0.7742766 -0.0000201 -0.0000170
  0.2750000  0.0450000  0.6992432  0.0000455 -0.0000226
  0.2625000  0.0450000  0.6992382  0.0000419 -0.0000156
  0.2625000  0.0113000  0.9241351 -0.0000284 -0.0000031
  0.2750000  0.0113000  0.9241401 -0.0000280 -0.0000051
  0.2625000  0.0000000  0.9749307  0.0033453 -0.0000013
  0.2750000  0.0000000  0.9749349  0.0033453 -0.0000022
  0.2875000  0.0113000  0.9241478 -0.0000275 -0.0000077
  0.2875000  0.0225000  0.8491222  0.0000356 -0.0000161
  0.2875000  0.0000000  0.9749416  0.0033454 -0.0000035
  0.3000000  0.0000000  0.9749516  0.0033455 -0.0000051
  0.3000000  0.0113000  0.9241586 -0.0000269 -0.0000110
  0.3000000  0.0225000  0.8491333  0.0000372 -0.0000224
  0.2875000  0.0338000  0.7742843 -0.0000175 -0.0000242
  0.3000000  0.0338000  0.7742943 -0.0000144 -0.0000332
  0.3000000  0.0450000  0.6992578  0.0000550 -0.0000426
  0.2875000  0.0450000  0.6992496  0.0000498 -0.0000315
  0.3125000  0.0338000  0.7743074 -0.0000106 -0.0000445
  0.3125000  0.0225000  0.8491479  0.0000391 -0.0000305
  0.3250000  0.0225000  0.8491669  0.0000413 -0.0000404
  0.3250000  0.0338000  0.7743239 -0.0000062 -0.0000583
  0.3250000  0.0450000  0.6992811  0.0000682 -0.0000731
  0.3125000  0.0450000  0.6992682  0.0000611 -0.0000563
  0.3125000  0.0113000  0.9241735 -0.0000263 -0.0000152
  0.3250000  0.0113000  0.9241934 -0.0000255 -0.0000204
  0.3125000  0.0000000  0.9749659  0.0033457 -0.0000072
  0.3250000  0.0000000  0.9749855  0.0033459 -0.0000098
  0.3375000  0.0113000  0.9242196 -0.0000245 -0.0000267
  0.3375000  0.0225000  0.8491913  0.0000439 -0.0000525
  0.3375000  0.0000000  0.9750118  0.0033462 -0.0000130
  0.3500000  0.0000000  0.9750462  0.0033466 -0.0000170
  0.3500000  0.0113000  0.9242533 -0.0000234 -0.0000345
  0.3500000  0.0225000  0.8492220  0.0000469 -0.0000672
  0.3375000  0.0338000  0.7743447 -0.0000011 -0.0000751
  0.3500000  0.0338000  0.7743706  0.0000048 -0.0000954
  0.3500000  0.0450000  0.6993165  0.0000860 -0.0001180
  0.3375000  0.0450000  0.6992970  0.0000765 -0.0000935
  0.3625000  0.0338000  0.7744024  0.0000115 -0.0001196
  0.3625000  0.0225000  0.8492604  0.0000503 -0.0000848
  0.3750000  0.0225000  0.8493078  0.0000542 -0.0001057
  0.3750000  0.0338000  0.7744411  0.0000189 -0.0001481
  0.3750000  0.0450000  0.6993684  0.0001088 -0.0001813
  0.3625000  0.0450000  0.6993401  0.0000968 -0.0001471
  0.3625000  0.0113000  0.9242961 -0.0000222 -0.0000439
  0.3750000  0.0113000  0.9243497 -0.0000208 -0.0000551
  0.3625000  0.0000000  0.9750906  0.0033471 -0.0000217
  0.3750000  0.0000000  0.9751469  0.0033477 -0.0000274
  0.3875000  0.0113000  0.9244162 -0.0000192 -0.0000683
  0.3875000  0.0225000  0.8493657  0.0000585 -0.0001303
  0.3875000  0.0000000  0.9752175  0.0033485 -0.0000342
  0.4000000  0.0000000  0.9753050  0.0033494 -0.0000421
  0.4000000  0.0113000  0.9244977 -0.0000175 -0.0000838
  0.4000000  0.0225000  0.8494356  0.0000631 -0.0001589
  0.3875000  0.0338000  0.7744877  0.0000272 -0.0001816
  0.4000000  0.0338000  0.7745434  0.0000361 -0.0002202
  0.4000000  0.0450000  0.6994418  0.0001363 -0.0002670
  0.3875000  0.0450000  0.6994021  0.0001220 -0.0002211
  0.4125000  0.0338000  0.7746094  0.0000456 -0.0002645
  0.4125000  0.0225000  0.8495193  0.0000681 -0.0001917
  0.4250000  0.0225000  0.8496185  0.0000732 -0.0002290
  0.4250000  0.0338000  0.7746866  0.0000553 -0.0003145
  0.4250000  0.0450000  0.6995419  0.0001665 -0.0003781
  0.4125000  0.0450000  0.6994882  0.0001512 -0.0003193
  0.4125000  0.0113000  0.9245965 -0.0000156 -0.0001017
  0.4250000  0.0113000  0.9247150 -0.0000137 -0.0001221
  0.4125000  0.0000000  0.9754121  0.0033506 -0.0000514
  0.4250000  0.0000000  0.9755418  0.0033519 -0.0000620
  0.4375000  0.0113000  0.9248559 -0.0000118 -0.0001451
  0.4375000  0.0225000  0.8497350  0.0000783 -0.0002709
  0.4375000  0.0000000  0.9756973  0.0033535 -0.0000740
  0.4500000  0.0000000  0.9758819  0.0033554 -0.0000873
  0.4500000  0.0113000  0.9250216 -0.0000099 -0.0001706
  0.4500000  0.0225000  0.8498703  0.0000832 -0.0003170
  0.4375000  0.0338000  0.7747762  0.0000649 -0.0003702
  0.4500000  0.0338000  0.7748792  0.0000739 -0.0004313
  0.4500000  0.0450000  0.6996734  0.0001954 -0.0005144
  0.4375000  0.0450000  0.6996035  0.0001815 -0.0004433
  0.4625000  0.0338000  0.7749961  0.0000816 -0.0004970
  0.4625000  0.0225000  0.8500258  0.0000875 -0.0003670
  0.4750000  0.0225000  0.8502024  0.0000907 -0.0004200
  0.4750000  0.0338000  0.7751274  0.0000870 -0.0005660
  0.4750000  0.0450000  0.6998388  0.0002145 -0.0006697
  0.4625000  0.0450000  0.6997519  0.0002068 -0.0005904
  0.4625000  0.0113000  0.9252145 -0.0000083 -0.0001985
  0.4750000  0.0113000  0.9254363 -0.0000070 -0.0002283
  0.4625000  0.0000000  0.9760986  0.0033575 -0.0001021
  0.4750000  0.0000000  0.9763502  0.0033599 -0.0001179
  0.4875000  0.0113000  0.9256886 -0.0000063 -0.0002594
  0.4875000  0.0225000  0.8504006  0.0000922 -0.0004748
  0.4875000  0.0000000  0.9766390  0.0033627 -0.0001346
  0.5000000  0.0000000  0.9769663  0.0033656 -0.0001516
  0.5000000  0.0113000  0.9259716 -0.0000064 -0.0002909
  0.5000000  0.0225000  0.8506197  0.0000915 -0.0005293
  0.4875000  0.0338000  0.7752728  0.0000891 -0.0006366
  0.5000000  0.0338000  0.7754313  0.0000864 -0.0007058
  0.5000000  0.0450000  0.7000359  0.0002105 -0.0008277
  0.4875000  0.0450000  0.6999338  0.0002165 -0.0007499
  0.5125000  0.0338000  0.7756010  0.0000772 -0.0007701
  0.5125000  0.0225000  0.8508581  0.0000875 -0.0005810
  0.5250000  0.0225000  0.8511127  0.0000794 -0.0006265
  0.5250000  0.0338000  0.7757789  0.0000597 -0.0008246
  0.5250000  0.0450000  0.7002533  0.0001633 -0.0009561
  0.5125000  0.0450000  0.7001432  0.0001938 -0.0008984
  0.5125000  0.0113000  0.9262846 -0.0000076 -0.0003213
  0.5250000  0.0113000  0.9266250 -0.0000103 -0.0003488
  0.5125000  0.0000000  0.9773322  0.0033689 -0.0001683
  0.5250000  0.0000000  0.9777349  0.0033723 -0.0001838
  0.5375000  0.0113000  0.9269881 -0.0000149 -0.0003712
  0.5375000  0.0225000  0.8513784  0.0000661 -0.0006613
  0.5375000  0.0000000  0.9781703  0.0033758 -0.0001969
  0.5500000  0.0000000  0.9786314  0.0033793 -0.0002063
  0.5500000  0.0113000  0.9273663 -0.0000217 -0.0003857
  0.5500000  0.0225000  0.8516477  0.0000465 -0.0006801
  0.5375000  0.0338000  0.7759602  0.0000318 -0.0008632
  0.5500000  0.0338000  0.7761381 -0.0000087 -0.0008784
  0.5500000  0.0450000  0.7004648  0.0000469 -0.0010009
  0.5375000  0.0450000  0.7003623  0.0001156 -0.0009934
  0.5625000  0.0338000  0.7763038 -0.0000641 -0.0008612
  0.5625000  0.0225000  0.8519102  0.0000194 -0.0006764
  0.5750000  0.0225000  0.8521522 -0.0000162 -0.0006433
  0.5750000  0.0338000  0.7764453 -0.0001364 -0.0008011
  0.5750000  0.0450000  0.7006202 -0.0001675 -0.0008814
  0.5625000  0.0450000  0.7005538 -0.0000463 -0.0009678
  0.5625000  0.0113000  0.9277488 -0.0000311 -0.0003888
  0.5750000  0.0113000  0.9281214 -0.0000440 -0.0003767
  0.5625000  0.0000000  0.9791076  0.0033828 -0.0002101
  0.5750000  0.0000000  0.9795838  0.0033855 -0.0002062
  0.5875000  0.0113000  0.9284646 -0.0000611 -0.0003437
  0.5875000  0.0225000  0.8523589 -0.0000634 -0.0005723
  0.5875000  0.0000000  0.9800388  0.0033885 -0.0001922
  0.6000000  0.0000000  0.9804515  0.0033937 -0.0001675
  0.6000000  0.0113000  0.9287501 -0.0000765 -0.0002862
  0.6000000  0.0225000  0.8525040 -0.0001193 -0.0004458
  0.5875000  0.0338000  0.7765459 -0.0002273 -0.0006896
  0.6000000  0.0338000  0.7765258 -0.0003393 -0.0005004
  0.6000000  0.0450000  0.7005317 -0.0005321 -0.0004843
  0.5875000  0.0450000  0.7006518 -0.0003168 -0.0007266
  0.6125000  0.0338000  0.7763424 -0.0004470 -0.0002323
  0.6125000  0.0225000  0.8524627 -0.0001877 -0.0002670
  0.6250000  0.0226000  0.8522964 -0.0003044 -0.0000244
  0.6250000  0.0338000  0.7759554 -0.0005835  0.0001200
  0.6250000  0.0451000  0.6999656 -0.0010360  0.0003121
  0.6125000  0.0451000  0.7003355 -0.0007761 -0.0001410
  0.6125000  0.0113000  0.9288875 -0.0000959 -0.0001963
  0.6250000  0.0113000  0.9288847 -0.0001152 -0.0000708
  0.6125000  0.0000000  0.9807797  0.0033833 -0.0001213
  0.6250000  0.0000000  0.9809885  0.0033981 -0.0000592
  0.6375000  0.0113000  0.9287482 -0.0001346  0.0000916
  0.6375000  0.0226000  0.8519053 -0.0003998  0.0002969
  0.6375000  0.0000000  0.9810351  0.0033879  0.0000168
  0.6500000  0.0000000  0.9808786  0.0033877  0.0001218
  0.6500000  0.0113000  0.9284650 -0.0001714  0.0003033
  0.6500000  0.0226000  0.8514380 -0.0004868  0.0007055
  0.6375000  0.0339000  0.7755546 -0.0008117  0.0005896
  0.6500000  0.0339000  0.7747571 -0.0010003  0.0011827
  0.6499000  0.0452000  0.6983900 -0.0015964  0.0016454
  0.6375000  0.0451000  0.6993601 -0.0013037  0.0009190
  0.6624000  0.0340000  0.7737334 -0.0011750  0.0018810
  0.6625000  0.0226000  0.8506234 -0.0005668  0.0012551
  0.6750000  0.0227000  0.8493348 -0.0007046  0.0018455
  0.6749000  0.0340000  0.7722921 -0.0013809  0.0026803
  0.6749000  0.0454000  0.6959334 -0.0023614  0.0036526
  0.6624000  0.0453000  0.6972915 -0.0019765  0.0025449
  0.6625000  0.0113000  0.9278672 -0.0001789  0.0005613
  0.6750000  0.0113000  0.9267754 -0.0002269  0.0008789
  0.6625000  0.0000000  0.9804514  0.0033857  0.0002481
  0.6750000  0.0000000  0.9796203  0.0034014  0.0004107
  0.6875000  0.0114000  0.9253867 -0.0002876  0.0012448
  0.6875000  0.0228000  0.8477454 -0.0008184  0.0025449
  0.6875000  0.0000000  0.9784032  0.0033768  0.0005916
  0.7000000  0.0000000  0.9767487  0.0033681  0.0008008
  0.7000000  0.0114000  0.9235559 -0.0003289  0.0016571
  0.7000000  0.0228000  0.8456948 -0.0009198  0.0033271
  0.6874000  0.0341000  0.7706237 -0.0015705  0.0036726
  0.6999000  0.0342000  0.7685613 -0.0017970  0.0047863
  0.6999000  0.0456000  0.6920026 -0.0030030  0.0062876
  0.6874000  0.0455000  0.6941497 -0.0026693  0.0048822
  0.7124000  0.0343000  0.7662036 -0.0019697  0.0060022
  0.7125000  0.0229000  0.8434711 -0.0009963  0.0041974
  0.7250000  0.0229000  0.8407154 -0.0010250  0.0051298
  0.7249000  0.0344000  0.7635749 -0.0021231  0.0073620
  0.7249000  0.0458000  0.6868433 -0.0034601  0.0094994
  0.7124000  0.0457000  0.6895602 -0.0032427  0.0078247
  0.7125000  0.0114000  0.9214167 -0.0003209  0.0021204
  0.7250000  0.0114000  0.9187151 -0.0003433  0.0026066
  0.7125000  0.0000000  0.9746648  0.0033927  0.0010338
  0.7250000  0.0000000  0.9719626  0.0033880  0.0012780
  0.7375000  0.0115000  0.9156137 -0.0004026  0.0031145
  0.7375000  0.0000000  0.9687026  0.0033539  0.0015425
  0.7500000  0.0000000  0.9648698  0.0033566  0.0018073
  0.7500000  0.0115000  0.9119367 -0.0004278  0.0036253
  0.7500000  0.0229000  0.8344297 -0.0010473  0.0070136
  0.7375000  0.0229000  0.8377371 -0.0010133  0.0060420
  0.7375000  0.0344000  0.7606808 -0.0021133  0.0087289
  0.7500000  0.0344000  0.7575486 -0.0021184  0.0101014
  0.7500000  0.0459000  0.6810078 -0.0035528  0.0129179
  0.7374000  0.0459000  0.6840077 -0.0035191  0.0111666
  0.7625000  0.0344000  0.7542503 -0.0021053  0.0114656
  0.7626000  0.0459000  0.6782044 -0.0035135  0.0146589
  0.7625000  0.0229000  0.8306753 -0.0010126  0.0079825
  0.7750000  0.0229000  0.8266065 -0.0010219  0.0088761
  0.7751000  0.0344000  0.7507171 -0.0021174  0.0128138
  0.7751000  0.0458000  0.6752448 -0.0034445  0.0162800
  0.7625000  0.0115000  0.9079247 -0.0003994  0.0041372
  0.7625000  0.0000000  0.9605911  0.0033360  0.0020675
  0.7750000  0.0000000  0.9557300  0.0033413  0.0023072
  0.7750000  0.0114000  0.9033359 -0.0003413  0.0046341
  0.7876000  0.0343000  0.7468991 -0.0019756  0.0141357
  0.7876000  0.0457000  0.6721452 -0.0032524  0.0179035
  0.7875000  0.0229000  0.8223023 -0.0009978  0.0097803
  0.8000000  0.0228000  0.8175405 -0.0008944  0.0106595
  0.8001000  0.0342000  0.7429266 -0.0018205  0.0153139
  0.8001000  0.0456000  0.6687800 -0.0029926  0.0193937
  0.7875000  0.0114000  0.8983493 -0.0003260  0.0051205
  0.7875000  0.0000000  0.9502948  0.0033034  0.0025485
  0.8000000  0.0000000  0.9442634  0.0032652  0.0027782
  0.8000000  0.0114000  0.8927995 -0.0003072  0.0055658
  0.8126000  0.0341000  0.7385055 -0.0015859  0.0163327
  0.8126000  0.0227000  0.8124587 -0.0007782  0.0113790
  0.8250000  0.0227000  0.8070075 -0.0006792  0.0120749
  0.8251000  0.0340000  0.7336323 -0.0013571  0.0173349
  0.8251000  0.0454000  0.6610382 -0.0023425  0.0219077
  0.8126000  0.0455000  0.6650877 -0.0026764  0.0207301
  0.8125000  0.0114000  0.8870040 -0.0002943  0.0059098
  0.8250000  0.0113000  0.8807147 -0.0002421  0.0063009
  0.8125000  0.0000000  0.9378055  0.0032320  0.0029870
  0.8250000  0.0000000  0.9308945  0.0032505  0.0031495
  0.8375000  0.0113000  0.8739826 -0.0001802  0.0065986
  0.8375000  0.0226000  0.8011357 -0.0005703  0.0125940
  0.8375000  0.0000000  0.9235773  0.0031886  0.0033028
  0.8500000  0.0000000  0.9158841  0.0031640  0.0034291
  0.8500000  0.0113000  0.8668714 -0.0001725  0.0068544
  0.8500000  0.0226000  0.7948603 -0.0004852  0.0131304
  0.8376000  0.0340000  0.7286213 -0.0011785  0.0180992
  0.8500000  0.0339000  0.7231376 -0.0009802  0.0187634
  0.8501000  0.0452000  0.6518151 -0.0016174  0.0238904
  0.8376000  0.0453000  0.6565588 -0.0019654  0.0229817
  0.8625000  0.0339000  0.7175301 -0.0008035  0.0192917
  0.8625000  0.0226000  0.7882537 -0.0003952  0.0135333
  0.8750000  0.0226000  0.7815559 -0.0003013  0.0138424
  0.8750000  0.0338000  0.7115107 -0.0006034  0.0197880
  0.8750000  0.0451000  0.6417106 -0.0010310  0.0251619
  0.8626000  0.0451000  0.6469504 -0.0012999  0.0245544
  0.8625000  0.0113000  0.8594539 -0.0001339  0.0070657
  0.8750000  0.0113000  0.8518899 -0.0001119  0.0072231
  0.8625000  0.0000000  0.9079169  0.0031380  0.0035349
  0.8750000  0.0000000  0.8997470  0.0031179  0.0036101
  0.8875000  0.0113000  0.8441834 -0.0000906  0.0073325
  0.8875000  0.0225000  0.7746345 -0.0001887  0.0140698
  0.8875000  0.0000000  0.8914122  0.0030764  0.0036755
  0.9000000  0.0000000  0.8829559  0.0030600  0.0037201
  0.9000000  0.0113000  0.8363336 -0.0000725  0.0074149
  0.9000000  0.0225000  0.7675928 -0.0001219  0.0142510
  0.8875000  0.0338000  0.7053862 -0.0004454  0.0201242
  0.9000000  0.0338000  0.6991095 -0.0003347  0.0203739
  0.9000000  0.0450000  0.6306176 -0.0005335  0.0258990
  0.8875000  0.0451000  0.6362617 -0.0007726  0.0255651
  0.9125000  0.0338000  0.6926657 -0.0002239  0.0205572
  0.9125000  0.0225000  0.7603713 -0.0000662  0.0143780
  0.9250000  0.0225000  0.7530886 -0.0000197  0.0144488
  0.9250000  0.0338000  0.6861135 -0.0001330  0.0206689
  0.9250000  0.0450000  0.6190427 -0.0001710  0.0262976
  0.9125000  0.0450000  0.6249015 -0.0003206  0.0261422
  0.9125000  0.0113000  0.8283477 -0.0000577  0.0074720
  0.9250000  0.0113000  0.8203034 -0.0000406  0.0075050
  0.9125000  0.0000000  0.8744178  0.0030262  0.0037440
  0.9250000  0.0000000  0.8658384  0.0029951  0.0037579
  0.9375000  0.0113000  0.8122296 -0.0000275  0.0075172
  0.9375000  0.0225000  0.7457708  0.0000157  0.0144820
  0.9375000  0.0000000  0.8572379  0.0029646  0.0037619
  0.9500000  0.0000000  0.8486372  0.0029333  0.0037581
  0.9500000  0.0113000  0.8041460 -0.0000177  0.0075141
  0.9500000  0.0225000  0.7384323  0.0000425  0.0144857
  0.9375000  0.0338000  0.6795199 -0.0000604  0.0207291
  0.9500000  0.0338000  0.6729021 -0.0000048  0.0207463
  0.9500000  0.0450000  0.6072338  0.0000429  0.0264173
  0.9375000  0.0450000  0.6131496 -0.0000501  0.0263840
  0.9625000  0.0338000  0.6662720  0.0000360  0.0207311
  0.9625000  0.0225000  0.7310872  0.0000619  0.0144669
  0.9750000  0.0225000  0.7237457  0.0000749  0.0144321
  0.9750000  0.0338000  0.6596386  0.0000641  0.0206926
  0.9750000  0.0450000  0.5953685  0.0001588  0.0263726
  0.9625000  0.0450000  0.6013044  0.0001113  0.0264098
  0.9625000  0.0113000  0.7960666 -0.0000107  0.0074996
  0.9750000  0.0113000  0.7880024 -0.0000059  0.0074772
  0.9625000  0.0000000  0.8400516  0.0029018  0.0037488
  0.9750000  0.0000000  0.8314917  0.0028704  0.0037357
  0.9875000  0.0113000  0.7799608 -0.0000029  0.0074497
  0.9875000  0.0225000  0.7164152  0.0000828  0.0143866
  0.9875000  0.0000000  0.8229644  0.0028392  0.0037202
  1.0000000  0.0000000  0.8144740  0.0028081  0.0037034
  1.0000000  0.0113000  0.7719467 -0.0000014  0.0074193
  1.0000000  0.0225000  0.7091009  0.0000865  0.0143350
  0.9875000  0.0338000  0.6530085  0.0000819  0.0206381
  1.0000000  0.0338000  0.6463865  0.0000913  0.0205738
  1.0000000  0.0450000  0.5834973  0.0002055  0.0262442
  0.9875000  0.0450000  0.5894316  0.0001891  0.0263149
  1.0125000  0.0338000  0.6397758  0.0000942  0.0205046
  1.0125000  0.0225000  0.7018059  0.0000871  0.0142804
  1.0250000  0.0225000  0.6945318  0.0000852  0.0142257
  1.0250000  0.0338000  0.6331783  0.0000924  0.0204341
  1.0250000  0.0450000  0.5716465  0.0002091  0.0260863
  1.0125000  0.0450000  0.5775684  0.0002113  0.0261665
  1.0125000  0.0113000  0.7639624 -0.0000011  0.0073879
  1.0250000  0.0113000  0.7560090 -0.0000016  0.0073568
  1.0125000  0.0000000  0.8060222  0.0027772  0.0036864
  1.0250000  0.0000000  0.7976088  0.0027466  0.0036698
  1.0375000  0.0113000  0.7480859 -0.0000026  0.0073269
  1.0375000  0.0225000  0.6872793  0.0000818  0.0141727
  1.0375000  0.0000000  0.7892326  0.0027163  0.0036539
  1.0500000  0.0000000  0.7808913  0.0026863  0.0036392
  1.0500000  0.0113000  0.7401919 -0.0000040  0.0072991
  1.0500000  0.0225000  0.6800479  0.0000773  0.0141227
  1.0375000  0.0338000  0.6265948  0.0000873  0.0203650
  1.0500000  0.0338000  0.6200256  0.0000798  0.0202993
  1.0500000  0.0450000  0.5598273  0.0001894  0.0259310
  1.0375000  0.0450000  0.5657326  0.0002012  0.0260070
  1.0625000  0.0338000  0.6134705  0.0000711  0.0202383
  1.0625000  0.0225000  0.6728367  0.0000722  0.0140766
  1.0750000  0.0225000  0.6656443  0.0000668  0.0140347
  1.0750000  0.0338000  0.6069286  0.0000617  0.0201826
  1.0750000  0.0450000  0.5480419  0.0001601  0.0257947
  1.0625000  0.0450000  0.5539305  0.0001754  0.0258599
  1.0625000  0.0113000  0.7323250 -0.0000056  0.0072735
  1.0750000  0.0113000  0.7244828 -0.0000073  0.0072505
  1.0625000  0.0000000  0.7725822  0.0026565  0.0036258
  1.0750000  0.0000000  0.7643020  0.0026271  0.0036138
  1.0875000  0.0113000  0.7166630 -0.0000090  0.0072301
  1.0875000  0.0225000  0.6584692  0.0000614  0.0139974
  1.0875000  0.0000000  0.7560477  0.0025978  0.0036032
  1.1000000  0.0000000  0.7478160  0.0025688  0.0035940
  1.1000000  0.0113000  0.7088630 -0.0000106  0.0072122
  1.1000000  0.0225000  0.6513095  0.0000562  0.0139646
  1.0875000  0.0338000  0.6003992  0.0000522  0.0201326
  1.1000000  0.0338000  0.5938810  0.0000430  0.0200883
  1.1000000  0.0450000  0.5362880  0.0001294  0.0256836
  1.0875000  0.0450000  0.5421613  0.0001446  0.0257359
  1.1125000  0.0338000  0.5873731  0.0000344  0.0200497
  1.1125000  0.0225000  0.6441637  0.0000513  0.0139360
  1.1250000  0.0225000  0.6370299  0.0000468  0.0139114
  1.1250000  0.0338000  0.5808743  0.0000263  0.0200162
  1.1250000  0.0450000  0.5245608  0.0001014  0.0255979
  1.1125000  0.0450000  0.5304214  0.0001149  0.0256377
  1.1125000  0.0113000  0.7010803 -0.0000120  0.0071968
  1.1250000  0.0113000  0.6933126 -0.0000134  0.0071835
  1.1125000  0.0000000  0.7396040  0.0025400  0.0035860
  1.1250000  0.0000000  0.7314088  0.0025114  0.0035793
  1.1375000  0.0113000  0.6855577 -0.0000145  0.0071723
  1.1375000  0.0225000  0.6299066  0.0000427  0.0138905
  1.1375000  0.0000000  0.7232279  0.0024829  0.0035736
  1.1500000  0.0000000  0.7150589  0.0024545  0.0035688
  1.1500000  0.0113000  0.6778137 -0.0000155  0.0071629
  1.1500000  0.0225000  0.6227923  0.0000390  0.0138729
  1.1375000  0.0338000  0.5743833  0.0000191  0.0199876
  1.1500000  0.0338000  0.5678993  0.0000127  0.0199635
  1.1500000  0.0450000  0.5128550  0.0000782  0.0255346
  1.1375000  0.0450000  0.5187056  0.0000892  0.0255637
  1.1625000  0.0338000  0.5614212  0.0000071  0.0199432
  1.1625000  0.0225000  0.6156856  0.0000358  0.0138582
  1.1750000  0.0225000  0.6085853  0.0000329  0.0138461
  1.1750000  0.0338000  0.5549482  0.0000022  0.0199264
  1.1750000  0.0450000  0.5011658  0.0000599  0.0254898
  1.1625000  0.0450000  0.5070086  0.0000684  0.0255101
  1.1625000  0.0113000  0.6700788 -0.0000164  0.0071552
  1.1750000  0.0113000  0.6623514 -0.0000171  0.0071488
  1.1625000  0.0000000  0.7068999  0.0024262  0.0035649
  1.1750000  0.0000000  0.6987490  0.0023980  0.0035616
  1.1875000  0.0113000  0.6546302 -0.0000176  0.0071436
  1.1875000  0.0225000  0.6014903  0.0000304  0.0138361
  1.1875000  0.0000000  0.6906048  0.0023699  0.0035590
  1.2000000  0.0000000  0.6824659  0.0023419  0.0035570
  1.2000000  0.0113000  0.6469141 -0.0000181  0.0071394
  1.2000000  0.0225000  0.5943998  0.0000283  0.0138281
  1.1875000  0.0338000  0.5484794 -0.0000020  0.0199126
  1.2000000  0.0338000  0.5420142 -0.0000055  0.0199013
  1.2000000  0.0450000  0.4894887  0.0000461  0.0254592
  1.1875000  0.0450000  0.4953259  0.0000525  0.0254729
  1.2125000  0.0338000  0.5355519 -0.0000084  0.0198923
  1.2125000  0.0225000  0.5873128  0.0000265  0.0138217
  1.2250000  0.0225000  0.5802288  0.0000249  0.0138167
  1.2250000  0.0338000  0.5290920 -0.0000107  0.0198851
  1.2250000  0.0450000  0.4778202  0.0000361  0.0254392
  1.2125000  0.0450000  0.4836535  0.0000407  0.0254481
  1.2125000  0.0113000  0.6392020 -0.0000184  0.0071361
  1.2250000  0.0113000  0.6314932 -0.0000186  0.0071335
  1.2125000  0.0000000  0.6743313  0.0023139  0.0035553
  1.2250000  0.0000000  0.6662000  0.0022859  0.0035541
  1.2375000  0.0113000  0.6237869 -0.0000187  0.0071315
  1.2375000  0.0225000  0.5731470  0.0000236  0.0138128
  1.2375000  0.0000000  0.6580712  0.0022580  0.0035531
  1.2500000  0.0000000  0.6499444  0.0022301  0.0035523
  1.2500000  0.0113000  0.6160825 -0.0000188  0.0071300
  1.2500000  0.0225000  0.5660671  0.0000224  0.0138098
  1.2375000  0.0338000  0.5226340 -0.0000127  0.0198795
  1.2500000  0.0338000  0.5161777 -0.0000142  0.0198752
  1.2500000  0.0450000  0.4661577  0.0000291  0.0254267
  1.2375000  0.0450000  0.4719883  0.0000323  0.0254322
  1.2625000  0.0338000  0.5097225 -0.0000154  0.0198718
  1.2625000  0.0225000  0.5589886  0.0000215  0.0138075
  1.2750000  0.0225000  0.5519112  0.0000206  0.0138059
  1.2750000  0.0338000  0.5032684 -0.0000163  0.0198694
  1.2750000  0.0450000  0.4544991  0.0000244  0.0254194
  1.2625000  0.0450000  0.4603280  0.0000265  0.0254225
  1.2625000  0.0113000  0.6083796 -0.0000188  0.0071289
  1.2750000  0.0113000  0.6006778 -0.0000188  0.0071281
  1.2625000  0.0000000  0.6418191  0.0022022  0.0035518
  1.2750000  0.0000000  0.6336948  0.0021743  0.0035514
  1.2875000  0.0113000  0.5929768 -0.0000187  0.0071275
  1.2875000  0.0225000  0.5448346  0.0000199  0.0138047
  1.2875000  0.0000000  0.6255712  0.0021465  0.0035512
  1.3000000  0.0000000  0.6174481  0.0021186  0.0035510
  1.3000000  0.0113000  0.5852763 -0.0000186  0.0071271
  1.3000000  0.0225000  0.5377586  0.0000194  0.0138039
  1.2875000  0.0338000  0.4968150 -0.0000170  0.0198676
  1.3000000  0.0338000  0.4903621 -0.0000174  0.0198664
  1.3000000  0.0450000  0.4428429  0.0000211  0.0254154
  1.2875000  0.0450000  0.4486708  0.0000226  0.0254170
  1.3125000  0.0338000  0.4839097 -0.0000177  0.0198656
  1.3125000  0.0225000  0.5306831  0.0000188  0.0138034
  1.3250000  0.0225000  0.5236078  0.0000184  0.0138031
  1.3250000  0.0338000  0.4774576 -0.0000179  0.0198651
  1.3250000  0.0450000  0.4311883  0.0000190  0.0254136
  1.3125000  0.0450000  0.4370155  0.0000200  0.0254143
  1.3125000  0.0113000  0.5775762 -0.0000184  0.0071269
  1.3250000  0.0113000  0.5698763 -0.0000182  0.0071268
  1.3125000  0.0000000  0.6093253  0.0020907  0.0035509
  1.3250000  0.0000000  0.6012026  0.0020629  0.0035509
  1.3375000  0.0113000  0.5621765 -0.0000180  0.0071268
  1.3375000  0.0225000  0.5165326  0.0000180  0.0138030
  1.3375000  0.0000000  0.5930800  0.0020350  0.0035509
  1.3500000  0.0000000  0.5849573  0.0020071  0.0035509
  1.3500000  0.0113000  0.5544768 -0.0000178  0.0071268
  1.3500000  0.0225000  0.5094576  0.0000177  0.0138030
  1.3375000  0.0338000  0.4710056 -0.0000179  0.0198649
  1.3500000  0.0338000  0.4645539 -0.0000179  0.0198648
  1.3500000  0.0450000  0.4195345  0.0000176  0.0254131
  1.3375000  0.0450000  0.4253613  0.0000183  0.0254132
  1.3625000  0.0338000  0.4581021 -0.0000178  0.0198649
  1.3625000  0.0225000  0.5023826  0.0000173  0.0138031
  1.3750000  0.0225000  0.4953076  0.0000170  0.0138033
  1.3750000  0.0338000  0.4516505 -0.0000177  0.0198651
  1.3750000  0.0450000  0.4078810  0.0000167  0.0254132
  1.3625000  0.0450000  0.4137077  0.0000171  0.0254131
  1.3625000  0.0113000  0.5467770 -0.0000176  0.0071269
  1.3750000  0.0113000  0.5390771 -0.0000174  0.0071270
  1.3625000  0.0000000  0.5768345  0.0019793  0.0035510
  1.3750000  0.0000000  0.5687116  0.0019514  0.0035510
  1.3875000  0.0113000  0.5313771 -0.0000171  0.0071271
  1.3875000  0.0225000  0.4882326  0.0000168  0.0138035
  1.3875000  0.0000000  0.5605885  0.0019236  0.0035511
  1.4000000  0.0000000  0.5524653  0.0018957  0.0035512
  1.4000000  0.0113000  0.5236770 -0.0000169  0.0071273
  1.4000000  0.0225000  0.4811575  0.0000165  0.0138037
  1.3875000  0.0338000  0.4451988 -0.0000175  0.0198653
  1.4000000  0.0338000  0.4387471 -0.0000173  0.0198656
  1.4000000  0.0450000  0.3962277  0.0000160  0.0254137
  1.3875000  0.0450000  0.4020544  0.0000163  0.0254134
  1.4125000  0.0338000  0.4322954 -0.0000170  0.0198659
  1.4125000  0.0225000  0.4740823  0.0000163  0.0138040
  1.4250000  0.0225000  0.4670070  0.0000160  0.0138042
  1.4250000  0.0338000  0.4258436 -0.0000168  0.0198662
  1.4250000  0.0450000  0.3845744  0.0000155  0.0254144
  1.4125000  0.0450000  0.3904011  0.0000157  0.0254141
  1.4125000  0.0113000  0.5159768 -0.0000166  0.0071274
  1.4250000  0.0113000  0.5082764 -0.0000164  0.0071276
  1.4125000  0.0000000  0.5443418  0.0018678  0.0035513
  1.4250000  0.0000000  0.5362182  0.0018400  0.0035513
  1.4375000  0.0113000  0.5005759 -0.0000161  0.0071277
  1.4375000  0.0225000  0.4599316  0.0000158  0.0138045
  1.4375000  0.0000000  0.5280945  0.0018121  0.0035514
  1.4500000  0.0000000  0.5199706  0.0017842  0.0035515
  1.4500000  0.0113000  0.4928752 -0.0000159  0.0071278
  1.4500000  0.0225000  0.4528561  0.0000155  0.0138047
  1.4375000  0.0338000  0.4193917 -0.0000165  0.0198665
  1.4500000  0.0338000  0.4129398 -0.0000163  0.0198668
  1.4500000  0.0450000  0.3729210  0.0000150  0.0254151
  1.4375000  0.0450000  0.3787477  0.0000152  0.0254148
  1.4625000  0.0338000  0.4064878 -0.0000160  0.0198671
  1.4625000  0.0225000  0.4457805  0.0000153  0.0138049
  1.4750000  0.0225000  0.4387049  0.0000151  0.0138052
  1.4750000  0.0338000  0.4000358 -0.0000158  0.0198674
  1.4750000  0.0450000  0.3612674  0.0000145  0.0254158
  1.4625000  0.0450000  0.3670942  0.0000148  0.0254155
  1.4625000  0.0113000  0.4851745 -0.0000156  0.0071279
  1.4750000  0.0113000  0.4774735 -0.0000154  0.0071281
  1.4625000  0.0000000  0.5118465  0.0017563  0.0035515
  1.4750000  0.0000000  0.5037222  0.0017285  0.0035516
  1.4875000  0.0113000  0.4697725 -0.0000151  0.0071282
  1.4875000  0.0225000  0.4316291  0.0000148  0.0138054
  1.4875000  0.0000000  0.4955978  0.0017006  0.0035517
  1.5000000  0.0000000  0.4874733  0.0016727  0.0035517
  1.5000000  0.0113000  0.4620713 -0.0000149  0.0071283
  1.5000000  0.0225000  0.4245532  0.0000146  0.0138056
  1.4875000  0.0338000  0.3935837 -0.0000155  0.0198677
  1.5000000  0.0338000  0.3871315 -0.0000153  0.0198680
  1.5000000  0.0450000  0.3496136  0.0000140  0.0254165
  1.4875000  0.0450000  0.3554405  0.0000143  0.0254162
  1.5125000  0.0338000  0.3806792 -0.0000150  0.0198683
  1.5125000  0.0225000  0.4174772  0.0000143  0.0138058
  1.5250000  0.0225000  0.4104011  0.0000141  0.0138061
  1.5250000  0.0338000  0.3742269 -0.0000148  0.0198686
  1.5250000  0.0450000  0.3379597  0.0000135  0.0254173
  1.5125000  0.0450000  0.3437867  0.0000138  0.0254169
  1.5125000  0.0113000  0.4543700 -0.0000146  0.0071284
  1.5250000  0.0113000  0.4466686 -0.0000144  0.0071286
  1.5125000  0.0000000  0.4793486  0.0016448  0.0035518
  1.5250000  0.0000000  0.4712238  0.0016170  0.0035519
  1.5375000  0.0113000  0.4389670 -0.0000142  0.0071287
  1.5375000  0.0225000  0.4033250  0.0000138  0.0138063
  1.5375000  0.0000000  0.4630988  0.0015891  0.0035519
  1.5500000  0.0000000  0.4549737  0.0015612  0.0035520
  1.5500000  0.0113000  0.4312654 -0.0000139  0.0071288
  1.5500000  0.0225000  0.3962487  0.0000136  0.0138065
  1.5375000  0.0338000  0.3677745 -0.0000146  0.0198689
  1.5500000  0.0338000  0.3613220 -0.0000143  0.0198692
  1.5500000  0.0450000  0.3263056  0.0000130  0.0254180
  1.5375000  0.0450000  0.3321327  0.0000133  0.0254176
  1.5625000  0.0338000  0.3548694 -0.0000141  0.0198696
  1.5625000  0.0225000  0.3891723  0.0000133  0.0138068
  1.5750000  0.0225000  0.3820958  0.0000131  0.0138070
  1.5750000  0.0338000  0.3484168 -0.0000138  0.0198699
  1.5750000  0.0450000  0.3146514  0.0000125  0.0254187
  1.5625000  0.0450000  0.3204785  0.0000128  0.0254183
  1.5625000  0.0113000  0.4235635 -0.0000137  0.0071289
  1.5750000  0.0113000  0.4158616 -0.0000134  0.0071291
  1.5625000  0.0000000  0.4468484  0.0015333  0.0035521
  1.5750000  0.0000000  0.4387230  0.0015054  0.0035521
  1.5875000  0.0113000  0.4081595 -0.0000132  0.0071292
  1.5875000  0.0225000  0.3750193  0.0000128  0.0138073
  1.5875000  0.0000000  0.4305974  0.0014775  0.0035522
  1.6000000  0.0000000  0.4224716  0.0014496  0.0035523
  1.6000000  0.0113000  0.4004572 -0.0000129  0.0071294
  1.6000000  0.0225000  0.3679426  0.0000126  0.0138075
  1.5875000  0.0338000  0.3419642 -0.0000136  0.0198702
  1.6000000  0.0338000  0.3355115 -0.0000133  0.0198705
  1.6000000  0.0450000  0.3029970  0.0000121  0.0254194
  1.5875000  0.0450000  0.3088242  0.0000123  0.0254190
  1.6125000  0.0338000  0.3290587 -0.0000130  0.0198708
  1.6125000  0.0225000  0.3608658  0.0000123  0.0138077
  1.6250000  0.0225000  0.3537890  0.0000121  0.0138079
  1.6250000  0.0338000  0.3226059 -0.0000127  0.0198710
  1.6250000  0.0450000  0.2913426  0.0000117  0.0254199
  1.6125000  0.0450000  0.2971698  0.0000119  0.0254197
  1.6125000  0.0113000  0.3927549 -0.0000127  0.0071295
  1.6250000  0.0113000  0.3850524 -0.0000124  0.0071296
  1.6125000  0.0000000  0.4143456  0.0014217  0.0035523
  1.6250000  0.0000000  0.4062195  0.0013938  0.0035524
  1.6375000  0.0113000  0.3773498 -0.0000122  0.0071297
  1.6375000  0.0225000  0.3467122  0.0000119  0.0138081
  1.6375000  0.0000000  0.3980932  0.0013659  0.0035525
  1.6500000  0.0000000  0.3899668  0.0013380  0.0035525
  1.6500000  0.0113000  0.3696471 -0.0000119  0.0071298
  1.6500000  0.0225000  0.3396353  0.0000117  0.0138082
  1.6375000  0.0338000  0.3161531 -0.0000124  0.0198712
  1.6500000  0.0338000  0.3097004 -0.0000120  0.0198713
  1.6500000  0.0450000  0.2796884  0.0000117  0.0254201
  1.6375000  0.0450000  0.2855155  0.0000117  0.0254200
  1.6625000  0.0338000  0.3032477 -0.0000115  0.0198712
  1.6625000  0.0225000  0.3325584  0.0000116  0.0138082
  1.6750000  0.0225000  0.3254817  0.0000115  0.0138081
  1.6750000  0.0338000  0.2967952 -0.0000110  0.0198710
  1.6750000  0.0450000  0.2680345  0.0000121  0.0254195
  1.6625000  0.0450000  0.2738614  0.0000118  0.0254199
  1.6625000  0.0113000  0.3619444 -0.0000116  0.0071299
  1.6750000  0.0113000  0.3542417 -0.0000113  0.0071298
  1.6625000  0.0000000  0.3818402  0.0013101  0.0035526
  1.6750000  0.0000000  0.3737137  0.0012823  0.0035526
  1.6875000  0.0113000  0.3465390 -0.0000110  0.0071297
  1.6875000  0.0225000  0.3184051  0.0000114  0.0138079
  1.6875000  0.0000000  0.3655871  0.0012544  0.0035525
  1.7000000  0.0000000  0.3574607  0.0012265  0.0035525
  1.7000000  0.0113000  0.3388367 -0.0000107  0.0071295
  1.7000000  0.0225000  0.3113288  0.0000114  0.0138074
  1.6875000  0.0338000  0.2903429 -0.0000103  0.0198705
  1.7000000  0.0338000  0.2838908 -0.0000096  0.0198697
  1.7000000  0.0450000  0.2563815  0.0000132  0.0254177
  1.6875000  0.0450000  0.2622079  0.0000125  0.0254188
  1.7125000  0.0338000  0.2774392 -0.0000086  0.0198685
  1.7125000  0.0225000  0.3042529  0.0000115  0.0138066
  1.7250000  0.0225000  0.2971777  0.0000117  0.0138055
  1.7250000  0.0338000  0.2709882 -0.0000074  0.0198667
  1.7250000  0.0450000  0.2447300  0.0000154  0.0254138
  1.7125000  0.0450000  0.2505555  0.0000141  0.0254161
  1.7125000  0.0113000  0.3311346 -0.0000103  0.0071292
  1.7250000  0.0113000  0.3234331 -0.0000099  0.0071286
  1.7125000  0.0000000  0.3493345  0.0011986  0.0035523
  1.7250000  0.0000000  0.3412088  0.0011707  0.0035521
  1.7375000  0.0113000  0.3157324 -0.0000094  0.0071278
  1.7375000  0.0225000  0.2901032  0.0000121  0.0138038
  1.7375000  0.0000000  0.3330838  0.0011428  0.0035517
  1.7500000  0.0000000  0.3249599  0.0011149  0.0035512
  1.7500000  0.0113000  0.3080327 -0.0000090  0.0071267
  1.7500000  0.0225000  0.2830298  0.0000125  0.0138016
  1.7375000  0.0338000  0.2645379 -0.0000061  0.0198643
  1.7500000  0.0338000  0.2580886 -0.0000044  0.0198610
  1.7500000  0.0450000  0.2330810  0.0000192  0.0254065
  1.7375000  0.0450000  0.2389051  0.0000171  0.0254107
  1.7625000  0.0338000  0.2516405 -0.0000024  0.0198567
  1.7625000  0.0225000  0.2759578  0.0000132  0.0137986
  1.7750000  0.0225000  0.2688876  0.0000140  0.0137947
  1.7750000  0.0338000  0.2451940  0.0000001  0.0198511
  1.7750000  0.0450000  0.2214359  0.0000253  0.0253940
  1.7625000  0.0450000  0.2272578  0.0000219  0.0254011
  1.7625000  0.0113000  0.3003345 -0.0000084  0.0071252
  1.7750000  0.0113000  0.2926383 -0.0000078  0.0071233
  1.7625000  0.0000000  0.3168373  0.0010871  0.0035504
  1.7750000  0.0000000  0.3087167  0.0010592  0.0035495
  1.7875000  0.0113000  0.2849445 -0.0000070  0.0071207
  1.7875000  0.0225000  0.2618198  0.0000151  0.0137897
  1.7875000  0.0000000  0.3005986  0.0010314  0.0035482
  1.8000000  0.0000000  0.2924838  0.0010037  0.0035466
  1.8000000  0.0113000  0.2772540 -0.0000062  0.0071174
  1.8000000  0.0225000  0.2547549  0.0000165  0.0137833
  1.7875000  0.0338000  0.2387495  0.0000030  0.0198439
  1.8000000  0.0338000  0.2323074  0.0000064  0.0198348
  1.8000000  0.0450000  0.2097970  0.0000344  0.0253739
  1.7875000  0.0450000  0.2156155  0.0000294  0.0253851
  1.8125000  0.0338000  0.2258684  0.0000105  0.0198235
  1.8125000  0.0225000  0.2476937  0.0000182  0.0137752
  1.8250000  0.0225000  0.2406369  0.0000202  0.0137652
  1.8250000  0.0338000  0.2194329  0.0000153  0.0198095
  1.8250000  0.0450000  0.1981668  0.0000476  0.0253429
  1.8125000  0.0450000  0.2039806  0.0000404  0.0253600
  1.8125000  0.0113000  0.2695676 -0.0000053  0.0071132
  1.8250000  0.0113000  0.2618862 -0.0000042  0.0071080
  1.8125000  0.0000000  0.2843732  0.0009760  0.0035445
  1.8250000  0.0000000  0.2762680  0.0009483  0.0035419
  1.8375000  0.0113000  0.2542112 -0.0000030  0.0071015
  1.8375000  0.0225000  0.2335856  0.0000227  0.0137528
  1.8375000  0.0000000  0.2681695  0.0009207  0.0035386
  1.8500000  0.0000000  0.2600793  0.0008932  0.0035346
  1.8500000  0.0113000  0.2465438 -0.0000015  0.0070935
  1.8500000  0.0225000  0.2265409  0.0000257  0.0137378
  1.8375000  0.0338000  0.2130019  0.0000210  0.0197923
  1.8500000  0.0338000  0.2065760  0.0000276  0.0197714
  1.8500000  0.0450000  0.1865491  0.0000661  0.0252969
  1.8375000  0.0450000  0.1923561  0.0000562  0.0253221
  1.8625000  0.0338000  0.2001563  0.0000351  0.0197463
  1.8625000  0.0225000  0.2195041  0.0000292  0.0137195
  1.8750000  0.0225000  0.2124768  0.0000333  0.0136975
  1.8750000  0.0338000  0.1937438  0.0000438  0.0197162
  1.8750000  0.0450000  0.1749482  0.0000911  0.0252308
  1.8625000  0.0450000  0.1807462  0.0000777  0.0252667
  1.8625000  0.0113000  0.2388859  0.0000001  0.0070838
  1.8750000  0.0113000  0.2312393  0.0000019  0.0070721
  1.8625000  0.0000000  0.2519993  0.0008658  0.0035297
  1.8750000  0.0000000  0.2439316  0.0008386  0.0035238
  1.8875000  0.0113000  0.2236064  0.0000040  0.0070580
  1.8875000  0.0225000  0.2054606  0.0000381  0.0136713
  1.8875000  0.0000000  0.2358789  0.0008115  0.0035166
  1.9000000  0.0000000  0.2278442  0.0007847  0.0035081
  1.9000000  0.0113000  0.2159895  0.0000063  0.0070413
  1.9000000  0.0225000  0.1984576  0.0000435  0.0136403
  1.8875000  0.0338000  0.1873398  0.0000538  0.0196806
  1.9000000  0.0338000  0.1809455  0.0000650  0.0196386
  1.9000000  0.0450000  0.1633694  0.0001235  0.0251388
  1.8875000  0.0450000  0.1691557  0.0001063  0.0251884
  1.9125000  0.0338000  0.1745622  0.0000775  0.0195896
  1.9125000  0.0225000  0.1914697  0.0000497  0.0136039
  1.9250000  0.0225000  0.1844994  0.0000567  0.0135614
  1.9250000  0.0338000  0.1681913  0.0000915  0.0195328
  1.9250000  0.0450000  0.1518178  0.0001639  0.0250150
  1.9125000  0.0450000  0.1575899  0.0001427  0.0250812
  1.9125000  0.0113000  0.2083917  0.0000089  0.0070216
  1.9250000  0.0113000  0.2008162  0.0000119  0.0069984
  1.9125000  0.0000000  0.2198309  0.0007581  0.0034979
  1.9250000  0.0000000  0.2118429  0.0007317  0.0034859
  1.9375000  0.0113000  0.1932667  0.0000151  0.0069714
  1.9375000  0.0225000  0.1775491  0.0000644  0.0135121
  1.9375000  0.0000000  0.2038845  0.0007058  0.0034719
  1.9500000  0.0000000  0.1959608  0.0006802  0.0034556
  1.9500000  0.0113000  0.1857471  0.0000186  0.0069401
  1.9500000  0.0225000  0.1706214  0.0000730  0.0134556
  1.9375000  0.0338000  0.1618344  0.0001068  0.0194674
  1.9500000  0.0338000  0.1554927  0.0001235  0.0193930
  1.9500000  0.0450000  0.1402975  0.0002120  0.0248541
  1.9375000  0.0450000  0.1460535  0.0001871  0.0249394
  1.9625000  0.0338000  0.1491676  0.0001412  0.0193089
  1.9625000  0.0225000  0.1637191  0.0000822  0.0133911
  1.9750000  0.0225000  0.1568448  0.0000922  0.0133182
  1.9750000  0.0338000  0.1428598  0.0001599  0.0192149
  1.9750000  0.0450000  0.1288092  0.0002654  0.0246535
  1.9625000  0.0450000  0.1345495  0.0002383  0.0247587
  1.9625000  0.0113000  0.1782618  0.0000225  0.0069042
  1.9750000  0.0113000  0.1708154  0.0000267  0.0068632
  1.9625000  0.0000000  0.1880772  0.0006552  0.0034368
  1.9750000  0.0000000  0.1802399  0.0006307  0.0034152
  1.9875000  0.0113000  0.1634129  0.0000311  0.0068169
  1.9875000  0.0225000  0.1500010  0.0001026  0.0132366
  1.9875000  0.0000000  0.1724553  0.0006070  0.0033905
  2.0000000  0.0000000  0.1647308  0.0005841  0.0033626
  2.0000000  0.0113000  0.1560593  0.0000357  0.0067649
  2.0000000  0.0225000  0.1431899  0.0001134  0.0131462
  1.9875000  0.0338000  0.1365698  0.0001791  0.0191111
  2.0000000  0.0338000  0.1302974  0.0001982  0.0189980
  2.0000000  0.0450000  0.1173456  0.0003181  0.0244169
  1.9875000  0.0450000  0.1230753  0.0002924  0.0245391
  2.0125000  0.0338000  0.1240411  0.0002163  0.0188768
  2.0125000  0.0225000  0.1364129  0.0001241  0.0130472
  2.0250000  0.0225000  0.1296705  0.0001344  0.0129405
  2.0250000  0.0338000  0.1177981  0.0002321  0.0187497
  2.0250000  0.0450000  0.1058837  0.0003577  0.0241607
  2.0125000  0.0450000  0.1116168  0.0003407  0.0242895
  2.0125000  0.0113000  0.1487595  0.0000405  0.0067071
  2.0250000  0.0113000  0.1415185  0.0000453  0.0066435
  2.0125000  0.0000000  0.1570740  0.0005622  0.0033313
  2.0250000  0.0000000  0.1494928  0.0005416  0.0032963
  2.0375000  0.0113000  0.1343404  0.0000500  0.0065743
  2.0375000  0.0225000  0.1229616  0.0001434  0.0128275
  2.0375000  0.0000000  0.1419956  0.0005223  0.0032577
  2.0500000  0.0000000  0.1345908  0.0005049  0.0032154
  2.0500000  0.0113000  0.1272283  0.0000542  0.0065003
  2.0500000  0.0225000  0.1162825  0.0001502  0.0127108
  2.0375000  0.0338000  0.1115630  0.0002439  0.0186201
  2.0500000  0.0338000  0.1053276  0.0002490  0.0184937
  2.0500000  0.0450000  0.0943707  0.0003586  0.0239262
  2.0375000  0.0450000  0.1001387  0.0003654  0.0240367
  2.0625000  0.0338000  0.0990790  0.0002437  0.0183788
  2.0625000  0.0225000  0.1096262  0.0001533  0.0125943
  2.0750000  0.0225000  0.1029803  0.0001505  0.0124845
  2.0750000  0.0338000  0.0927980  0.0002223  0.0182878
  2.0750000  0.0450000  0.0826996  0.0002682  0.0238037
  2.0625000  0.0450000  0.0885647  0.0003299  0.0238423
  2.0625000  0.0113000  0.1201836  0.0000576  0.0064224
  2.0750000  0.0113000  0.1132050  0.0000597  0.0063426
  2.0625000  0.0000000  0.1272866  0.0004896  0.0031695
  2.0750000  0.0000000  0.1200904  0.0004770  0.0031206
  2.0875000  0.0113000  0.1062865  0.0000595  0.0062641
  2.0875000  0.0225000  0.0963245  0.0001381  0.0123913
  2.0875000  0.0000000  0.1130086  0.0004677  0.0030692
  2.1000000  0.0000000  0.1060445  0.0004623  0.0030170
  2.1000000  0.0113000  0.0994162  0.0000553  0.0061917
  2.1000000  0.0225000  0.0896261  0.0001119  0.0123291
  2.0875000  0.0338000  0.0864571  0.0001759  0.0182392
  2.1000000  0.0338000  0.0800010  0.0000897  0.0182684
  2.1000000  0.0450000  0.0706548 -0.0000325  0.0239840
  2.0875000  0.0450000  0.0767463  0.0001572  0.0238374
  2.1125000  0.0338000  0.0733831 -0.0000510  0.0184246
  2.1125000  0.0225000  0.0828262  0.0000603  0.0123195
  2.1250000  0.0226000  0.0758526 -0.0000375  0.0124221
  2.1250000  0.0338000  0.0665118 -0.0002922  0.0187606
  2.1250000  0.0451000  0.0578659 -0.0008302  0.0249097
  2.1125000  0.0451000  0.0643808 -0.0003415  0.0243168
  2.1125000  0.0113000  0.0925561  0.0000443  0.0061403
  2.1250000  0.0113000  0.0856792  0.0000269  0.0061252
  2.1125000  0.0000000  0.0991967  0.0004636  0.0029668
  2.1250000  0.0000000  0.0924638  0.0004738  0.0029158
  2.1375000  0.0113000  0.0787221 -0.0000062  0.0061497
  2.1375000  0.0226000  0.0685838 -0.0001960  0.0126834
  2.1375000  0.0000000  0.0858302  0.0004902  0.0028783
  2.1500000  0.0000000  0.0792578  0.0005243  0.0028605
  2.1500000  0.0113000  0.0715573 -0.0000739  0.0062620
  2.1500000  0.0226000  0.0608518 -0.0004740  0.0132070
  2.1375000  0.0339000  0.0592787 -0.0007146  0.0193903
  2.1500000  0.0339000  0.0514993 -0.0014160  0.0204902
  2.1499000  0.0452000  0.0437619 -0.0029073  0.0275290
  2.1375000  0.0451000  0.0510232 -0.0016144  0.0259087
  2.1624000  0.0340000  0.0429619 -0.0026470  0.0223965
  2.1625000  0.0226000  0.0522986 -0.0009858  0.0142240
  2.1750000  0.0227000  0.0424328 -0.0019889  0.0161330
  2.1749000  0.0340000  0.0333814 -0.0049218  0.0256123
  2.1749000  0.0454000  0.0279903 -0.0088286  0.0339350
  2.1624000  0.0453000  0.0360647 -0.0050852  0.0300574
  2.1625000  0.0113000  0.0639486 -0.0002040  0.0065486
  2.1750000  0.0113000  0.0554562 -0.0004793  0.0071949
  2.1625000  0.0000000  0.0726744  0.0005805  0.0028850
  2.1750000  0.0000000  0.0659071  0.0006676  0.0029901
  2.1875000  0.0114000  0.0453183 -0.0010877  0.0085553
  2.1875000  0.0228000  0.0303910 -0.0041010  0.0198118
  2.1875000  0.0000000  0.0586956  0.0007687  0.0033249
  2.2000000  0.0000000  0.0501965  0.0010599  0.0040168
  2.2000000  0.0114000  0.0316376 -0.0026255  0.0116768
  2.2000000  0.0228000  0.0150162 -0.0090079  0.0270028
  2.1874000  0.0341000  0.0225792 -0.0093619  0.0310931
  2.1999000  0.0342000  0.0111346 -0.0185299  0.0402830
  2.1999000  0.0456000  0.0138942 -0.0276735  0.0476346
  2.1874000  0.0455000  0.0200648 -0.0154990  0.0397272
  2.2124000  0.0343000  0.0029526 -0.0386724  0.0543003
  2.2125000  0.0229000 -0.0046184 -0.0218960  0.0423005
  2.2250000  0.0229000 -0.0164888 -0.0616504  0.0701526
  2.2249000  0.0344000  0.0062102 -0.0812734  0.0665698
  2.2249000  0.0458000  0.0182646 -0.0818992  0.0569684
  2.2124000  0.0457000  0.0125679 -0.0492472  0.0556595
  2.2125000  0.0114000  0.0103602 -0.0076440  0.0191388
  2.2250000  0.0114000 -0.0305908 -0.0278747  0.0455109
  2.2125000  0.0000000  0.0384770  0.0002040  0.0070008
  2.2250000  0.0000000  0.0104498 -0.0005888  0.0146489
  2.2375000  0.0115000 -0.0470135 -0.1456659  0.0977058
  2.2375000  0.0000000 -0.1001154 -0.1204571  0.1286006
  2.2500000  0.0000000 -0.2734643 -0.5679732  0.0018268
  2.2500000  0.0115000 -0.0821119 -0.4249499  0.0036645
  2.2500000  0.0229000  0.0118412 -0.2544166  0.0070880
  2.2375000  0.0229000 -0.0001732 -0.1659376  0.0803708
  2.2375000  0.0344000  0.0202342 -0.1415805  0.0549320
  2.2500000  0.0344000  0.0266817 -0.1745381  0.0102042
  2.2500000  0.0459000  0.0300366 -0.1323513  0.0130422
  2.2374000  0.0459000  0.0272308 -0.1165391  0.0427102
  2.2625000  0.0344000  0.0137498 -0.1415850 -0.0345279
  2.2626000  0.0459000  0.0213906 -0.1165515 -0.0166338
  2.2625000  0.0229000 -0.0073063 -0.1659425 -0.0661944
  2.2750000  0.0229000 -0.0307457 -0.0616572 -0.0559903
  2.2751000  0.0344000 -0.0067596 -0.0812858 -0.0461710
  2.2751000  0.0458000  0.0065911 -0.0819256 -0.0309213
  2.2625000  0.0115000 -0.0547862 -0.1456646 -0.0903747
  2.2625000  0.0000000 -0.1083156 -0.1204760 -0.1249511
  2.2750000  0.0000000 -0.0059651 -0.0006395 -0.0110217
  2.2750000  0.0114000 -0.0461371 -0.0278778 -0.0381876
  2.2876000  0.0343000 -0.0165220 -0.0386777 -0.0339085
  2.2876000  0.0457000 -0.0049592 -0.0492898 -0.0296455
  2.2875000  0.0229000 -0.0259857 -0.0218861 -0.0281193
  2.3001000  0.0228000 -0.0134842 -0.0090060 -0.0128461
  2.3001000  0.0342000 -0.0148338 -0.0185363 -0.0199113
  2.3001000  0.0456000 -0.0094897 -0.0277299 -0.0216631
  2.2875000  0.0114000 -0.0129688 -0.0076490 -0.0118083
  2.2875000  0.0000000  0.0138246  0.0001143 -0.0033716
  2.3000000  0.0000000  0.0173119  0.0009472 -0.0003845
  2.3000000  0.0114000  0.0005121 -0.0026262 -0.0043596
  2.3126000  0.0341000 -0.0099193 -0.0093898 -0.0107410
  2.3126000  0.0227000 -0.0052877 -0.0040999 -0.0056561
  2.3250000  0.0227000 -0.0004536 -0.0020111 -0.0020213
  2.3251000  0.0340000 -0.0056590 -0.0049785 -0.0052930
  2.3251000  0.0454000 -0.0071566 -0.0089012 -0.0080112
  2.3126000  0.0455000 -0.0092008 -0.0155680 -0.0137914
  2.3125000  0.0114000  0.0064127 -0.0010851 -0.0012207
  2.3250000  0.0113000  0.0087131 -0.0004806  0.0001179
  2.3125000  0.0000000  0.0175840  0.0006306  0.0003043
  2.3250000  0.0000000  0.0165379  0.0004982  0.0006294
  2.3375000  0.0113000  0.0093309 -0.0002140  0.0007488
  2.3375000  0.0227000  0.0022104 -0.0010194 -0.0001273
  2.3375000  0.0000000  0.0150071  0.0003781  0.0007396
  2.3500000  0.0000000  0.0132925  0.0002903  0.0007699
  2.3500000  0.0113000  0.0090864 -0.0000872  0.0010485
  2.3500000  0.0226000  0.0035572 -0.0005057  0.0009076
  2.3376000  0.0340000 -0.0026037 -0.0027107 -0.0020858
  2.3500000  0.0339000 -0.0006012 -0.0014723 -0.0001795
  2.3501000  0.0452000 -0.0031507 -0.0030065 -0.0015998
  2.3376000  0.0453000 -0.0049679 -0.0051709 -0.0041287
  2.3625000  0.0339000  0.0006231 -0.0007720  0.0009387
  2.3625000  0.0226000  0.0040942 -0.0002237  0.0014549
  2.3750000  0.0226000  0.0041334 -0.0000644  0.0017294
  2.3750000  0.0339000  0.0012966 -0.0003558  0.0015838
  2.3750000  0.0452000 -0.0008479 -0.0009192  0.0010243
  2.3625000  0.0452000 -0.0017917 -0.0017164  0.0000148
  2.3625000  0.0113000  0.0083906 -0.0000184  0.0011781
  2.3750000  0.0113000  0.0074630  0.0000186  0.0012147
  2.3625000  0.0000000  0.0115492  0.0002277  0.0007622
  2.3750000  0.0000000  0.0098449  0.0001789  0.0007333
  2.3875000  0.0113000  0.0064330  0.0000400  0.0011990
  2.3875000  0.0226000  0.0038760  0.0000318  0.0018410
  2.3875000  0.0000000  0.0082173  0.0001404  0.0006939
  2.4000000  0.0000000  0.0066854  0.0001098  0.0006487
  2.4000000  0.0113000  0.0053724  0.0000537  0.0011523
  2.4000000  0.0226000  0.0034436  0.0000930  0.0018503
  2.3875000  0.0339000  0.0016031 -0.0000975  0.0019320
  2.4000000  0.0339000  0.0016606  0.0000713  0.0020859
  2.4000000  0.0452000  0.0001573 -0.0000673  0.0019728
  2.3875000  0.0452000 -0.0002206 -0.0004078  0.0016365
  2.4124000  0.0340000  0.0015578  0.0001938  0.0021100
  2.4125000  0.0227000  0.0029188  0.0001394  0.0017933
  2.4250000  0.0227000  0.0023607  0.0001827  0.0016825
  2.4249000  0.0341000  0.0013585  0.0002976  0.0020360
  2.4249000  0.0454000  0.0004364  0.0003741  0.0021221
  2.4124000  0.0453000  0.0003586  0.0001777  0.0021174
  2.4125000  0.0113000  0.0043309  0.0000646  0.0010843
  2.4250000  0.0114000  0.0033455  0.0000759  0.0009982
  2.4125000  0.0000000  0.0052583  0.0000847  0.0005992
  2.4250000  0.0000000  0.0039536  0.0000657  0.0005472
  2.4375000  0.0114000  0.0024396  0.0000922  0.0008915
  2.4374000  0.0228000  0.0018112  0.0002306  0.0015233
  2.4375000  0.0000000  0.0027862  0.0000538  0.0004840
  2.4374000  0.0341000  0.0011100  0.0004010  0.0018838
  2.4374000  0.0455000  0.0004298  0.0005566  0.0020169
  2.4124000  0.0566000 -0.0006063  0.0000660  0.0019043
  2.3999000  0.0565000 -0.0009937 -0.0003401  0.0016332
  2.4248000  0.0567000 -0.0003392  0.0003857  0.0020033
  2.4248000  0.0680000 -0.0009340  0.0003228  0.0017457
  2.4123000  0.0679000 -0.0013102 -0.0001390  0.0015603
  2.3999000  0.0678000 -0.0017795 -0.0007301  0.0011857
  2.4373000  0.0569000 -0.0001638  0.0006675  0.0019672
  2.4372000  0.0682000 -0.0006360  0.0007197  0.0017812
  2.4371000  0.0795000 -0.0009762  0.0007117  0.0015052
  2.4369000  0.0907000 -0.0011922  0.0006522  0.0011767
  2.4246000  0.0905000 -0.0015818  0.0000169  0.0010393
  2.4247000  0.0793000 -0.0013419  0.0001940  0.0014094
  2.4123000  0.0792000 -0.0017619 -0.0004170  0.0011616
  2.3999000  0.0791000 -0.0022312 -0.0011976  0.0007255
  2.4122000  0.0904000 -0.0019969 -0.0007369  0.0007595
  2.3998000  0.0903000 -0.0024154 -0.0016929  0.0003108
  2.4121000  0.1016000 -0.0020606 -0.0010606  0.0003971
  2.3998000  0.1015000 -0.0024027 -0.0021618 -0.0000189
  2.4245000  0.1017000 -0.0016818 -0.0001830  0.0006758
  2.4244000  0.1128000 -0.0016756 -0.0003812  0.0003358
  2.4121000  0.1127000 -0.0020041 -0.0013568  0.0000868
  2.3998000  0.1127000 -0.0022648 -0.0025622 -0.0002597
  2.4367000  0.1019000 -0.0012990  0.0005589  0.0008334
  2.4366000  0.1129000 -0.0013187  0.0004493  0.0004946
  2.4366000  0.1239000 -0.0012764  0.0003424  0.0001759
  2.4366000  0.1349000 -0.0011960  0.0002536 -0.0001149
  2.4244000  0.1350000 -0.0014789 -0.0006839 -0.0002260
  2.4244000  0.1239000 -0.0015978 -0.0005527  0.0000357
  2.4121000  0.1239000 -0.0018735 -0.0015959 -0.0001626
  2.3998000  0.1239000 -0.0020605 -0.0028658 -0.0004164
  2.4121000  0.1350000 -0.0017050 -0.0017645 -0.0003606
  2.3998000  0.1351000 -0.0018338 -0.0030578 -0.0005082
  2.4121000  0.1462000 -0.0015244 -0.0018505 -0.0005155
  2.3998000  0.1463000 -0.0016133 -0.0031305 -0.0005539
  2.4245000  0.1461000 -0.0013374 -0.0007676 -0.0004506
  2.4246000  0.1574000 -0.0011875 -0.0007983 -0.0006423
  2.4122000  0.1575000 -0.0013451 -0.0018571 -0.0006392
  2.3998000  0.1575000 -0.0014120 -0.0030881 -0.0005748
  2.4367000  0.1460000 -0.0010913  0.0001860 -0.0003753
  2.4369000  0.1572000 -0.0009725  0.0001443 -0.0006060
  2.4371000  0.1685000 -0.0008471  0.0001247 -0.0008112
  2.4372000  0.1800000 -0.0007185  0.0001197 -0.0009916
  2.4248000  0.1801000 -0.0008839 -0.0007278 -0.0009591
  2.4247000  0.1687000 -0.0010362 -0.0007821 -0.0008114
  2.4123000  0.1688000 -0.0011734 -0.0017909 -0.0007445
  2.3999000  0.1689000 -0.0012338 -0.0029443 -0.0005897
  2.4123000  0.1802000 -0.0010081 -0.0016587 -0.0008397
  2.3999000  0.1803000 -0.0010719 -0.0027131 -0.0006114
  2.4124000  0.1917000 -0.0008399 -0.0014790 -0.0009322
  2.3999000  0.1917000 -0.0009132 -0.0024158 -0.0006499
  2.4248000  0.1916000 -0.0007260 -0.0006410 -0.0010908
  2.4249000  0.2032000 -0.0005528 -0.0005313 -0.0012059
  2.4124000  0.2033000 -0.0006555 -0.0012624 -0.0010222
  2.3999000  0.2033000 -0.0007374 -0.0020710 -0.0007062
  2.4373000  0.1915000 -0.0005848  0.0001286 -0.0011475
  2.4374000  0.2031000 -0.0004379  0.0001452 -0.0012753
  2.4374000  0.2149000 -0.0002679  0.0001635 -0.0013704
  2.4374000  0.2267000 -0.0000642  0.0001760 -0.0014277
  2.4250000  0.2268000 -0.0001062 -0.0002906 -0.0013646
  2.4249000  0.2150000 -0.0003516 -0.0004102 -0.0012983
  2.4124000  0.2150000 -0.0004367 -0.0010259 -0.0011075
  2.4000000  0.2150000 -0.0005209 -0.0017009 -0.0007806
  2.4125000  0.2268000 -0.0001632 -0.0007870 -0.0011813
  2.4000000  0.2268000 -0.0002390 -0.0013253 -0.0008633
  2.4125000  0.2388000  0.0001817 -0.0005625 -0.0012260
  2.4000000  0.2388000  0.0001342 -0.0009696 -0.0009367
  2.4250000  0.2388000  0.0001951 -0.0001830 -0.0013881
  2.4375000  0.2387000  0.0001826  0.0001760 -0.0014342
  2.3875000  0.2388000  0.0000419 -0.0014115 -0.0005054
  2.3875000  0.2269000 -0.0003391 -0.0019145 -0.0003944
  2.3750000  0.2388000 -0.0001106 -0.0018928  0.0000851
  2.3750000  0.2269000 -0.0004730 -0.0025622  0.0002483
  2.3625000  0.2388000 -0.0003430 -0.0024133  0.0008509
  2.3500000  0.2388000 -0.0006790 -0.0029666  0.0018070
  2.3500000  0.2268000 -0.0009091 -0.0040157  0.0021324
  2.3625000  0.2269000 -0.0006565 -0.0032648  0.0010833
  2.3375000  0.2388000 -0.0011461 -0.0035362  0.0029633
  2.3375000  0.2268000 -0.0012571 -0.0047960  0.0034114
  2.3250000  0.2388000 -0.0017765 -0.0041052  0.0043264
  2.3250000  0.2268000 -0.0017311 -0.0055813  0.0049285
  2.3125000  0.2388000 -0.0026044 -0.0046519  0.0058957
  2.3000000  0.2387000 -0.0036675 -0.0051545  0.0076611
  2.3000000  0.2267000 -0.0032029 -0.0070396  0.0086792
  2.3125000  0.2268000 -0.0023659 -0.0063407  0.0066870
  2.2875000  0.2387000 -0.0049930 -0.0055745  0.0095956
  2.2875000  0.2267000 -0.0042730 -0.0076335  0.0108777
  2.2750000  0.2386000 -0.0066192 -0.0059027  0.0116773
  2.2750000  0.2266000 -0.0056198 -0.0080936  0.0132481
  2.2625000  0.2386000 -0.0085624 -0.0060993  0.0138486
  2.2625000  0.2266000 -0.0072639 -0.0083675  0.0157288
  2.2500000  0.2386000 -0.0108450 -0.0061573  0.0160660
  2.2500000  0.2266000 -0.0092318 -0.0084491  0.0182671
  2.2625000  0.2147000 -0.0055601 -0.0109213  0.0172983
  2.2751000  0.2147000 -0.0042283 -0.0105416  0.0145162
  2.2500000  0.2147000 -0.0072071 -0.0110392  0.0201502
  2.2500000  0.2028000 -0.0048500 -0.0138938  0.0217103
  2.2626000  0.2028000 -0.0035265 -0.0137402  0.0185459
  2.2751000  0.2029000 -0.0025242 -0.0132403  0.0154746
  2.2375000  0.2147000 -0.0091789 -0.0108860  0.0229945
  2.2374000  0.2028000 -0.0065110 -0.0137020  0.0248694
  2.2375000  0.2266000 -0.0115235 -0.0083395  0.0208047
  2.2250000  0.2266000 -0.0141401 -0.0080365  0.0232714
  2.2249000  0.2147000 -0.0114741 -0.0104744  0.0257543
  2.2249000  0.2029000 -0.0084924 -0.0131610  0.0279180
  2.2375000  0.2386000 -0.0134690 -0.0060758  0.0182821
  2.2250000  0.2386000 -0.0164347 -0.0058589  0.0204372
  2.2125000  0.2387000 -0.0197218 -0.0055090  0.0224763
  2.2000000  0.2387000 -0.0233117 -0.0050667  0.0243797
  2.2000000  0.2267000 -0.0202671 -0.0069384  0.0277691
  2.2125000  0.2267000 -0.0170626 -0.0075498  0.0256041
  2.2124000  0.2148000 -0.0140629 -0.0098271  0.0283584
  2.1999000  0.2148000 -0.0169188 -0.0090055  0.0307527
  2.1999000  0.2031000 -0.0133121 -0.0112534  0.0333921
  2.2124000  0.2030000 -0.0107752 -0.0123196  0.0307796
  2.1874000  0.2149000 -0.0199911 -0.0080482  0.0328949
  2.1874000  0.2032000 -0.0160437 -0.0100178  0.0357055
  2.1875000  0.2268000 -0.0237097 -0.0062165  0.0297152
  2.1750000  0.2268000 -0.0273646 -0.0054344  0.0314276
  2.1749000  0.2150000 -0.0232327 -0.0070254  0.0347690
  2.1749000  0.2032000 -0.0189233 -0.0087010  0.0376947
  2.1875000  0.2387000 -0.0271705 -0.0045504  0.0261095
  2.1750000  0.2388000 -0.0312639 -0.0039887  0.0276404
  2.1624000  0.2150000 -0.0266067 -0.0059821  0.0363628
  2.1625000  0.2268000 -0.0311802 -0.0046375  0.0329017
  2.1500000  0.2269000 -0.0351316 -0.0038533  0.0341293
  2.1500000  0.2151000 -0.0300738 -0.0049520  0.0376746
  2.1499000  0.2034000 -0.0249193 -0.0060904  0.0407216
  2.1624000  0.2033000 -0.0218956 -0.0073752  0.0393619
  2.1625000  0.2388000 -0.0355536 -0.0034119  0.0289677
  2.1500000  0.2388000 -0.0400215 -0.0028394  0.0300793
  2.1375000  0.2389000 -0.0446130 -0.0022920  0.0309810
  2.1375000  0.2269000 -0.0391690 -0.0031132  0.0351398
  2.1250000  0.2388000 -0.0493151 -0.0017957  0.0317210
  2.1250000  0.2269000 -0.0432760 -0.0024407  0.0359470
  2.1125000  0.2389000 -0.0540798 -0.0013487  0.0322879
  2.1000000  0.2389000 -0.0589182 -0.0009681  0.0327118
  2.1000000  0.2269000 -0.0516398 -0.0013133  0.0370129
  2.1125000  0.2269000 -0.0474405 -0.0018330  0.0365570
  2.0875000  0.2389000 -0.0637925 -0.0006416  0.0330152
  2.0875000  0.2269000 -0.0558515 -0.0008766  0.0373407
  2.0750000  0.2389000 -0.0687020 -0.0003780  0.0332104
  2.0750000  0.2269000 -0.0600887 -0.0005242  0.0375591
  2.0625000  0.2389000 -0.0736351 -0.0001631  0.0333230
  2.0500000  0.2389000 -0.0785843 -0.0000072  0.0333768
  2.0500000  0.2269000 -0.0685782 -0.0000274  0.0377509
  2.0625000  0.2270000 -0.0643172 -0.0002415  0.0376829
  2.0375000  0.2389000 -0.0835316  0.0001178  0.0333801
  2.0375000  0.2270000 -0.0728041  0.0001363  0.0377539
  2.0250000  0.2389000 -0.0884982  0.0001950  0.0333491
  2.0250000  0.2269000 -0.0770750  0.0002454  0.0377323
  2.0125000  0.2389000 -0.0934545  0.0002562  0.0332917
  2.0000000  0.2389000 -0.0984272  0.0002801  0.0332195
  2.0000000  0.2269000 -0.0855841  0.0003636  0.0376067
  2.0125000  0.2270000 -0.0813046  0.0003236  0.0376718
  1.9875000  0.2389000 -0.1033844  0.0003003  0.0331366
  1.9875000  0.2270000 -0.0898159  0.0003863  0.0375189
  1.9750000  0.2389000 -0.1083574  0.0002917  0.0330518
  1.9750000  0.2269000 -0.0941027  0.0003829  0.0374407
  1.9625000  0.2389000 -0.1133118  0.0002900  0.0329654
  1.9500000  0.2389000 -0.1182828  0.0002646  0.0328834
  1.9500000  0.2269000 -0.1026317  0.0003525  0.0372729
  1.9625000  0.2270000 -0.0983370  0.0003767  0.0373493
  1.9375000  0.2389000 -0.1232326  0.0002526  0.0328046
  1.9375000  0.2270000 -0.1068672  0.0003307  0.0371880
  1.9250000  0.2389000 -0.1282002  0.0002196  0.0327339
  1.9250000  0.2269000 -0.1111680  0.0002960  0.0371231
  1.9125000  0.2389000 -0.1331452  0.0002060  0.0326681
  1.9000000  0.2389000 -0.1381097  0.0001723  0.0326107
  1.9000000  0.2269000 -0.1197120  0.0002377  0.0369993
  1.9125000  0.2270000 -0.1154049  0.0002722  0.0370518
  1.8875000  0.2389000 -0.1430496  0.0001602  0.0325584
  1.8875000  0.2270000 -0.1239483  0.0002140  0.0369405
  1.8750000  0.2389000 -0.1480109  0.0001278  0.0325148
  1.8750000  0.2269000 -0.1282596  0.0001804  0.0369026
  1.8625000  0.2389000 -0.1529466  0.0001204  0.0324756
  1.8500000  0.2389000 -0.1579056  0.0000915  0.0324433
  1.8500000  0.2269000 -0.1368115  0.0001357  0.0368301
  1.8625000  0.2270000 -0.1324955  0.0001632  0.0368576
  1.8375000  0.2389000 -0.1628371  0.0000882  0.0324145
  1.8375000  0.2270000 -0.1410452  0.0001219  0.0367946
  1.8250000  0.2389000 -0.1677939  0.0000618  0.0323922
  1.8250000  0.2269000 -0.1453638  0.0000969  0.0367781
  1.8125000  0.2389000 -0.1727224  0.0000637  0.0323722
  1.8000000  0.2389000 -0.1776780  0.0000406  0.0323570
  1.8000000  0.2269000 -0.1539184  0.0000716  0.0367419
  1.8125000  0.2270000 -0.1495960  0.0000904  0.0367524
  1.7875000  0.2389000 -0.1826035  0.0000457  0.0323430
  1.7875000  0.2270000 -0.1581475  0.0000674  0.0367213
  1.7750000  0.2389000 -0.1875580  0.0000242  0.0323337
  1.7750000  0.2269000 -0.1624716  0.0000496  0.0367179
  1.7625000  0.2389000 -0.1924816  0.0000334  0.0323247
  1.7500000  0.2389000 -0.1974359  0.0000139  0.0323188
  1.7500000  0.2269000 -0.1710264  0.0000386  0.0367024
  1.7625000  0.2270000 -0.1666989  0.0000516  0.0367035
  1.7375000  0.2389000 -0.2023573  0.0000251  0.0323127
  1.7375000  0.2270000 -0.1752501  0.0000410  0.0366898
  1.7250000  0.2389000 -0.2073113  0.0000059  0.0323100
  1.7250000  0.2269000 -0.1795791  0.0000272  0.0366931
  1.7125000  0.2389000 -0.2122314  0.0000200  0.0323065
  1.7000000  0.2389000 -0.2171858  0.0000019  0.0323050
  1.7000000  0.2269000 -0.1881332  0.0000247  0.0366878
  1.7125000  0.2270000 -0.1838009  0.0000346  0.0366844
  1.6875000  0.2389000 -0.2221043  0.0000169  0.0323025
  1.6875000  0.2270000 -0.1923514  0.0000309  0.0366787
  1.6750000  0.2389000 -0.2270589 -0.0000018  0.0323026
  1.6750000  0.2269000 -0.1966852  0.0000188  0.0366852
  1.6625000  0.2389000 -0.2319766  0.0000155  0.0323015
  1.6500000  0.2389000 -0.2369320 -0.0000027  0.0323017
  1.6500000  0.2269000 -0.2052387  0.0000205  0.0366841
  1.6625000  0.2270000 -0.2009015  0.0000293  0.0366789
  1.6375000  0.2389000 -0.2418484  0.0000149  0.0323005
  1.6375000  0.2270000 -0.2094514  0.0000288  0.0366764
  1.6250000  0.2389000 -0.2468041 -0.0000045  0.0323017
  1.6250000  0.2269000 -0.2137900  0.0000170  0.0366840
  1.6125000  0.2389000 -0.2517199  0.0000150  0.0323014
  1.6000000  0.2389000 -0.2566767 -0.0000042  0.0323021
  1.6000000  0.2269000 -0.2223432  0.0000205  0.0366843
  1.6125000  0.2270000 -0.2180010  0.0000293  0.0366786
  1.5875000  0.2389000 -0.2615912  0.0000154  0.0323013
  1.5875000  0.2270000 -0.2265505  0.0000301  0.0366770
  1.5750000  0.2389000 -0.2665485 -0.0000053  0.0323029
  1.5750000  0.2269000 -0.2308940  0.0000177  0.0366850
  1.5625000  0.2389000 -0.2714626  0.0000160  0.0323027
  1.5500000  0.2389000 -0.2764209 -0.0000045  0.0323036
  1.5500000  0.2269000 -0.2394470  0.0000220  0.0366857
  1.5625000  0.2270000 -0.2350998  0.0000313  0.0366799
  1.5375000  0.2389000 -0.2813338  0.0000166  0.0323028
  1.5375000  0.2270000 -0.2436491  0.0000324  0.0366784
  1.5250000  0.2389000 -0.2862926 -0.0000056  0.0323044
  1.5250000  0.2269000 -0.2479976  0.0000191  0.0366865
  1.5125000  0.2389000 -0.2912052  0.0000173  0.0323043
  1.5000000  0.2389000 -0.2961652 -0.0000047  0.0323051
  1.5000000  0.2269000 -0.2565505  0.0000237  0.0366872
  1.5125000  0.2270000 -0.2521982  0.0000337  0.0366815
  1.4875000  0.2389000 -0.3010765  0.0000179  0.0323043
  1.4875000  0.2270000 -0.2607473  0.0000348  0.0366798
  1.4750000  0.2389000 -0.3060369 -0.0000059  0.0323059
  1.4750000  0.2269000 -0.2651009  0.0000205  0.0366880
  1.4625000  0.2389000 -0.3109479  0.0000185  0.0323058
  1.4500000  0.2389000 -0.3159095 -0.0000050  0.0323067
  1.4500000  0.2269000 -0.2736537  0.0000253  0.0366887
  1.4625000  0.2270000 -0.2692963  0.0000361  0.0366831
  1.4375000  0.2389000 -0.3208192  0.0000191  0.0323058
  1.4375000  0.2270000 -0.2778453  0.0000372  0.0366812
  1.4250000  0.2389000 -0.3257813 -0.0000062  0.0323075
  1.4250000  0.2269000 -0.2822039  0.0000219  0.0366895
  1.4125000  0.2389000 -0.3306906  0.0000198  0.0323074
  1.4000000  0.2389000 -0.3356539 -0.0000051  0.0323081
  1.4000000  0.2269000 -0.2907566  0.0000272  0.0366901
  1.4125000  0.2270000 -0.2863941  0.0000385  0.0366846
  1.3875000  0.2389000 -0.3405619  0.0000206  0.0323071
  1.3875000  0.2270000 -0.2949428  0.0000400  0.0366824
  1.3750000  0.2389000 -0.3455254 -0.0000061  0.0323086
  1.3750000  0.2269000 -0.2993064  0.0000241  0.0366905
  1.3625000  0.2389000 -0.3504331  0.0000218  0.0323083
  1.3500000  0.2389000 -0.3553978 -0.0000042  0.0323086
  1.3500000  0.2269000 -0.3078589  0.0000305  0.0366904
  1.3625000  0.2270000 -0.3034914  0.0000420  0.0366854
  1.3375000  0.2389000 -0.3603039  0.0000235  0.0323070
  1.3375000  0.2270000 -0.3120397  0.0000447  0.0366820
  1.3250000  0.2389000 -0.3652687 -0.0000040  0.0323078
  1.3250000  0.2269000 -0.3164081  0.0000287  0.0366894
  1.3125000  0.2389000 -0.3701743  0.0000263  0.0323064
  1.3000000  0.2389000 -0.3751401 -0.0000001  0.0323053
  1.3000000  0.2269000 -0.3249600  0.0000380  0.0366867
  1.3125000  0.2270000 -0.3205877  0.0000488  0.0366833
  1.2875000  0.2389000 -0.3800440  0.0000304  0.0323020
  1.2875000  0.2270000 -0.3291353  0.0000547  0.0366764
  1.2750000  0.2389000 -0.3850095  0.0000030  0.0323005
  1.2750000  0.2269000 -0.3335085  0.0000399  0.0366815
  1.2625000  0.2389000 -0.3899125  0.0000369  0.0322963
  1.2500000  0.2389000 -0.3948786  0.0000114  0.0322916
  1.2500000  0.2269000 -0.3420597  0.0000553  0.0366721
  1.2625000  0.2270000 -0.3376825  0.0000636  0.0366725
  1.2375000  0.2389000 -0.3997793  0.0000463  0.0322838
  1.2375000  0.2270000 -0.3462294  0.0000764  0.0366571
  1.2250000  0.2389000 -0.4047446  0.0000207  0.0322769
  1.2250000  0.2269000 -0.3506073  0.0000651  0.0366568
  1.2125000  0.2389000 -0.4096438  0.0000602  0.0322661
  1.2000000  0.2389000 -0.4146090  0.0000379  0.0322535
  1.2000000  0.2269000 -0.3591580  0.0000920  0.0366326
  1.2125000  0.2270000 -0.3547759  0.0000949  0.0366411
  1.1875000  0.2389000 -0.4195051  0.0000796  0.0322361
  1.1875000  0.2270000 -0.3633226  0.0001207  0.0366079
  1.1750000  0.2389000 -0.4244686  0.0000587  0.0322179
  1.1750000  0.2269000 -0.3677057  0.0001165  0.0365962
  1.1625000  0.2389000 -0.4293623  0.0001067  0.0321939
  1.1500000  0.2389000 -0.4343248  0.0000908  0.0321658
  1.1500000  0.2269000 -0.3762581  0.0001625  0.0365433
  1.1625000  0.2270000 -0.3718699  0.0001562  0.0365674
  1.1375000  0.2389000 -0.4392146  0.0001427  0.0321305
  1.1375000  0.2270000 -0.3804192  0.0002029  0.0365009
  1.1250000  0.2389000 -0.4441745  0.0001298  0.0320919
  1.1250000  0.2269000 -0.3848099  0.0002098  0.0364691
  1.1125000  0.2389000 -0.4490614  0.0001896  0.0320448
  1.1000000  0.2389000 -0.4540201  0.0001832  0.0319906
  1.1000000  0.2269000 -0.3933715  0.0002823  0.0363686
  1.1125000  0.2270000 -0.3889729  0.0002631  0.0364178
  1.0875000  0.2389000 -0.4589032  0.0002479  0.0319267
  1.0875000  0.2270000 -0.3975349  0.0003370  0.0362987
  1.0750000  0.2389000 -0.4638604  0.0002449  0.0318568
  1.0750000  0.2269000 -0.4019405  0.0003564  0.0362376
  1.0625000  0.2389000 -0.4687426  0.0003173  0.0317761
  1.0500000  0.2389000 -0.4737019  0.0003196  0.0316868
  1.0500000  0.2269000 -0.4105330  0.0004525  0.0360745
  1.0625000  0.2270000 -0.4061118  0.0004232  0.0361554
  1.0375000  0.2389000 -0.4785857  0.0003938  0.0315871
  1.0375000  0.2270000 -0.4147146  0.0005154  0.0359734
  1.0250000  0.2389000 -0.4835513  0.0003946  0.0314823
  1.0250000  0.2269000 -0.4191551  0.0005367  0.0358839
  1.0125000  0.2389000 -0.4884457  0.0004690  0.0313695
  1.0000000  0.2389000 -0.4934296  0.0004638  0.0312539
  1.0000000  0.2269000 -0.4278367  0.0006140  0.0356818
  1.0125000  0.2270000 -0.4233607  0.0005999  0.0357780
  0.9875000  0.2389000 -0.4983477  0.0005238  0.0311375
  0.9875000  0.2270000 -0.4320773  0.0006486  0.0355783
  0.9750000  0.2389000 -0.5033677  0.0004941  0.0310314
  0.9750000  0.2269000 -0.4366033  0.0006204  0.0355059
  0.9625000  0.2389000 -0.5083363  0.0005219  0.0309398
  0.9500000  0.2389000 -0.5134267  0.0004411  0.0308783
  0.9500000  0.2269000 -0.4455125  0.0005081  0.0354309
  0.9625000  0.2270000 -0.4409057  0.0006088  0.0354443
  0.9375000  0.2389000 -0.5184864  0.0003907  0.0308623
  0.9375000  0.2270000 -0.4499032  0.0003770  0.0354625
  0.9250000  0.2389000 -0.5236980  0.0001942  0.0309219
  0.9250000  0.2269000 -0.4546217  0.0001077  0.0355977
  0.9125000  0.2389000 -0.5289121 -0.0000202  0.0310913
  0.9000000  0.2389000 -0.5342711 -0.0004599  0.0314157
  0.9000000  0.2269000 -0.4639026 -0.0008296  0.0362568
  0.9125000  0.2270000 -0.4591354 -0.0002528  0.0358361
  0.8875000  0.2389000 -0.5396159 -0.0010185  0.0319658
  0.8875000  0.2269000 -0.4684823 -0.0016577  0.0369056
  0.8750000  0.2388000 -0.5453145 -0.0019853  0.0328260
  0.8750000  0.2269000 -0.4732165 -0.0029848  0.0378580
  0.8625000  0.2389000 -0.5508819 -0.0033633  0.0341204
  0.8500000  0.2388000 -0.5567131 -0.0055924  0.0360294
  0.8500000  0.2269000 -0.4825727 -0.0075757  0.0409740
  0.8625000  0.2269000 -0.4779072 -0.0048144  0.0391879
  0.8375000  0.2388000 -0.5622610 -0.0089842  0.0386651
  0.8375000  0.2269000 -0.4866002 -0.0116038  0.0431929
  0.8250000  0.2388000 -0.5674511 -0.0143787  0.0421878
  0.8250000  0.2268000 -0.4897986 -0.0175340  0.0458630
  0.8125000  0.2388000 -0.5712588 -0.0227160  0.0464133
  0.8000000  0.2387000 -0.5727911 -0.0353977  0.0504391
  0.8000000  0.2267000 -0.4913137 -0.0372949  0.0499665
  0.8125000  0.2268000 -0.4914557 -0.0258944  0.0484523
  0.7875000  0.2387000 -0.5707270 -0.0530353  0.0519236
  0.7875000  0.2267000 -0.4888605 -0.0512595  0.0487623
  0.7750000  0.2386000 -0.5660205 -0.0737933  0.0475425
  0.7750000  0.2266000 -0.4853100 -0.0658721  0.0431459
  0.7625000  0.2386000 -0.5613316 -0.0915985  0.0349901
  0.7625000  0.2266000 -0.4825368 -0.0773293  0.0325332
  0.7500000  0.2386000 -0.5608634 -0.0988271  0.0162050
  0.7500000  0.2266000 -0.4828448 -0.0817261  0.0184084
  0.7625000  0.2147000 -0.4053321 -0.0661149  0.0314003
  0.7751000  0.2147000 -0.4071739 -0.0583439  0.0404795
  0.7500000  0.2147000 -0.4057470 -0.0690112  0.0202858
  0.7500000  0.2028000 -0.3295147 -0.0590116  0.0218327
  0.7626000  0.2028000 -0.3291458 -0.0569949  0.0309400
  0.7751000  0.2029000 -0.3305120 -0.0515136  0.0386720
  0.7375000  0.2147000 -0.4089309 -0.0661144  0.0091667
  0.7374000  0.2028000 -0.3320939 -0.0569967  0.0127228
  0.7375000  0.2266000 -0.4867923 -0.0773302  0.0042859
  0.7250000  0.2266000 -0.4938193 -0.0658735 -0.0063271
  0.7249000  0.2147000 -0.4143775 -0.0583505  0.0000730
  0.7249000  0.2029000 -0.3364062 -0.0515133  0.0049725
  0.7375000  0.2386000 -0.5662517 -0.0915975 -0.0025780
  0.7250000  0.2386000 -0.5758666 -0.0737903 -0.0151353
  0.7125000  0.2387000 -0.5854978 -0.0530333 -0.0195468
  0.7000000  0.2387000 -0.5923920 -0.0353892 -0.0180641
  0.7000000  0.2267000 -0.5082073 -0.0373277 -0.0131848
  0.7125000  0.2267000 -0.5015767 -0.0512498 -0.0119747
  0.7124000  0.2148000 -0.4205997 -0.0478417 -0.0058182
  0.6999000  0.2148000 -0.4265511 -0.0370051 -0.0084397
  0.6999000  0.2031000 -0.3467813 -0.0354341 -0.0040201
  0.7124000  0.2030000 -0.3416146 -0.0438140 -0.0006927
  0.6874000  0.2149000 -0.4311169 -0.0273318 -0.0086919
  0.6874000  0.2032000 -0.3511183 -0.0273884 -0.0053843
  0.6875000  0.2268000 -0.5126238 -0.0259374 -0.0116954
  0.6750000  0.2268000 -0.5151773 -0.0175034 -0.0091273
  0.6749000  0.2150000 -0.4342221 -0.0195604 -0.0075756
  0.6749000  0.2032000 -0.3546019 -0.0204533 -0.0053886
  0.6875000  0.2387000 -0.5958528 -0.0226815 -0.0140510
  0.6750000  0.2388000 -0.5968585 -0.0143437 -0.0098403
  0.6624000  0.2150000 -0.4361953 -0.0136674 -0.0058863
  0.6625000  0.2268000 -0.5163600 -0.0116034 -0.0064709
  0.6500000  0.2269000 -0.5165856 -0.0075571 -0.0042572
  0.6500000  0.2151000 -0.4371683 -0.0093040 -0.0042010
  0.6499000  0.2034000 -0.3584581 -0.0105731 -0.0037248
  0.6624000  0.2033000 -0.3569504 -0.0149112 -0.0047067
  0.6625000  0.2388000 -0.5966898 -0.0090297 -0.0063292
  0.6500000  0.2388000 -0.5961117 -0.0055881 -0.0036898
  0.6375000  0.2389000 -0.5952798 -0.0033758 -0.0018092
  0.6375000  0.2269000 -0.5163491 -0.0048181 -0.0024831
  0.6250000  0.2388000 -0.5946573 -0.0019814 -0.0005120
  0.6250000  0.2269000 -0.5159378 -0.0029824 -0.0011533
  0.6125000  0.2389000 -0.5938909 -0.0010149  0.0003514
  0.6000000  0.2389000 -0.5934307 -0.0004612  0.0008916
  0.6000000  0.2269000 -0.5151046 -0.0008024  0.0004306
  0.6125000  0.2269000 -0.5154872 -0.0016545 -0.0002132
  0.5875000  0.2389000 -0.5929947 -0.0000391  0.0012119
  0.5875000  0.2269000 -0.5146623 -0.0002161  0.0008437
  0.5750000  0.2389000 -0.5927397  0.0001921  0.0013843
  0.5750000  0.2269000 -0.5143859  0.0001352  0.0010899
  0.5625000  0.2389000 -0.5925194  0.0003933  0.0014384
  0.5500000  0.2389000 -0.5924032  0.0004382  0.0014272
  0.5500000  0.2269000 -0.5139264  0.0005101  0.0012564
  0.5625000  0.2270000 -0.5140214  0.0003803  0.0012167
  0.5375000  0.2389000 -0.5922426  0.0005266  0.0013653
  0.5375000  0.2270000 -0.5135733  0.0006188  0.0012381
  0.5250000  0.2389000 -0.5922172  0.0004932  0.0012743
  0.5250000  0.2269000 -0.5135690  0.0006285  0.0011814
  0.5125000  0.2389000 -0.5921257  0.0005302  0.0011670
  0.5000000  0.2389000 -0.5921511  0.0004627  0.0010512
  0.5000000  0.2269000 -0.5133534  0.0006224  0.0010053
  0.5125000  0.2270000 -0.5132938  0.0006604  0.0011024
  0.4875000  0.2389000 -0.5920947  0.0004755  0.0009347
  0.4875000  0.2270000 -0.5131261  0.0006124  0.0009023
  0.4750000  0.2389000 -0.5921447  0.0003930  0.0008229
  0.4750000  0.2269000 -0.5132232  0.0005445  0.0008034
  0.4625000  0.2389000 -0.5921060  0.0004011  0.0007174
  0.4500000  0.2389000 -0.5921676  0.0003182  0.0006183
  0.4500000  0.2269000 -0.5131532  0.0004626  0.0006128
  0.4625000  0.2270000 -0.5130292  0.0005292  0.0007077
  0.4375000  0.2389000 -0.5921342  0.0003251  0.0005280
  0.4375000  0.2270000 -0.5129755  0.0004381  0.0005248
  0.4250000  0.2389000 -0.5921981  0.0002430  0.0004484
  0.4250000  0.2269000 -0.5131118  0.0003657  0.0004497
  0.4125000  0.2389000 -0.5921663  0.0002564  0.0003778
  0.4000000  0.2389000 -0.5922302  0.0001816  0.0003145
  0.4000000  0.2269000 -0.5130950  0.0002941  0.0003186
  0.4125000  0.2270000 -0.5129476  0.0003532  0.0003826
  0.3875000  0.2389000 -0.5921957  0.0001987  0.0002593
  0.3875000  0.2270000 -0.5129347  0.0002804  0.0002622
  0.3750000  0.2389000 -0.5922565  0.0001276  0.0002132
  0.3750000  0.2269000 -0.5130846  0.0002205  0.0002181
  0.3625000  0.2389000 -0.5922203  0.0001525  0.0001739
  0.3500000  0.2389000 -0.5922792  0.0000890  0.0001393
  0.3500000  0.2269000 -0.5130850  0.0001760  0.0001439
  0.3625000  0.2270000 -0.5129301  0.0002215  0.0001804
  0.3375000  0.2389000 -0.5922393  0.0001170  0.0001101
  0.3375000  0.2270000 -0.5129299  0.0001758  0.0001126
  0.3250000  0.2389000 -0.5922948  0.0000562  0.0000872
  0.3250000  0.2269000 -0.5130836  0.0001286  0.0000910
  0.3125000  0.2389000 -0.5922534  0.0000906  0.0000683
  0.3000000  0.2389000 -0.5923076  0.0000358  0.0000516
  0.3000000  0.2269000 -0.5130883  0.0001071  0.0000546
  0.3125000  0.2270000 -0.5129316  0.0001417  0.0000735
  0.2875000  0.2389000 -0.5922635  0.0000717  0.0000379
  0.2875000  0.2270000 -0.5129341  0.0001170  0.0000388
  0.2750000  0.2389000 -0.5923152  0.0000179  0.0000282
  0.2750000  0.2269000 -0.5130884  0.0000787  0.0000304
  0.2625000  0.2389000 -0.5922703  0.0000585  0.0000206
  0.2500000  0.2389000 -0.5923216  0.0000091  0.0000134
  0.2500000  0.2269000 -0.5130933  0.0000721  0.0000151
  0.2625000  0.2270000 -0.5129366  0.0000997  0.0000243
  0.2375000  0.2389000 -0.5922748  0.0000497  0.0000077
  0.2375000  0.2270000 -0.5129389  0.0000880  0.0000073
  0.2250000  0.2389000 -0.5923243 -0.0000002  0.0000046
  0.2250000  0.2269000 -0.5130929  0.0000549  0.0000057
  0.2125000  0.2389000 -0.5922777  0.0000439  0.0000025
  0.2000000  0.2389000 -0.5923274 -0.0000026 -0.0000003
  0.2000000  0.2269000 -0.5130970  0.0000565  0.0000005
  0.2125000  0.2270000 -0.5129407  0.0000804  0.0000052
  0.1875000  0.2389000 -0.5922794  0.0000404 -0.0000024
  0.1875000  0.2270000 -0.5129422  0.0000756 -0.0000035
  0.1750000  0.2389000 -0.5923278 -0.0000075 -0.0000026
  0.1750000  0.2269000 -0.5130958  0.0000451 -0.0000022
  0.1625000  0.2389000 -0.5922803  0.0000383 -0.0000025
  0.1500000  0.2389000 -0.5923293 -0.0000070 -0.0000035
  0.1500000  0.2269000 -0.5130992  0.0000507 -0.0000032
  0.1625000  0.2270000 -0.5129433  0.0000728 -0.0000004
  0.1375000  0.2389000 -0.5922808  0.0000371 -0.0000043
  0.1375000  0.2270000 -0.5129441  0.0000712 -0.0000058
  0.1250000  0.2389000 -0.5923288 -0.0000098 -0.0000035
  0.1250000  0.2269000 -0.5130974  0.0000419 -0.0000033
  0.1125000  0.2389000 -0.5922809  0.0000366 -0.0000026
  0.1000000  0.2389000 -0.5923297 -0.0000081 -0.0000030
  0.1000000  0.2269000 -0.5131003  0.0000491 -0.0000029
  0.1125000  0.2270000 -0.5129446  0.0000705 -0.0000007
  0.0875000  0.2389000 -0.5922810  0.0000364 -0.0000034
  0.0875000  0.2270000 -0.5129450  0.0000701 -0.0000051
  0.0750000  0.2389000 -0.5923289 -0.0000103 -0.0000023
  0.0750000  0.2269000 -0.5130982  0.0000412 -0.0000023
  0.0625000  0.2389000 -0.5922809  0.0000363 -0.0000012
  0.0500000  0.2389000 -0.5923297 -0.0000082 -0.0000015
  0.0500000  0.2269000 -0.5131008  0.0000489 -0.0000015
  0.0625000  0.2270000 -0.5129452  0.0000701  0.0000006
  0.0375000  0.2389000 -0.5922809  0.0000363 -0.0000019
  0.0375000  0.2270000 -0.5129454  0.0000701 -0.0000036
  0.0250000  0.2389000 -0.5923288 -0.0000103 -0.0000008
  0.0250000  0.2269000 -0.5130985  0.0000412 -0.0000008
  0.0125000  0.2389000 -0.5922809  0.0000364  0.0000003
  0.0000000  0.2389000 -0.5923296 -0.0000082  0.0000000
  0.0000000  0.2269000 -0.5131010  0.0000489  0.0000000
  0.0125000  0.2270000 -0.5129454  0.0000701  0.0000021
 -0.0125000  0.2389000 -0.5922809  0.0000364 -0.0000003
 -0.0125000  0.2270000 -0.5129454  0.0000701 -0.0000021
 -0.0250000  0.2389000 -0.5923288 -0.0000103  0.0000008
 -0.0250000  0.2269000 -0.5130985  0.0000412  0.0000008
 -0.0375000  0.2389000 -0.5922809  0.0000363  0.0000019
 -0.0500000  0.2389000 -0.5923297 -0.0000082  0.0000015
 -0.0500000  0.2269000 -0.5131008  0.0000489  0.0000015
 -0.0375000  0.2270000 -0.5129454  0.0000701  0.0000036
 -0.0625000  0.2389000 -0.5922809  0.0000363  0.0000012
 -0.0625000  0.2270000 -0.5129452  0.0000701 -0.0000006
 -0.0750000  0.2389000 -0.5923289 -0.0000103  0.0000023
 -0.0750000  0.2269000 -0.5130982  0.0000412  0.0000023
 -0.0875000  0.2389000 -0.5922810  0.0000364  0.0000034
 -0.1000000  0.2389000 -0.5923297 -0.0000081  0.0000030
 -0.1000000  0.2269000 -0.5131003  0.0000491  0.0000029
 -0.0875000  0.2270000 -0.5129450  0.0000701  0.0000051
 -0.1125000  0.2389000 -0.5922809  0.0000366  0.0000026
 -0.1125000  0.2270000 -0.5129446  0.0000705  0.0000007
 -0.1250000  0.2389000 -0.5923288 -0.0000098  0.0000035
 -0.1250000  0.2269000 -0.5130974  0.0000419  0.0000033
 -0.1375000  0.2389000 -0.5922808  0.0000371  0.0000043
 -0.1500000  0.2389000 -0.5923293 -0.0000070  0.0000035
 -0.1500000  0.2269000 -0.5130992  0.0000507  0.0000032
 -0.1375000  0.2270000 -0.5129441  0.0000712  0.0000058
 -0.1625000  0.2389000 -0.5922803  0.0000383  0.0000025
 -0.1625000  0.2270000 -0.5129433  0.0000728  0.0000004
 -0.1750000  0.2389000 -0.5923278 -0.0000075  0.0000026
 -0.1750000  0.2269000 -0.5130958  0.0000451  0.0000022
 -0.1875000  0.2389000 -0.5922794  0.0000404  0.0000024
 -0.2000000  0.2389000 -0.5923274 -0.0000026  0.0000003
 -0.2000000  0.2269000 -0.5130970  0.0000565 -0.0000005
 -0.1875000  0.2270000 -0.5129422  0.0000756  0.0000035
 -0.2125000  0.2389000 -0.5922777  0.0000439 -0.0000025
 -0.2125000  0.2270000 -0.5129407  0.0000804 -0.0000052
 -0.2250000  0.2389000 -0.5923243 -0.0000002 -0.0000046
 -0.2250000  0.2269000 -0.5130929  0.0000549 -0.0000057
 -0.2375000  0.2389000 -0.5922748  0.0000497 -0.0000077
 -0.2500000  0.2389000 -0.5923216  0.0000091 -0.0000134
 -0.2500000  0.2269000 -0.5130933  0.0000721 -0.0000151
 -0.2375000  0.2270000 -0.5129389  0.0000880 -0.0000073
 -0.2625000  0.2389000 -0.5922703  0.0000585 -0.0000206
 -0.2625000  0.2270000 -0.5129366  0.0000997 -0.0000243
 -0.2750000  0.2389000 -0.5923152  0.0000179 -0.0000282
 -0.2750000  0.2269000 -0.5130884  0.0000787 -0.0000304
 -0.2875000  0.2389000 -0.5922635  0.0000717 -0.0000379
 -0.3000000  0.2389000 -0.5923076  0.0000358 -0.0000516
 -0.3000000  0.2269000 -0.5130883  0.0001071 -0.0000546
 -0.2875000  0.2270000 -0.5129341  0.0001170 -0.0000388
 -0.3125000  0.2389000 -0.5922534  0.0000906 -0.0000683
 -0.3125000  0.2270000 -0.5129316  0.0001417 -0.0000735
 -0.3250000  0.2389000 -0.5922948  0.0000562 -0.0000872
 -0.3250000  0.2269000 -0.5130836  0.0001286 -0.0000910
 -0.3375000  0.2389000 -0.5922393  0.0001170 -0.0001101
 -0.3500000  0.2389000 -0.5922792  0.0000890 -0.0001393
 -0.3500000  0.2269000 -0.5130850  0.0001760 -0.0001439
 -0.3375000  0.2270000 -0.5129299  0.0001758 -0.0001126
 -0.3625000  0.2389000 -0.5922203  0.0001525 -0.0001739
 -0.3625000  0.2270000 -0.5129301  0.0002215 -0.0001804
 -0.3750000  0.2389000 -0.5922565  0.0001276 -0.0002132
 -0.3750000  0.2269000 -0.5130846  0.0002205 -0.0002181
 -0.3875000  0.2389000 -0.5921957  0.0001987 -0.0002593
 -0.4000000  0.2389000 -0.5922302  0.0001816 -0.0003145
 -0.4000000  0.2269000 -0.5130950  0.0002941 -0.0003186
 -0.3875000  0.2270000 -0.5129347  0.0002804 -0.0002622
 -0.4125000  0.2389000 -0.5921663  0.0002564 -0.0003778
 -0.4125000  0.2270000 -0.5129476  0.0003532 -0.0003826
 -0.4250000  0.2389000 -0.5921981  0.0002430 -0.0004484
 -0.4250000  0.2269000 -0.5131118  0.0003657 -0.0004497
 -0.4375000  0.2389000 -0.5921342  0.0003251 -0.0005280
 -0.4500000  0.2389000 -0.5921676  0.0003182 -0.0006183
 -0.4500000  0.2269000 -0.5131532  0.0004626 -0.0006128
 -0.4375000  0.2270000 -0.5129754  0.0004381 -0.0005248
 -0.4625000  0.2389000 -0.5921060  0.0004011 -0.0007174
 -0.4625000  0.2270000 -0.5130292  0.0005292 -0.0007077
 -0.4750000  0.2389000 -0.5921447  0.0003930 -0.0008229
 -0.4750000  0.2269000 -0.5132232  0.0005445 -0.0008034
 -0.4875000  0.2389000 -0.5920947  0.0004755 -0.0009348
 -0.5000000  0.2389000 -0.5921510  0.0004627 -0.0010513
 -0.5000000  0.2269000 -0.5133535  0.0006224 -0.0010055
 -0.4875000  0.2270000 -0.5131262  0.0006125 -0.0009023
 -0.5125000  0.2389000 -0.5921254  0.0005298 -0.0011670
 -0.5125000  0.2270000 -0.5132937  0.0006600 -0.0011029
 -0.5250000  0.2389000 -0.5922169  0.0004927 -0.0012738
 -0.5250000  0.2269000 -0.5135680  0.0006268 -0.0011814
 -0.5375000  0.2389000 -0.5922426  0.0005272 -0.0013644
 -0.5500000  0.2389000 -0.5924038  0.0004402 -0.0014268
 -0.5500000  0.2269000 -0.5139260  0.0005149 -0.0012564
 -0.5375000  0.2270000 -0.5135730  0.0006189 -0.0012361
 -0.5625000  0.2389000 -0.5925214  0.0003954 -0.0014422
 -0.5625000  0.2270000 -0.5140214  0.0003859 -0.0012185
 -0.5750000  0.2389000 -0.5928030  0.0001932 -0.0013833
 -0.5750000  0.2269000 -0.5144833  0.0001126 -0.0010894
 -0.5875000  0.2389000 -0.5930764 -0.0000160 -0.0012128
 -0.6000000  0.2389000 -0.5934951 -0.0004599 -0.0008928
 -0.6000000  0.2269000 -0.5152029 -0.0008234 -0.0004295
 -0.5875000  0.2270000 -0.5147045 -0.0002457 -0.0008435
 -0.6125000  0.2389000 -0.5938921 -0.0010151 -0.0003472
 -0.6125000  0.2269000 -0.5154866 -0.0016496  0.0002128
 -0.6250000  0.2388000 -0.5946590 -0.0019861  0.0005077
 -0.6250000  0.2269000 -0.5159363 -0.0029817  0.0011510
 -0.6375000  0.2389000 -0.5952786 -0.0033618  0.0018053
 -0.6500000  0.2388000 -0.5961776 -0.0055926  0.0036975
 -0.6500000  0.2269000 -0.5167527 -0.0075731  0.0042639
 -0.6375000  0.2269000 -0.5163505 -0.0048084  0.0024803
 -0.6625000  0.2388000 -0.5967718 -0.0089804  0.0063242
 -0.6625000  0.2269000 -0.5164871 -0.0115987  0.0064738
 -0.6750000  0.2388000 -0.5970279 -0.0143779  0.0098393
 -0.6750000  0.2268000 -0.5154047 -0.0175296  0.0091258
 -0.6875000  0.2388000 -0.5958978 -0.0227141  0.0140594
 -0.7000000  0.2387000 -0.5924968 -0.0353956  0.0180689
 -0.7000000  0.2267000 -0.5083664 -0.0372933  0.0131946
 -0.6875000  0.2268000 -0.5127826 -0.0258910  0.0117018
 -0.7125000  0.2387000 -0.5854979 -0.0530351  0.0195444
 -0.7125000  0.2267000 -0.5016365 -0.0512565  0.0119736
 -0.7250000  0.2386000 -0.5758640 -0.0737935  0.0151372
 -0.7250000  0.2266000 -0.4938221 -0.0658713  0.0063310
 -0.7375000  0.2386000 -0.5662521 -0.0915975  0.0025781
 -0.7375000  0.2266000 -0.4867923 -0.0773298 -0.0042863
 -0.7500000  0.2386000 -0.5608634 -0.0988271 -0.0162053
 -0.7500000  0.2266000 -0.4828448 -0.0817261 -0.0184087
 -0.7375000  0.2147000 -0.4089299 -0.0661140 -0.0091665
 -0.7249000  0.2147000 -0.4143775 -0.0583446 -0.0000743
 -0.7500000  0.2147000 -0.4057470 -0.0690112 -0.0202856
 -0.7500000  0.2028000 -0.3295147 -0.0590116 -0.0218321
 -0.7374000  0.2028000 -0.3320942 -0.0569963 -0.0127223
 -0.7249000  0.2029000 -0.3364070 -0.0515129 -0.0049756
 -0.7625000  0.2147000 -0.4053331 -0.0661152 -0.0314000
 -0.7626000  0.2028000 -0.3291454 -0.0569952 -0.0309394
 -0.7625000  0.2266000 -0.4825369 -0.0773295 -0.0325336
 -0.7750000  0.2266000 -0.4853078 -0.0658740 -0.0431421
 -0.7751000  0.2147000 -0.4071738 -0.0583497 -0.0404801
 -0.7751000  0.2029000 -0.3305105 -0.0515142 -0.0386750
 -0.7625000  0.2386000 -0.5613314 -0.0915984 -0.0349900
 -0.7750000  0.2386000 -0.5660231 -0.0737899 -0.0475407
 -0.7875000  0.2387000 -0.5707266 -0.0530338 -0.0519250
 -0.8000000  0.2387000 -0.5726905 -0.0353914 -0.0504321
 -0.8000000  0.2267000 -0.4911620 -0.0373298 -0.0499689
 -0.7875000  0.2267000 -0.4887995 -0.0512520 -0.0487668
 -0.7876000  0.2148000 -0.4097839 -0.0478419 -0.0463475
 -0.8001000  0.2148000 -0.4121207 -0.0370054 -0.0489518
 -0.8001000  0.2031000 -0.3349616 -0.0354351 -0.0476256
 -0.7876000  0.2030000 -0.3327612 -0.0438168 -0.0443176
 -0.8126000  0.2149000 -0.4130647 -0.0273325 -0.0491811
 -0.8126000  0.2032000 -0.3363281 -0.0273907 -0.0489686
 -0.8125000  0.2268000 -0.4913058 -0.0259404 -0.0484589
 -0.8250000  0.2268000 -0.4895780 -0.0175068 -0.0458703
 -0.8251000  0.2150000 -0.4125506 -0.0195613 -0.0480531
 -0.8251000  0.2032000 -0.3368332 -0.0204576 -0.0489537
 -0.8125000  0.2387000 -0.5712167 -0.0226841 -0.0464117
 -0.8250000  0.2388000 -0.5672858 -0.0143454 -0.0421915
 -0.8376000  0.2150000 -0.4109007 -0.0136666 -0.0463550
 -0.8375000  0.2268000 -0.4864814 -0.0116083 -0.0432039
 -0.8500000  0.2269000 -0.4824181 -0.0075616 -0.0409697
 -0.8500000  0.2151000 -0.4082461 -0.0093063 -0.0446481
 -0.8501000  0.2034000 -0.3347201 -0.0105735 -0.0472491
 -0.8376000  0.2033000 -0.3361985 -0.0149131 -0.0482519
 -0.8375000  0.2388000 -0.5621836 -0.0090312 -0.0386787
 -0.8500000  0.2388000 -0.5566555 -0.0055884 -0.0360267
 -0.8625000  0.2389000 -0.5508823 -0.0033767 -0.0341229
 -0.8625000  0.2269000 -0.4779055 -0.0048241 -0.0391898
 -0.8750000  0.2388000 -0.5453119 -0.0019819 -0.0328302
 -0.8750000  0.2269000 -0.4732177 -0.0029853 -0.0378597
 -0.8875000  0.2389000 -0.5396155 -0.0010179 -0.0319626
 -0.9000000  0.2389000 -0.5342109 -0.0004598 -0.0314210
 -0.9000000  0.2269000 -0.4638148 -0.0008109 -0.0362547
 -0.8875000  0.2269000 -0.4684827 -0.0016622 -0.0369053
 -0.9125000  0.2389000 -0.5288393 -0.0000408 -0.0311020
 -0.9125000  0.2269000 -0.4590978 -0.0002265 -0.0358414
 -0.9250000  0.2389000 -0.5236446  0.0001920 -0.0309251
 -0.9250000  0.2269000 -0.4545350  0.0001277 -0.0355960
 -0.9375000  0.2389000 -0.5184838  0.0003885 -0.0308657
 -0.9500000  0.2389000 -0.5134260  0.0004392 -0.0308779
 -0.9500000  0.2269000 -0.4455129  0.0005040 -0.0354307
 -0.9375000  0.2270000 -0.4499031  0.0003720 -0.0354632
 -0.9625000  0.2389000 -0.5083363  0.0005213 -0.0309391
 -0.9625000  0.2270000 -0.4409060  0.0006087 -0.0354424
 -0.9750000  0.2389000 -0.5033680  0.0004944 -0.0310310
 -0.9750000  0.2269000 -0.4366042  0.0006219 -0.0355058
 -0.9875000  0.2389000 -0.4983480  0.0005241 -0.0311375
 -1.0000000  0.2389000 -0.4934297  0.0004639 -0.0312540
 -1.0000000  0.2269000 -0.4278366  0.0006139 -0.0356820
 -0.9875000  0.2270000 -0.4320775  0.0006489 -0.0355787
 -1.0125000  0.2389000 -0.4884457  0.0004690 -0.0313695
 -1.0125000  0.2270000 -0.4233606  0.0005999 -0.0357780
 -1.0250000  0.2389000 -0.4835513  0.0003946 -0.0314823
 -1.0250000  0.2269000 -0.4191551  0.0005366 -0.0358839
 -1.0375000  0.2389000 -0.4785857  0.0003938 -0.0315871
 -1.0500000  0.2389000 -0.4737019  0.0003195 -0.0316868
 -1.0500000  0.2269000 -0.4105330  0.0004525 -0.0360745
 -1.0375000  0.2270000 -0.4147146  0.0005153 -0.0359734
 -1.0625000  0.2389000 -0.4687426  0.0003173 -0.0317761
 -1.0625000  0.2270000 -0.4061118  0.0004232 -0.0361553
 -1.0750000  0.2389000 -0.4638604  0.0002449 -0.0318568
 -1.0750000  0.2269000 -0.4019405  0.0003564 -0.0362376
 -1.0875000  0.2389000 -0.4589032  0.0002479 -0.0319267
 -1.1000000  0.2389000 -0.4540202  0.0001832 -0.0319906
 -1.1000000  0.2269000 -0.3933715  0.0002823 -0.0363686
 -1.0875000  0.2270000 -0.3975349  0.0003370 -0.0362987
 -1.1125000  0.2389000 -0.4490614  0.0001896 -0.0320448
 -1.1125000  0.2270000 -0.3889729  0.0002632 -0.0364178
 -1.1250000  0.2389000 -0.4441746  0.0001298 -0.0320919
 -1.1250000  0.2269000 -0.3848100  0.0002098 -0.0364691
 -1.1375000  0.2389000 -0.4392146  0.0001427 -0.0321305
 -1.1500000  0.2389000 -0.4343248  0.0000908 -0.0321658
 -1.1500000  0.2269000 -0.3762581  0.0001625 -0.0365433
 -1.1375000  0.2270000 -0.3804192  0.0002029 -0.0365009
 -1.1625000  0.2389000 -0.4293623  0.0001067 -0.0321939
 -1.1625000  0.2270000 -0.3718699  0.0001562 -0.0365674
 -1.1750000  0.2389000 -0.4244686  0.0000587 -0.0322179
 -1.1750000  0.2269000 -0.3677057  0.0001165 -0.0365962
 -1.1875000  0.2389000 -0.4195051  0.0000797 -0.0322361
 -1.2000000  0.2389000 -0.4146090  0.0000379 -0.0322535
 -1.2000000  0.2269000 -0.3591580  0.0000920 -0.0366326
 -1.1875000  0.2270000 -0.3633226  0.0001207 -0.0366079
 -1.2125000  0.2389000 -0.4096438  0.0000602 -0.0322661
 -1.2125000  0.2270000 -0.3547759  0.0000949 -0.0366411
 -1.2250000  0.2389000 -0.4047446  0.0000207 -0.0322769
 -1.2250000  0.2269000 -0.3506073  0.0000651 -0.0366568
 -1.2375000  0.2389000 -0.3997793  0.0000463 -0.0322838
 -1.2500000  0.2389000 -0.3948786  0.0000114 -0.0322916
 -1.2500000  0.2269000 -0.3420597  0.0000553 -0.0366721
 -1.2375000  0.2270000 -0.3462294  0.0000764 -0.0366571
 -1.2625000  0.2389000 -0.3899125  0.0000369 -0.0322963
 -1.2625000  0.2270000 -0.3376825  0.0000636 -0.0366725
 -1.2750000  0.2389000 -0.3850095  0.0000030 -0.0323005
 -1.2750000  0.2269000 -0.3335085  0.0000399 -0.0366815
 -1.2875000  0.2389000 -0.3800440  0.0000304 -0.0323020
 -1.3000000  0.2389000 -0.3751401 -0.0000001 -0.0323053
 -1.3000000  0.2269000 -0.3249600  0.0000380 -0.0366867
 -1.2875000  0.2270000 -0.3291353  0.0000547 -0.0366764
 -1.3125000  0.2389000 -0.3701743  0.0000263 -0.0323064
 -1.3125000  0.2270000 -0.3205877  0.0000488 -0.0366833
 -1.3250000  0.2389000 -0.3652687 -0.0000040 -0.0323078
 -1.3250000  0.2269000 -0.3164081  0.0000287 -0.0366894
 -1.3375000  0.2389000 -0.3603039  0.0000235 -0.0323070
 -1.3500000  0.2389000 -0.3553978 -0.0000042 -0.0323086
 -1.3500000  0.2269000 -0.3078589  0.0000305 -0.0366904
 -1.3375000  0.2270000 -0.3120397  0.0000447 -0.0366820
 -1.3625000  0.2389000 -0.3504331  0.0000218 -0.0323083
 -1.3625000  0.2270000 -0.3034914  0.0000420 -0.0366854
 -1.3750000  0.2389000 -0.3455254 -0.0000061 -0.0323086
 -1.3750000  0.2269000 -0.2993064  0.0000241 -0.0366905
 -1.3875000  0.2389000 -0.3405619  0.0000206 -0.0323071
 -1.4000000  0.2389000 -0.3356539 -0.0000051 -0.0323081
 -1.4000000  0.2269000 -0.2907566  0.0000272 -0.0366901
 -1.3875000  0.2270000 -0.2949428  0.0000400 -0.0366824
 -1.4125000  0.2389000 -0.3306906  0.0000198 -0.0323074
 -1.4125000  0.2270000 -0.2863941  0.0000385 -0.0366846
 -1.4250000  0.2389000 -0.3257813 -0.0000062 -0.0323075
 -1.4250000  0.2269000 -0.2822039  0.0000219 -0.0366895
 -1.4375000  0.2389000 -0.3208192  0.0000191 -0.0323058
 -1.4500000  0.2389000 -0.3159095 -0.0000050 -0.0323067
 -1.4500000  0.2269000 -0.2736537  0.0000253 -0.0366887
 -1.4375000  0.2270000 -0.2778453  0.0000372 -0.0366812
 -1.4625000  0.2389000 -0.3109479  0.0000185 -0.0323058
 -1.4625000  0.2270000 -0.2692963  0.0000361 -0.0366831
 -1.4750000  0.2389000 -0.3060369 -0.0000059 -0.0323059
 -1.4750000  0.2269000 -0.2651009  0.0000205 -0.0366880
 -1.4875000  0.2389000 -0.3010765  0.0000179 -0.0323043
 -1.5000000  0.2389000 -0.2961652 -0.0000047 -0.0323051
 -1.5000000  0.2269000 -0.2565505  0.0000237 -0.0366872
 -1.4875000  0.2270000 -0.2607473  0.0000348 -0.0366798
 -1.5125000  0.2389000 -0.2912052  0.0000173 -0.0323043
 -1.5125000  0.2270000 -0.2521982  0.0000337 -0.0366815
 -1.5250000  0.2389000 -0.2862926 -0.0000056 -0.0323044
 -1.5250000  0.2269000 -0.2479976  0.0000191 -0.0366865
 -1.5375000  0.2389000 -0.2813338  0.0000166 -0.0323028
 -1.5500000  0.2389000 -0.2764209 -0.0000045 -0.0323036
 -1.5500000  0.2269000 -0.2394470  0.0000220 -0.0366857
 -1.5375000  0.2270000 -0.2436491  0.0000324 -0.0366784
 -1.5625000  0.2389000 -0.2714626  0.0000160 -0.0323027
 -1.5625000  0.2270000 -0.2350998  0.0000313 -0.0366799
 -1.5750000  0.2389000 -0.2665485 -0.0000053 -0.0323029
 -1.5750000  0.2269000 -0.2308940  0.0000177 -0.0366850
 -1.5875000  0.2389000 -0.2615912  0.0000154 -0.0323013
 -1.6000000  0.2389000 -0.2566767 -0.0000042 -0.0323021
 -1.6000000  0.2269000 -0.2223432  0.0000205 -0.0366843
 -1.5875000  0.2270000 -0.2265505  0.0000301 -0.0366770
 -1.6125000  0.2389000 -0.2517199  0.0000150 -0.0323014
 -1.6125000  0.2270000 -0.2180010  0.0000293 -0.0366786
 -1.6250000  0.2389000 -0.2468041 -0.0000045 -0.0323017
 -1.6250000  0.2269000 -0.2137900  0.0000170 -0.0366840
 -1.6375000  0.2389000 -0.2418484  0.0000149 -0.0323005
 -1.6500000  0.2389000 -0.2369320 -0.0000027 -0.0323017
 -1.6500000  0.2269000 -0.2052387  0.0000205 -0.0366841
 -1.6375000  0.2270000 -0.2094514  0.0000288 -0.0366764
 -1.6625000  0.2389000 -0.2319766  0.0000155 -0.0323015
 -1.6625000  0.2270000 -0.2009015  0.0000293 -0.0366789
 -1.6750000  0.2389000 -0.2270589 -0.0000018 -0.0323026
 -1.6750000  0.2269000 -0.1966852  0.0000188 -0.0366852
 -1.6875000  0.2389000 -0.2221043  0.0000169 -0.0323025
 -1.7000000  0.2389000 -0.2171858  0.0000019 -0.0323050
 -1.7000000  0.2269000 -0.1881332  0.0000247 -0.0366878
 -1.6875000  0.2270000 -0.1923514  0.0000309 -0.0366787
 -1.7125000  0.2389000 -0.2122314  0.0000200 -0.0323065
 -1.7125000  0.2270000 -0.1838009  0.0000346 -0.0366844
 -1.7250000  0.2389000 -0.2073113  0.0000059 -0.0323100
 -1.7250000  0.2269000 -0.1795791  0.0000272 -0.0366931
 -1.7375000  0.2389000 -0.2023573  0.0000251 -0.0323127
 -1.7500000  0.2389000 -0.1974359  0.0000139 -0.0323188
 -1.7500000  0.2269000 -0.1710264  0.0000386 -0.0367024
 -1.7375000  0.2270000 -0.1752501  0.0000410 -0.0366898
 -1.7625000  0.2389000 -0.1924816  0.0000334 -0.0323247
 -1.7625000  0.2270000 -0.1666989  0.0000516 -0.0367035
 -1.7750000  0.2389000 -0.1875580  0.0000242 -0.0323337
 -1.7750000  0.2269000 -0.1624716  0.0000496 -0.0367179
 -1.7875000  0.2389000 -0.1826035  0.0000457 -0.0323430
 -1.8000000  0.2389000 -0.1776780  0.0000406 -0.0323570
 -1.8000000  0.2269000 -0.1539184  0.0000716 -0.0367419
 -1.7875000  0.2270000 -0.1581475  0.0000674 -0.0367213
 -1.8125000  0.2389000 -0.1727224  0.0000637 -0.0323722
 -1.8125000  0.2270000 -0.1495960  0.0000904 -0.0367524
 -1.8250000  0.2389000 -0.1677939  0.0000618 -0.0323922
 -1.8250000  0.2269000 -0.1453638  0.0000969 -0.0367781
 -1.8375000  0.2389000 -0.1628371  0.0000882 -0.0324145
 -1.8500000  0.2389000 -0.1579056  0.0000915 -0.0324433
 -1.8500000  0.2269000 -0.1368115  0.0001357 -0.0368301
 -1.8375000  0.2270000 -0.1410452  0.0001219 -0.0367946
 -1.8625000  0.2389000 -0.1529466  0.0001204 -0.0324756
 -1.8625000  0.2270000 -0.1324955  0.0001632 -0.0368576
 -1.8750000  0.2389000 -0.1480109  0.0001278 -0.0325148
 -1.8750000  0.2269000 -0.1282596  0.0001804 -0.0369026
 -1.8875000  0.2389000 -0.1430496  0.0001602 -0.0325584
 -1.9000000  0.2389000 -0.1381097  0.0001723 -0.0326107
 -1.9000000  0.2269000 -0.1197120  0.0002377 -0.0369993
 -1.8875000  0.2270000 -0.1239483  0.0002140 -0.0369405
 -1.9125000  0.2389000 -0.1331452  0.0002060 -0.0326681
 -1.9125000  0.2270000 -0.1154049  0.0002722 -0.0370518
 -1.9250000  0.2389000 -0.1282002  0.0002196 -0.0327339
 -1.9250000  0.2269000 -0.1111680  0.0002960 -0.0371231
 -1.9375000  0.2389000 -0.1232326  0.0002526 -0.0328046
 -1.9500000  0.2389000 -0.1182828  0.0002646 -0.0328834
 -1.9500000  0.2269000 -0.1026317  0.0003525 -0.0372729
 -1.9375000  0.2270000 -0.1068672  0.0003307 -0.0371880
 -1.9625000  0.2389000 -0.1133118  0.0002900 -0.0329654
 -1.9625000  0.2270000 -0.0983370  0.0003767 -0.0373493
 -1.9750000  0.2389000 -0.1083574  0.0002917 -0.0330518
 -1.9750000  0.2269000 -0.0941027  0.0003829 -0.0374407
 -1.9875000  0.2389000 -0.1033844  0.0003004 -0.0331366
 -2.0000000  0.2389000 -0.0984272  0.0002801 -0.0332195
 -2.0000000  0.2269000 -0.0855841  0.0003637 -0.0376067
 -1.9875000  0.2270000 -0.0898159  0.0003863 -0.0375189
 -2.0125000  0.2389000 -0.0934545  0.0002561 -0.0332917
 -2.0125000  0.2270000 -0.0813046  0.0003236 -0.0376719
 -2.0250000  0.2389000 -0.0884982  0.0001949 -0.0333491
 -2.0250000  0.2269000 -0.0770750  0.0002452 -0.0377323
 -2.0375000  0.2389000 -0.0835315  0.0001179 -0.0333801
 -2.0500000  0.2389000 -0.0785842 -0.0000070 -0.0333769
 -2.0500000  0.2269000 -0.0685782 -0.0000268 -0.0377510
 -2.0375000  0.2270000 -0.0728041  0.0001363 -0.0377538
 -2.0625000  0.2389000 -0.0736345 -0.0001631 -0.0333233
 -2.0625000  0.2270000 -0.0643170 -0.0002409 -0.0376839
 -2.0750000  0.2389000 -0.0687115 -0.0003788 -0.0332063
 -2.0750000  0.2269000 -0.0600987 -0.0005268 -0.0375600
 -2.0875000  0.2389000 -0.0638007 -0.0006387 -0.0330056
 -2.1000000  0.2389000 -0.0589216 -0.0009667 -0.0327075
 -2.1000000  0.2269000 -0.0516497 -0.0013156 -0.0370136
 -2.0875000  0.2270000 -0.0558556 -0.0008794 -0.0373353
 -2.1125000  0.2389000 -0.0540806 -0.0013483 -0.0322870
 -2.1125000  0.2269000 -0.0474404 -0.0018327 -0.0365576
 -2.1250000  0.2388000 -0.0493143 -0.0017967 -0.0317212
 -2.1250000  0.2269000 -0.0432758 -0.0024403 -0.0359475
 -2.1375000  0.2389000 -0.0446124 -0.0022917 -0.0309823
 -2.1500000  0.2388000 -0.0400295 -0.0028383 -0.0300754
 -2.1500000  0.2269000 -0.0351442 -0.0038543 -0.0341272
 -2.1375000  0.2269000 -0.0391687 -0.0031134 -0.0351408
 -2.1625000  0.2388000 -0.0355579 -0.0034069 -0.0289603
 -2.1625000  0.2269000 -0.0311872 -0.0046323 -0.0328894
 -2.1750000  0.2388000 -0.0312685 -0.0039897 -0.0276367
 -2.1750000  0.2268000 -0.0273719 -0.0054330 -0.0314202
 -2.1875000  0.2388000 -0.0271725 -0.0045492 -0.0261038
 -2.2000000  0.2387000 -0.0233165 -0.0050683 -0.0243810
 -2.2000000  0.2267000 -0.0202746 -0.0069310 -0.0277609
 -2.1875000  0.2268000 -0.0237188 -0.0062094 -0.0297059
 -2.2125000  0.2387000 -0.0197217 -0.0055093 -0.0224771
 -2.2125000  0.2267000 -0.0170624 -0.0075477 -0.0256003
 -2.2250000  0.2386000 -0.0164347 -0.0058587 -0.0204371
 -2.2250000  0.2266000 -0.0141405 -0.0080363 -0.0232714
 -2.2375000  0.2386000 -0.0134691 -0.0060758 -0.0182821
 -2.2375000  0.2266000 -0.0115237 -0.0083394 -0.0208048
 -2.2500000  0.2386000 -0.0108451 -0.0061573 -0.0160661
 -2.2500000  0.2266000 -0.0092319 -0.0084490 -0.0182671
 -2.2375000  0.2147000 -0.0091790 -0.0108859 -0.0229946
 -2.2249000  0.2147000 -0.0114743 -0.0104744 -0.0257548
 -2.2500000  0.2147000 -0.0072071 -0.0110391 -0.0201502
 -2.2500000  0.2028000 -0.0048501 -0.0138937 -0.0217103
 -2.2374000  0.2028000 -0.0065109 -0.0137020 -0.0248695
 -2.2249000  0.2029000 -0.0084918 -0.0131612 -0.0279181
 -2.2625000  0.2147000 -0.0055601 -0.0109213 -0.0172983
 -2.2626000  0.2028000 -0.0035264 -0.0137401 -0.0185461
 -2.2625000  0.2266000 -0.0072640 -0.0083674 -0.0157288
 -2.2750000  0.2266000 -0.0056201 -0.0080935 -0.0132482
 -2.2751000  0.2147000 -0.0042283 -0.0105416 -0.0145160
 -2.2751000  0.2029000 -0.0025237 -0.0132409 -0.0154748
 -2.2625000  0.2386000 -0.0085626 -0.0060991 -0.0138486
 -2.2750000  0.2386000 -0.0066192 -0.0059027 -0.0116773
 -2.2875000  0.2387000 -0.0049926 -0.0055745 -0.0095953
 -2.3000000  0.2387000 -0.0036666 -0.0051530 -0.0076603
 -2.3000000  0.2267000 -0.0032026 -0.0070474 -0.0086831
 -2.2875000  0.2267000 -0.0042717 -0.0076349 -0.0108771
 -2.2876000  0.2148000 -0.0031810 -0.0099283 -0.0118727
 -2.3001000  0.2148000 -0.0023991 -0.0091405 -0.0094441
 -2.3001000  0.2030000 -0.0013426 -0.0114045 -0.0099286
 -2.2876000  0.2030000 -0.0018087 -0.0124355 -0.0125761
 -2.3126000  0.2149000 -0.0018234 -0.0082051 -0.0072553
 -2.3126000  0.2032000 -0.0010576 -0.0101954 -0.0075714
 -2.3125000  0.2268000 -0.0023658 -0.0063476 -0.0066909
 -2.3250000  0.2268000 -0.0017309 -0.0055820 -0.0049282
 -2.3251000  0.2150000 -0.0014180 -0.0071993 -0.0053402
 -2.3251000  0.2032000 -0.0009144 -0.0089039 -0.0055388
 -2.3125000  0.2387000 -0.0026051 -0.0046538 -0.0058968
 -2.3250000  0.2388000 -0.0017759 -0.0041045 -0.0043259
 -2.3376000  0.2150000 -0.0011376 -0.0061679 -0.0037080
 -2.3375000  0.2268000 -0.0012573 -0.0047959 -0.0034115
 -2.3500000  0.2268000 -0.0009090 -0.0040156 -0.0021323
 -2.3500000  0.2151000 -0.0009429 -0.0051459 -0.0023458
 -2.3501000  0.2033000 -0.0008381 -0.0063059 -0.0024190
 -2.3376000  0.2033000 -0.0008534 -0.0075879 -0.0038239
 -2.3375000  0.2388000 -0.0011459 -0.0035360 -0.0029632
 -2.3500000  0.2388000 -0.0006785 -0.0029654 -0.0018061
 -2.3625000  0.2388000 -0.0003423 -0.0024114 -0.0008501
 -2.3625000  0.2269000 -0.0006566 -0.0032650 -0.0010834
 -2.3750000  0.2388000 -0.0001097 -0.0018917 -0.0000847
 -2.3750000  0.2269000 -0.0004730 -0.0025620 -0.0002483
 -2.3875000  0.2388000  0.0000430 -0.0014105  0.0005056
 -2.4000000  0.2388000  0.0001351 -0.0009689  0.0009369
 -2.4000000  0.2269000 -0.0002379 -0.0013241  0.0008637
 -2.3875000  0.2269000 -0.0003385 -0.0019150  0.0003938
 -2.4125000  0.2388000  0.0001820 -0.0005620  0.0012263
 -2.4125000  0.2268000 -0.0001625 -0.0007858  0.0011818
 -2.4250000  0.2388000  0.0001956 -0.0001828  0.0013878
 -2.4250000  0.2268000 -0.0001058 -0.0002892  0.0013648
 -2.4375000  0.2388000  0.0001831  0.0001770  0.0014341
 -2.4375000  0.2268000 -0.0000635  0.0001763  0.0014281
 -2.4124000  0.2151000 -0.0004358 -0.0010250  0.0011075
 -2.4249000  0.2150000 -0.0003506 -0.0004098  0.0012982
 -2.4249000  0.2032000 -0.0005523 -0.0005317  0.0012055
 -2.4124000  0.2033000 -0.0006548 -0.0012613  0.0010224
 -2.3999000  0.2034000 -0.0007365 -0.0020680  0.0007078
 -2.4000000  0.2151000 -0.0005198 -0.0016988  0.0007813
 -2.4374000  0.2149000 -0.0002669  0.0001639  0.0013710
 -2.4374000  0.2032000 -0.0004373  0.0001451  0.0012753
 -2.4124000  0.1917000 -0.0008396 -0.0014796  0.0009315
 -2.4248000  0.1916000 -0.0007261 -0.0006403  0.0010909
 -2.4248000  0.1801000 -0.0008836 -0.0007284  0.0009592
 -2.4123000  0.1802000 -0.0010077 -0.0016592  0.0008397
 -2.3999000  0.1803000 -0.0010717 -0.0027125  0.0006120
 -2.3999000  0.1918000 -0.0009128 -0.0024145  0.0006506
 -2.4373000  0.1915000 -0.0005844  0.0001291  0.0011478
 -2.4372000  0.1800000 -0.0007185  0.0001202  0.0009926
 -2.4123000  0.1688000 -0.0011734 -0.0017909  0.0007444
 -2.4247000  0.1687000 -0.0010360 -0.0007821  0.0008108
 -2.4246000  0.1574000 -0.0011873 -0.0007978  0.0006435
 -2.4122000  0.1575000 -0.0013448 -0.0018580  0.0006394
 -2.3998000  0.1575000 -0.0014120 -0.0030881  0.0005748
 -2.3999000  0.1689000 -0.0012338 -0.0029444  0.0005897
 -2.4371000  0.1686000 -0.0008469  0.0001247  0.0008116
 -2.4369000  0.1572000 -0.0009724  0.0001449  0.0006072
 -2.4121000  0.1462000 -0.0015242 -0.0018505  0.0005149
 -2.4245000  0.1462000 -0.0013373 -0.0007676  0.0004510
 -2.4244000  0.1350000 -0.0014789 -0.0006841  0.0002270
 -2.4121000  0.1350000 -0.0017053 -0.0017647  0.0003607
 -2.3998000  0.1351000 -0.0018342 -0.0030595  0.0005083
 -2.3998000  0.1463000 -0.0016132 -0.0031305  0.0005539
 -2.4367000  0.1460000 -0.0010911  0.0001860  0.0003746
 -2.4366000  0.1349000 -0.0011958  0.0002528  0.0001152
 -2.4121000  0.1239000 -0.0018735 -0.0015972  0.0001631
 -2.4244000  0.1239000 -0.0015975 -0.0005527 -0.0000358
 -2.4244000  0.1128000 -0.0016756 -0.0003804 -0.0003361
 -2.4121000  0.1127000 -0.0020043 -0.0013581 -0.0000863
 -2.3998000  0.1127000 -0.0022655 -0.0025650  0.0002608
 -2.3997000  0.1239000 -0.0020609 -0.0028675  0.0004168
 -2.4366000  0.1239000 -0.0012764  0.0003423 -0.0001758
 -2.4366000  0.1129000 -0.0013187  0.0004496 -0.0004957
 -2.4121000  0.1016000 -0.0020608 -0.0010608 -0.0003969
 -2.4245000  0.1017000 -0.0016819 -0.0001830 -0.0006753
 -2.4246000  0.0905000 -0.0015817  0.0000161 -0.0010400
 -2.4122000  0.0904000 -0.0019966 -0.0007370 -0.0007610
 -2.3998000  0.0903000 -0.0024153 -0.0016895 -0.0003140
 -2.3998000  0.1015000 -0.0024034 -0.0021607  0.0000193
 -2.4367000  0.1018000 -0.0012990  0.0005590 -0.0008340
 -2.4369000  0.0907000 -0.0011916  0.0006529 -0.0011784
 -2.4123000  0.0791000 -0.0017621 -0.0004174 -0.0011606
 -2.4247000  0.0793000 -0.0013414  0.0001940 -0.0014090
 -2.4248000  0.0680000 -0.0009329  0.0003236 -0.0017463
 -2.4123000  0.0679000 -0.0013100 -0.0001382 -0.0015615
 -2.3999000  0.0678000 -0.0017776 -0.0007302 -0.0011872
 -2.3998000  0.0790000 -0.0022311 -0.0011978 -0.0007251
 -2.4371000  0.0795000 -0.0009765  0.0007113 -0.0015044
 -2.4372000  0.0682000 -0.0006357  0.0007185 -0.0017819
 -2.4124000  0.0566000 -0.0006058  0.0000655 -0.0019043
 -2.4248000  0.0567000 -0.0003386  0.0003857 -0.0020032
 -2.3999000  0.0565000 -0.0009927 -0.0003393 -0.0016348
 -2.4373000  0.0568000 -0.0001634  0.0006673 -0.0019675
 -2.3875000  0.0565000 -0.0015300 -0.0009014 -0.0011309
 -2.3750000  0.0565000 -0.0022499 -0.0017279 -0.0003039
 -2.3750000  0.0677000 -0.0029871 -0.0026962  0.0003807
 -2.3874000  0.0677000 -0.0023397 -0.0015392 -0.0005655
 -2.3625000  0.0565000 -0.0031659 -0.0029796  0.0009662
 -2.3625000  0.0678000 -0.0036780 -0.0043945  0.0017461
 -2.3501000  0.0565000 -0.0042562 -0.0049183  0.0028517
 -2.3501000  0.0678000 -0.0042999 -0.0069189  0.0036341
 -2.3376000  0.0566000 -0.0053980 -0.0079981  0.0055717
 -2.3252000  0.0567000 -0.0062378 -0.0129686  0.0093296
 -2.3252000  0.0680000 -0.0042548 -0.0163910  0.0091994
 -2.3377000  0.0679000 -0.0046321 -0.0107075  0.0061321
 -2.3127000  0.0569000 -0.0060143 -0.0210439  0.0141401
 -2.3128000  0.0682000 -0.0024898 -0.0248312  0.0124864
 -2.3002000  0.0570000 -0.0033605 -0.0338895  0.0192051
 -2.3003000  0.0684000  0.0014259 -0.0367144  0.0149236
 -2.2877000  0.0572000  0.0030839 -0.0527574  0.0220836
 -2.2752000  0.0574000  0.0132207 -0.0760860  0.0185928
 -2.2753000  0.0689000  0.0161373 -0.0685385  0.0092648
 -2.2878000  0.0687000  0.0078907 -0.0519650  0.0146108
 -2.3129000  0.0795000  0.0004058 -0.0268526  0.0098080
 -2.3005000  0.0798000  0.0045778 -0.0371630  0.0103148
 -2.3008000  0.0910000  0.0063721 -0.0361120  0.0060435
 -2.3131000  0.0907000  0.0024373 -0.0274667  0.0068158
 -2.3254000  0.0905000 -0.0003211 -0.0202265  0.0062353
 -2.3253000  0.0793000 -0.0021252 -0.0188220  0.0080147
 -2.2881000  0.0801000  0.0103483 -0.0491501  0.0082200
 -2.2755000  0.0805000  0.0168908 -0.0610030  0.0023199
 -2.2759000  0.0921000  0.0163784 -0.0539773 -0.0028517
 -2.2884000  0.0915000  0.0112336 -0.0454284  0.0030782
 -2.2628000  0.0808000  0.0226791 -0.0700098 -0.0075167
 -2.2627000  0.0691000  0.0238679 -0.0819975 -0.0021361
 -2.2500000  0.0691000  0.0283583 -0.0872848 -0.0178265
 -2.2500000  0.0809000  0.0261088 -0.0734121 -0.0197887
 -2.2500000  0.0930000  0.0233407 -0.0623174 -0.0214710
 -2.2631000  0.0927000  0.0207506 -0.0600154 -0.0115027
 -2.2626000  0.0575000  0.0238186 -0.0970894  0.0054111
 -2.2500000  0.0575000  0.0298882 -0.1058378 -0.0155733
 -2.2374000  0.0575000  0.0290059 -0.0970616 -0.0365652
 -2.2373000  0.0691000  0.0283966 -0.0819762 -0.0335126
 -2.2248000  0.0573000  0.0235984 -0.0760561 -0.0497051
 -2.2247000  0.0689000  0.0252011 -0.0684904 -0.0448666
 -2.2372000  0.0808000  0.0265541 -0.0699895 -0.0320194
 -2.2245000  0.0805000  0.0246819 -0.0609406 -0.0417740
 -2.2241000  0.0921000  0.0229010 -0.0539036 -0.0398643
 -2.2369000  0.0927000  0.0239447 -0.0599836 -0.0313890
 -2.2119000  0.0801000  0.0220962 -0.0490490 -0.0475599
 -2.2116000  0.0914000  0.0211157 -0.0453154 -0.0456228
 -2.2121000  0.0686000  0.0215469 -0.0519095 -0.0501223
 -2.1997000  0.0684000  0.0196350 -0.0365826 -0.0503563
 -2.1995000  0.0797000  0.0202707 -0.0370339 -0.0495630
 -2.1992000  0.0910000  0.0195674 -0.0359735 -0.0484872
 -2.2123000  0.0572000  0.0186703 -0.0526786 -0.0531430
 -2.1998000  0.0570000  0.0174266 -0.0337833 -0.0502063
 -2.1871000  0.0795000  0.0200259 -0.0267033 -0.0489955
 -2.1872000  0.0682000  0.0203184 -0.0246857 -0.0478534
 -2.1748000  0.0680000  0.0231460 -0.0162505 -0.0445453
 -2.1747000  0.0793000  0.0214339 -0.0186467 -0.0471592
 -2.1746000  0.0905000  0.0194198 -0.0200084 -0.0485928
 -2.1869000  0.0907000  0.0189119 -0.0273043 -0.0492025
 -2.1873000  0.0568000  0.0200238 -0.0209425 -0.0450998
 -2.1748000  0.0567000  0.0250226 -0.0128583 -0.0402748
 -2.1624000  0.0566000  0.0311025 -0.0078738 -0.0364971
 -2.1623000  0.0679000  0.0273494 -0.0105400 -0.0414658
 -2.1499000  0.0565000  0.0374995 -0.0047762 -0.0337554
 -2.1499000  0.0677000  0.0322825 -0.0067319 -0.0389372
 -2.1374000  0.0564000  0.0438102 -0.0028329 -0.0318812
 -2.1250000  0.0564000  0.0499674 -0.0016054 -0.0306296
 -2.1249000  0.0676000  0.0427423 -0.0025327 -0.0357112
 -2.1374000  0.0677000  0.0374821 -0.0042126 -0.0370646
 -2.1125000  0.0563000  0.0559210 -0.0008106 -0.0298091
 -2.1125000  0.0676000  0.0479851 -0.0014222 -0.0347680
 -2.1000000  0.0563000  0.0616957 -0.0002977 -0.0292986
 -2.1000000  0.0675000  0.0531178 -0.0006771 -0.0341462
 -2.0875000  0.0563000  0.0673158  0.0000289 -0.0290134
 -2.0750000  0.0563000  0.0728015  0.0002330 -0.0288839
 -2.0750000  0.0675000  0.0630887  0.0001420 -0.0335535
 -2.0875000  0.0675000  0.0581494 -0.0001788 -0.0337690
 -2.0625000  0.0563000  0.0781940  0.0003555 -0.0288544
 -2.0625000  0.0675000  0.0679497  0.0003447 -0.0334545
 -2.0500000  0.0563000  0.0835170  0.0004225 -0.0288905
 -2.0500000  0.0675000  0.0727451  0.0004655 -0.0334369
 -2.0375000  0.0563000  0.0887889  0.0004518 -0.0289685
 -2.0250000  0.0563000  0.0940243  0.0004556 -0.0290714
 -2.0250000  0.0675000  0.0821877  0.0005540 -0.0335462
 -2.0375000  0.0675000  0.0774875  0.0005293 -0.0334739
 -2.0125000  0.0563000  0.0992341  0.0004424 -0.0291874
 -2.0125000  0.0675000  0.0868549  0.0005519 -0.0336397
 -2.0000000  0.0563000  0.1044268  0.0004183 -0.0293080
 -2.0000000  0.0675000  0.0914969  0.0005320 -0.0337441
 -1.9875000  0.0563000  0.1096084  0.0003877 -0.0294277
 -1.9750000  0.0563000  0.1147835  0.0003535 -0.0295426
 -1.9750000  0.0675000  0.1007275  0.0004627 -0.0339595
 -1.9875000  0.0675000  0.0961195  0.0005007 -0.0338524
 -1.9625000  0.0563000  0.1199555  0.0003180 -0.0296501
 -1.9625000  0.0675000  0.1053248  0.0004213 -0.0340621
 -1.9500000  0.0563000  0.1251265  0.0002827 -0.0297491
 -1.9500000  0.0675000  0.1099142  0.0003790 -0.0341580
 -1.9375000  0.0563000  0.1302982  0.0002486 -0.0298387
 -1.9250000  0.0563000  0.1354716  0.0002164 -0.0299188
 -1.9250000  0.0675000  0.1190777  0.0002974 -0.0343256
 -1.9375000  0.0675000  0.1144979  0.0003373 -0.0342461
 -1.9125000  0.0563000  0.1406473  0.0001866 -0.0299896
 -1.9125000  0.0675000  0.1236547  0.0002601 -0.0343966
 -1.9000000  0.0563000  0.1458256  0.0001593 -0.0300516
 -1.9000000  0.0675000  0.1282301  0.0002257 -0.0344592
 -1.8875000  0.0563000  0.1510066  0.0001347 -0.0301053
 -1.8750000  0.0563000  0.1561903  0.0001127 -0.0301515
 -1.8750000  0.0675000  0.1373780  0.0001666 -0.0345610
 -1.8875000  0.0675000  0.1328043  0.0001945 -0.0345138
 -1.8625000  0.0563000  0.1613766  0.0000933 -0.0301908
 -1.8625000  0.0675000  0.1419514  0.0001418 -0.0346015
 -1.8500000  0.0563000  0.1665654  0.0000763 -0.0302241
 -1.8500000  0.0675000  0.1465250  0.0001200 -0.0346358
 -1.8375000  0.0563000  0.1717563  0.0000615 -0.0302519
 -1.8250000  0.0563000  0.1769491  0.0000487 -0.0302751
 -1.8250000  0.0675000  0.1556727  0.0000849 -0.0346889
 -1.8375000  0.0675000  0.1510987  0.0001012 -0.0346647
 -1.8125000  0.0563000  0.1821437  0.0000378 -0.0302942
 -1.8125000  0.0675000  0.1602470  0.0000710 -0.0347089
 -1.8000000  0.0563000  0.1873398  0.0000285 -0.0303098
 -1.8000000  0.0675000  0.1648217  0.0000592 -0.0347253
 -1.7875000  0.0563000  0.1925372  0.0000206 -0.0303224
 -1.7750000  0.0563000  0.1977358  0.0000141 -0.0303326
 -1.7750000  0.0675000  0.1739723  0.0000412 -0.0347494
 -1.7875000  0.0675000  0.1693968  0.0000494 -0.0347386
 -1.7625000  0.0563000  0.2029352  0.0000086 -0.0303406
 -1.7625000  0.0675000  0.1785480  0.0000344 -0.0347579
 -1.7500000  0.0563000  0.2081355  0.0000041 -0.0303469
 -1.7500000  0.0675000  0.1831241  0.0000289 -0.0347647
 -1.7375000  0.0563000  0.2133364  0.0000003 -0.0303517
 -1.7250000  0.0563000  0.2185378 -0.0000027 -0.0303553
 -1.7250000  0.0675000  0.1922771  0.0000210 -0.0347739
 -1.7375000  0.0675000  0.1877005  0.0000245 -0.0347699
 -1.7125000  0.0563000  0.2237397 -0.0000052 -0.0303581
 -1.7125000  0.0675000  0.1968540  0.0000182 -0.0347769
 -1.7000000  0.0563000  0.2289419 -0.0000072 -0.0303600
 -1.7000000  0.0675000  0.2014310  0.0000161 -0.0347790
 -1.6875000  0.0563000  0.2341444 -0.0000088 -0.0303614
 -1.6750000  0.0563000  0.2393472 -0.0000101 -0.0303623
 -1.6750000  0.0675000  0.2105855  0.0000133 -0.0347816
 -1.6875000  0.0675000  0.2060082  0.0000145 -0.0347806
 -1.6625000  0.0563000  0.2445500 -0.0000111 -0.0303628
 -1.6625000  0.0675000  0.2151630  0.0000125 -0.0347822
 -1.6500000  0.0563000  0.2497531 -0.0000119 -0.0303630
 -1.6500000  0.0675000  0.2197405  0.0000119 -0.0347826
 -1.6375000  0.0563000  0.2549562 -0.0000126 -0.0303631
 -1.6250000  0.0563000  0.2601594 -0.0000131 -0.0303630
 -1.6250000  0.0675000  0.2288958  0.0000115 -0.0347826
 -1.6375000  0.0675000  0.2243182  0.0000116 -0.0347827
 -1.6125000  0.0563000  0.2653626 -0.0000135 -0.0303628
 -1.6125000  0.0675000  0.2334736  0.0000114 -0.0347825
 -1.6000000  0.0563000  0.2705659 -0.0000139 -0.0303625
 -1.6000000  0.0675000  0.2380514  0.0000115 -0.0347822
 -1.5875000  0.0563000  0.2757692 -0.0000142 -0.0303621
 -1.5750000  0.0563000  0.2809725 -0.0000145 -0.0303618
 -1.5750000  0.0675000  0.2472070  0.0000119 -0.0347816
 -1.5875000  0.0675000  0.2426292  0.0000117 -0.0347819
 -1.5625000  0.0563000  0.2861758 -0.0000147 -0.0303614
 -1.5625000  0.0675000  0.2517849  0.0000121 -0.0347812
 -1.5500000  0.0563000  0.2913791 -0.0000149 -0.0303610
 -1.5500000  0.0675000  0.2563628  0.0000123 -0.0347808
 -1.5375000  0.0563000  0.2965823 -0.0000152 -0.0303607
 -1.5250000  0.0563000  0.3017856 -0.0000154 -0.0303603
 -1.5250000  0.0675000  0.2655185  0.0000129 -0.0347800
 -1.5375000  0.0675000  0.2609406  0.0000126 -0.0347804
 -1.5125000  0.0563000  0.3069889 -0.0000157 -0.0303599
 -1.5125000  0.0675000  0.2700964  0.0000131 -0.0347797
 -1.5000000  0.0563000  0.3121921 -0.0000159 -0.0303595
 -1.5000000  0.0675000  0.2746744  0.0000134 -0.0347793
 -1.4875000  0.0563000  0.3173953 -0.0000161 -0.0303591
 -1.4750000  0.0563000  0.3225985 -0.0000164 -0.0303587
 -1.4750000  0.0675000  0.2838302  0.0000138 -0.0347785
 -1.4875000  0.0675000  0.2792523  0.0000136 -0.0347789
 -1.4625000  0.0563000  0.3278017 -0.0000167 -0.0303584
 -1.4625000  0.0675000  0.2884081  0.0000141 -0.0347781
 -1.4500000  0.0563000  0.3330048 -0.0000169 -0.0303580
 -1.4500000  0.0675000  0.2929860  0.0000143 -0.0347777
 -1.4375000  0.0563000  0.3382080 -0.0000172 -0.0303576
 -1.4250000  0.0563000  0.3434111 -0.0000174 -0.0303572
 -1.4250000  0.0675000  0.3021420  0.0000148 -0.0347770
 -1.4375000  0.0675000  0.2975640  0.0000146 -0.0347773
 -1.4125000  0.0563000  0.3486142 -0.0000176 -0.0303569
 -1.4125000  0.0675000  0.3067199  0.0000151 -0.0347766
 -1.4000000  0.0563000  0.3538174 -0.0000178 -0.0303565
 -1.4000000  0.0675000  0.3112979  0.0000155 -0.0347763
 -1.3875000  0.0563000  0.3590205 -0.0000180 -0.0303563
 -1.3750000  0.0563000  0.3642237 -0.0000180 -0.0303561
 -1.3750000  0.0675000  0.3204541  0.0000164 -0.0347759
 -1.3875000  0.0675000  0.3158760  0.0000159 -0.0347761
 -1.3625000  0.0563000  0.3694270 -0.0000180 -0.0303560
 -1.3625000  0.0675000  0.3250322  0.0000171 -0.0347758
 -1.3500000  0.0563000  0.3746303 -0.0000178 -0.0303560
 -1.3500000  0.0675000  0.3296104  0.0000179 -0.0347760
 -1.3375000  0.0563000  0.3798337 -0.0000175 -0.0303563
 -1.3250000  0.0563000  0.3850372 -0.0000169 -0.0303568
 -1.3250000  0.0675000  0.3387670  0.0000203 -0.0347769
 -1.3375000  0.0675000  0.3341886  0.0000189 -0.0347763
 -1.3125000  0.0563000  0.3902409 -0.0000161 -0.0303577
 -1.3125000  0.0675000  0.3433455  0.0000219 -0.0347780
 -1.3000000  0.0563000  0.3954448 -0.0000150 -0.0303590
 -1.3000000  0.0675000  0.3479241  0.0000240 -0.0347795
 -1.2875000  0.0563000  0.4006490 -0.0000135 -0.0303610
 -1.2750000  0.0563000  0.4058535 -0.0000115 -0.0303637
 -1.2750000  0.0675000  0.3570818  0.0000299 -0.0347847
 -1.2875000  0.0675000  0.3525028  0.0000267 -0.0347817
 -1.2625000  0.0563000  0.4110585 -0.0000090 -0.0303674
 -1.2625000  0.0675000  0.3616609  0.0000340 -0.0347887
 -1.2500000  0.0563000  0.4162639 -0.0000057 -0.0303722
 -1.2500000  0.0675000  0.3662403  0.0000389 -0.0347939
 -1.2375000  0.0563000  0.4214701 -0.0000017 -0.0303785
 -1.2250000  0.0563000  0.4266769  0.0000032 -0.0303865
 -1.2250000  0.0675000  0.3753999  0.0000520 -0.0348091
 -1.2375000  0.0675000  0.3708199  0.0000448 -0.0348006
 -1.2125000  0.0563000  0.4318847  0.0000092 -0.0303965
 -1.2125000  0.0675000  0.3799801  0.0000606 -0.0348198
 -1.2000000  0.0563000  0.4370936  0.0000164 -0.0304091
 -1.2000000  0.0675000  0.3845608  0.0000707 -0.0348330
 -1.1875000  0.0563000  0.4423038  0.0000249 -0.0304245
 -1.1750000  0.0563000  0.4475155  0.0000349 -0.0304433
 -1.1750000  0.0675000  0.3937232  0.0000964 -0.0348689
 -1.1875000  0.0675000  0.3891418  0.0000826 -0.0348492
 -1.1625000  0.0563000  0.4527289  0.0000465 -0.0304660
 -1.1625000  0.0675000  0.3983050  0.0001124 -0.0348926
 -1.1500000  0.0563000  0.4579443  0.0000598 -0.0304931
 -1.1500000  0.0675000  0.4028873  0.0001305 -0.0349209
 -1.1375000  0.0563000  0.4631619  0.0000749 -0.0305252
 -1.1250000  0.0563000  0.4683820  0.0000917 -0.0305628
 -1.1250000  0.0675000  0.4120530  0.0001734 -0.0349933
 -1.1375000  0.0675000  0.4074699  0.0001508 -0.0349543
 -1.1125000  0.0563000  0.4736050  0.0001101 -0.0306065
 -1.1125000  0.0675000  0.4166365  0.0001981 -0.0350385
 -1.1000000  0.0563000  0.4788311  0.0001298 -0.0306567
 -1.1000000  0.0675000  0.4212203  0.0002244 -0.0350903
 -1.0875000  0.0563000  0.4840605  0.0001505 -0.0307137
 -1.0750000  0.0563000  0.4892936  0.0001715 -0.0307776
 -1.0750000  0.0675000  0.4303885  0.0002796 -0.0352145
 -1.0875000  0.0675000  0.4258043  0.0002519 -0.0351489
 -1.0625000  0.0563000  0.4945303  0.0001920 -0.0308481
 -1.0625000  0.0675000  0.4349727  0.0003064 -0.0352867
 -1.0500000  0.0563000  0.4997710  0.0002105 -0.0309247
 -1.0500000  0.0675000  0.4395569  0.0003305 -0.0353650
 -1.0375000  0.0563000  0.5050155  0.0002255 -0.0310063
 -1.0250000  0.0563000  0.5102636  0.0002348 -0.0310909
 -1.0250000  0.0675000  0.4487243  0.0003611 -0.0355340
 -1.0375000  0.0675000  0.4441408  0.0003497 -0.0354481
 -1.0125000  0.0563000  0.5155148  0.0002357 -0.0311758
 -1.0125000  0.0675000  0.4533071  0.0003612 -0.0356198
 -1.0000000  0.0563000  0.5207686  0.0002248 -0.0312573
 -1.0000000  0.0675000  0.4578889  0.0003453 -0.0357016
 -0.9875000  0.0563000  0.5260236  0.0001983 -0.0313301
 -0.9750000  0.0563000  0.5312781  0.0001516 -0.0313876
 -0.9750000  0.0675000  0.4670476  0.0002443 -0.0358295
 -0.9875000  0.0675000  0.4624693  0.0003084 -0.0357739
 -0.9625000  0.0563000  0.5365296  0.0000797 -0.0314213
 -0.9625000  0.0675000  0.4716229  0.0001460 -0.0358595
 -0.9500000  0.0563000  0.5417745 -0.0000228 -0.0314207
 -0.9500000  0.0675000  0.4761937  0.0000064 -0.0358524
 -0.9375000  0.0563000  0.5470080 -0.0001614 -0.0313732
 -0.9250000  0.0563000  0.5522232 -0.0003410 -0.0312639
 -0.9250000  0.0675000  0.4853114 -0.0004273 -0.0356698
 -0.9375000  0.0675000  0.4807577 -0.0001823 -0.0357946
 -0.9125000  0.0563000  0.5574099 -0.0005664 -0.0310756
 -0.9125000  0.0675000  0.4898520 -0.0007350 -0.0354586
 -0.9000000  0.0563000  0.5624446 -0.0008392 -0.0307970
 -0.9000000  0.0675000  0.4942739 -0.0011409 -0.0351390
 -0.8875000  0.0563000  0.5673447 -0.0011691 -0.0304116
 -0.8750000  0.0564000  0.5721422 -0.0015506 -0.0298835
 -0.8751000  0.0676000  0.5026810 -0.0021125 -0.0341213
 -0.8875000  0.0676000  0.4986426 -0.0016060 -0.0347396
 -0.8626000  0.0564000  0.5765706 -0.0019408 -0.0292218
 -0.8626000  0.0677000  0.5066606 -0.0027143 -0.0333588
 -0.8501000  0.0565000  0.5809468 -0.0024268 -0.0283773
 -0.8501000  0.0678000  0.5104691 -0.0033856 -0.0324110
 -0.8376000  0.0566000  0.5850154 -0.0029392 -0.0273509
 -0.8252000  0.0567000  0.5887804 -0.0034419 -0.0261633
 -0.8252000  0.0680000  0.5170410 -0.0047260 -0.0298950
 -0.8377000  0.0679000  0.5138744 -0.0040403 -0.0312717
 -0.8127000  0.0568000  0.5921572 -0.0039343 -0.0247713
 -0.8128000  0.0682000  0.5197859 -0.0054478 -0.0282991
 -0.8002000  0.0570000  0.5950805 -0.0044304 -0.0231979
 -0.8003000  0.0684000  0.5219088 -0.0061336 -0.0265324
 -0.7877000  0.0572000  0.5977545 -0.0048697 -0.0214380
 -0.7752000  0.0573000  0.6000236 -0.0051551 -0.0194650
 -0.7753000  0.0689000  0.5249998 -0.0072009 -0.0222836
 -0.7878000  0.0687000  0.5236257 -0.0067394 -0.0244986
 -0.8129000  0.0795000  0.4479710 -0.0071244 -0.0314685
 -0.8005000  0.0798000  0.4493840 -0.0079713 -0.0295279
 -0.8008000  0.0910000  0.3778797 -0.0099498 -0.0321690
 -0.8131000  0.0907000  0.3770184 -0.0089061 -0.0343556
 -0.8254000  0.0905000  0.3752853 -0.0077174 -0.0362769
 -0.8253000  0.0793000  0.4459152 -0.0061733 -0.0332470
 -0.7881000  0.0801000  0.4499940 -0.0087725 -0.0273557
 -0.7755000  0.0805000  0.4501797 -0.0095681 -0.0248301
 -0.7759000  0.0921000  0.3755526 -0.0120903 -0.0270177
 -0.7884000  0.0915000  0.3776009 -0.0109821 -0.0297598
 -0.7628000  0.0808000  0.4504371 -0.0096721 -0.0220902
 -0.7627000  0.0691000  0.5266260 -0.0073196 -0.0199834
 -0.7500000  0.0691000  0.5284663 -0.0073189 -0.0176836
 -0.7500000  0.0809000  0.4516197 -0.0095335 -0.0196507
 -0.7500000  0.0930000  0.3726518 -0.0115157 -0.0213440
 -0.7631000  0.0927000  0.3728305 -0.0127472 -0.0238022
 -0.7626000  0.0575000  0.6024348 -0.0052800 -0.0174418
 -0.7500000  0.0575000  0.6048034 -0.0053512 -0.0154383
 -0.7374000  0.0575000  0.6076077 -0.0052858 -0.0134195
 -0.7373000  0.0691000  0.5311637 -0.0073295 -0.0153633
 -0.7248000  0.0573000  0.6103725 -0.0051379 -0.0113412
 -0.7247000  0.0689000  0.5341855 -0.0071857 -0.0129444
 -0.7372000  0.0808000  0.4543322 -0.0096892 -0.0171651
 -0.7245000  0.0805000  0.4581869 -0.0095996 -0.0143187
 -0.7241000  0.0921000  0.3822322 -0.0120875 -0.0154287
 -0.7369000  0.0927000  0.3760537 -0.0127586 -0.0188352
 -0.7119000  0.0801000  0.4620385 -0.0087882 -0.0117161
 -0.7116000  0.0914000  0.3876957 -0.0109746 -0.0124881
 -0.7121000  0.0686000  0.5373726 -0.0067259 -0.0106696
 -0.6997000  0.0684000  0.5403256 -0.0061276 -0.0085024
 -0.6995000  0.0797000  0.4652606 -0.0079177 -0.0093721
 -0.6992000  0.0910000  0.3913795 -0.0099417 -0.0099650
 -0.7123000  0.0572000  0.6133611 -0.0048861 -0.0093563
 -0.6998000  0.0570000  0.6159220 -0.0044671 -0.0074645
 -0.6871000  0.0795000  0.4677842 -0.0071092 -0.0073613
 -0.6872000  0.0682000  0.5426602 -0.0054563 -0.0067075
 -0.6748000  0.0680000  0.5443817 -0.0047193 -0.0050480
 -0.6747000  0.0793000  0.4695818 -0.0061961 -0.0054727
 -0.6746000  0.0905000  0.3953798 -0.0077531 -0.0057187
 -0.6869000  0.0907000  0.3937770 -0.0089111 -0.0077034
 -0.6873000  0.0568000  0.6180914 -0.0039332 -0.0058312
 -0.6748000  0.0567000  0.6199238 -0.0034390 -0.0043873
 -0.6624000  0.0566000  0.6214316 -0.0029406 -0.0031566
 -0.6623000  0.0679000  0.5459481 -0.0040207 -0.0036739
 -0.6499000  0.0565000  0.6226534 -0.0024702 -0.0020802
 -0.6499000  0.0677000  0.5471446 -0.0033838 -0.0024381
 -0.6374000  0.0564000  0.6234103 -0.0019403 -0.0012486
 -0.6250000  0.0564000  0.6240852 -0.0015351 -0.0005217
 -0.6249000  0.0676000  0.5483737 -0.0020919 -0.0006809
 -0.6374000  0.0677000  0.5479226 -0.0026957 -0.0014645
 -0.6125000  0.0563000  0.6245546 -0.0011719  0.0000246
 -0.6125000  0.0676000  0.5489937 -0.0016061 -0.0000922
 -0.6000000  0.0563000  0.6248709 -0.0008426  0.0004293
 -0.6000000  0.0675000  0.5492539 -0.0011610  0.0003628
 -0.5875000  0.0563000  0.6250515 -0.0005689  0.0007166
 -0.5750000  0.0563000  0.6250684 -0.0003441  0.0009047
 -0.5750000  0.0675000  0.5494024 -0.0004236  0.0008906
 -0.5875000  0.0675000  0.5493644 -0.0007301  0.0006799
 -0.5625000  0.0563000  0.6250566 -0.0001650  0.0010138
 -0.5625000  0.0675000  0.5494265 -0.0001786  0.0010156
 -0.5500000  0.0563000  0.6250262 -0.0000267  0.0010613
 -0.5500000  0.0675000  0.5494404  0.0000104  0.0010734
 -0.5375000  0.0563000  0.6249844  0.0000755  0.0010619
 -0.5250000  0.0563000  0.6249361  0.0001472  0.0010282
 -0.5250000  0.0675000  0.5494501  0.0002487  0.0010504
 -0.5375000  0.0675000  0.5494475  0.0001503  0.0010804
 -0.5125000  0.0563000  0.6248848  0.0001936  0.0009706
 -0.5125000  0.0675000  0.5494496  0.0003131  0.0009947
 -0.5000000  0.0563000  0.6248330  0.0002199  0.0008978
 -0.5000000  0.0675000  0.5494471  0.0003503  0.0009224
 -0.4875000  0.0563000  0.6247825  0.0002305  0.0008163
 -0.4750000  0.0563000  0.6247344  0.0002294  0.0007314
 -0.4750000  0.0675000  0.5494384  0.0003666  0.0007547
 -0.4875000  0.0675000  0.5494432  0.0003664  0.0008406
 -0.4625000  0.0563000  0.6246895  0.0002198  0.0006468
 -0.4625000  0.0675000  0.5494328  0.0003554  0.0006688
 -0.4500000  0.0563000  0.6246483  0.0002046  0.0005652
 -0.4500000  0.0675000  0.5494268  0.0003364  0.0005858
 -0.4375000  0.0563000  0.6246108  0.0001858  0.0004886
 -0.4250000  0.0563000  0.6245773  0.0001651  0.0004181
 -0.4250000  0.0675000  0.5494142  0.0002861  0.0004352
 -0.4375000  0.0675000  0.5494205  0.0003126  0.0005075
 -0.4125000  0.0563000  0.6245475  0.0001439  0.0003542
 -0.4125000  0.0675000  0.5494079  0.0002586  0.0003696
 -0.4000000  0.0563000  0.6245212  0.0001229  0.0002972
 -0.4000000  0.0675000  0.5494018  0.0002313  0.0003110
 -0.3875000  0.0563000  0.6244984  0.0001029  0.0002470
 -0.3750000  0.0563000  0.6244786  0.0000843  0.0002033
 -0.3750000  0.0675000  0.5493904  0.0001808  0.0002140
 -0.3875000  0.0675000  0.5493959  0.0002052  0.0002592
 -0.3625000  0.0563000  0.6244617  0.0000672  0.0001656
 -0.3625000  0.0675000  0.5493852  0.0001585  0.0001750
 -0.3500000  0.0563000  0.6244473  0.0000519  0.0001335
 -0.3500000  0.0675000  0.5493804  0.0001384  0.0001416
 -0.3375000  0.0563000  0.6244351  0.0000384  0.0001064
 -0.3250000  0.0563000  0.6244249  0.0000265  0.0000837
 -0.3250000  0.0675000  0.5493722  0.0001048  0.0000896
 -0.3375000  0.0675000  0.5493761  0.0001205  0.0001133
 -0.3125000  0.0563000  0.6244165  0.0000163  0.0000649
 -0.3125000  0.0675000  0.5493687  0.0000912  0.0000699
 -0.3000000  0.0563000  0.6244095  0.0000075  0.0000495
 -0.3000000  0.0675000  0.5493656  0.0000796  0.0000537
 -0.2875000  0.0563000  0.6244038  0.0000001  0.0000370
 -0.2750000  0.0563000  0.6243992 -0.0000062  0.0000269
 -0.2750000  0.0675000  0.5493605  0.0000614  0.0000298
 -0.2875000  0.0675000  0.5493629  0.0000697  0.0000404
 -0.2625000  0.0563000  0.6243956 -0.0000114  0.0000189
 -0.2625000  0.0675000  0.5493585  0.0000544  0.0000213
 -0.2500000  0.0563000  0.6243927 -0.0000156  0.0000127
 -0.2500000  0.0675000  0.5493568  0.0000487  0.0000146
 -0.2375000  0.0563000  0.6243904 -0.0000191  0.0000078
 -0.2250000  0.0563000  0.6243887 -0.0000219  0.0000042
 -0.2250000  0.0675000  0.5493541  0.0000403  0.0000054
 -0.2375000  0.0675000  0.5493553  0.0000441  0.0000094
 -0.2125000  0.0563000  0.6243874 -0.0000241  0.0000015
 -0.2125000  0.0675000  0.5493531  0.0000373  0.0000024
 -0.2000000  0.0563000  0.6243864 -0.0000259 -0.0000005
 -0.2000000  0.0675000  0.5493522  0.0000349  0.0000002
 -0.1875000  0.0563000  0.6243857 -0.0000273 -0.0000019
 -0.1750000  0.0563000  0.6243853 -0.0000283 -0.0000027
 -0.1750000  0.0675000  0.5493510  0.0000316 -0.0000023
 -0.1875000  0.0675000  0.5493515  0.0000330 -0.0000013
 -0.1625000  0.0563000  0.6243849 -0.0000291 -0.0000033
 -0.1625000  0.0675000  0.5493505  0.0000305 -0.0000030
 -0.1500000  0.0563000  0.6243848 -0.0000297 -0.0000035
 -0.1500000  0.0675000  0.5493501  0.0000297 -0.0000033
 -0.1375000  0.0563000  0.6243847 -0.0000301 -0.0000036
 -0.1250000  0.0563000  0.6243846 -0.0000304 -0.0000035
 -0.1250000  0.0675000  0.5493496  0.0000287 -0.0000034
 -0.1375000  0.0675000  0.5493499  0.0000291 -0.0000034
 -0.1125000  0.0563000  0.6243847 -0.0000306 -0.0000033
 -0.1125000  0.0675000  0.5493495  0.0000284 -0.0000032
 -0.1000000  0.0563000  0.6243847 -0.0000307 -0.0000030
 -0.1000000  0.0675000  0.5493494  0.0000283 -0.0000030
 -0.0875000  0.0563000  0.6243848 -0.0000307 -0.0000027
 -0.0750000  0.0563000  0.6243849 -0.0000308 -0.0000023
 -0.0750000  0.0675000  0.5493492  0.0000281 -0.0000023
 -0.0875000  0.0675000  0.5493493  0.0000282 -0.0000027
 -0.0625000  0.0563000  0.6243850 -0.0000308 -0.0000019
 -0.0625000  0.0675000  0.5493491  0.0000281 -0.0000019
 -0.0500000  0.0563000  0.6243850 -0.0000308 -0.0000015
 -0.0500000  0.0675000  0.5493491  0.0000281 -0.0000015
 -0.0375000  0.0563000  0.6243851 -0.0000308 -0.0000012
 -0.0250000  0.0563000  0.6243851 -0.0000307 -0.0000008
 -0.0250000  0.0675000  0.5493491  0.0000281 -0.0000008
 -0.0375000  0.0675000  0.5493491  0.0000281 -0.0000012
 -0.0125000  0.0563000  0.6243852 -0.0000307 -0.0000004
 -0.0125000  0.0675000  0.5493491  0.0000281 -0.0000004
  0.0000000  0.0563000  0.6243852 -0.0000307 -0.0000000
  0.0000000  0.0675000  0.5493491  0.0000281 -0.0000000
  0.0125000  0.0563000  0.6243852 -0.0000307  0.0000004
  0.0250000  0.0563000  0.6243851 -0.0000307  0.0000008
  0.0250000  0.0675000  0.5493491  0.0000281  0.0000008
  0.0125000  0.0675000  0.5493491  0.0000281  0.0000004
  0.0375000  0.0563000  0.6243851 -0.0000308  0.0000012
  0.0375000  0.0675000  0.5493491  0.0000281  0.0000012
  0.0500000  0.0563000  0.6243850 -0.0000308  0.0000015
  0.0500000  0.0675000  0.5493491  0.0000281  0.0000015
  0.0625000  0.0563000  0.6243850 -0.0000308  0.0000019
  0.0750000  0.0563000  0.6243849 -0.0000308  0.0000023
  0.0750000  0.0675000  0.5493492  0.0000281  0.0000023
  0.0625000  0.0675000  0.5493491  0.0000281  0.0000019
  0.0875000  0.0563000  0.6243848 -0.0000307  0.0000027
  0.0875000  0.0675000  0.5493493  0.0000282  0.0000027
  0.1000000  0.0563000  0.6243847 -0.0000307  0.0000030
  0.1000000  0.0675000  0.5493494  0.0000283  0.0000030
  0.1125000  0.0563000  0.6243847 -0.0000306  0.0000033
  0.1250000  0.0563000  0.6243846 -0.0000304  0.0000035
  0.1250000  0.0675000  0.5493496  0.0000287  0.0000034
  0.1125000  0.0675000  0.5493495  0.0000284  0.0000032
  0.1375000  0.0563000  0.6243847 -0.0000301  0.0000036
  0.1375000  0.0675000  0.5493499  0.0000291  0.0000034
  0.1500000  0.0563000  0.6243848 -0.0000297  0.0000035
  0.1500000  0.0675000  0.5493501  0.0000297  0.0000033
  0.1625000  0.0563000  0.6243849 -0.0000291  0.0000033
  0.1750000  0.0563000  0.6243853 -0.0000283  0.0000027
  0.1750000  0.0675000  0.5493510  0.0000316  0.0000023
  0.1625000  0.0675000  0.5493505  0.0000305  0.0000030
  0.1875000  0.0563000  0.6243857 -0.0000273  0.0000019
  0.1875000  0.0675000  0.5493515  0.0000330  0.0000013
  0.2000000  0.0563000  0.6243864 -0.0000259  0.0000005
  0.2000000  0.0675000  0.5493522  0.0000349 -0.0000002
  0.2125000  0.0563000  0.6243874 -0.0000241 -0.0000015
  0.2250000  0.0563000  0.6243887 -0.0000219 -0.0000042
  0.2250000  0.0675000  0.5493541  0.0000403 -0.0000054
  0.2125000  0.0675000  0.5493531  0.0000373 -0.0000024
  0.2375000  0.0563000  0.6243904 -0.0000191 -0.0000078
  0.2375000  0.0675000  0.5493553  0.0000441 -0.0000094
  0.2500000  0.0563000  0.6243927 -0.0000156 -0.0000127
  0.2500000  0.0675000  0.5493568  0.0000487 -0.0000146
  0.2625000  0.0563000  0.6243956 -0.0000114 -0.0000189
  0.2750000  0.0563000  0.6243992 -0.0000062 -0.0000269
  0.2750000  0.0675000  0.5493605  0.0000614 -0.0000298
  0.2625000  0.0675000  0.5493585  0.0000544 -0.0000213
  0.2875000  0.0563000  0.6244038  0.0000001 -0.0000370
  0.2875000  0.0675000  0.5493629  0.0000697 -0.0000404
  0.3000000  0.0563000  0.6244095  0.0000075 -0.0000495
  0.3000000  0.0675000  0.5493656  0.0000796 -0.0000537
  0.3125000  0.0563000  0.6244165  0.0000163 -0.0000649
  0.3250000  0.0563000  0.6244249  0.0000265 -0.0000837
  0.3250000  0.0675000  0.5493722  0.0001048 -0.0000896
  0.3125000  0.0675000  0.5493687  0.0000912 -0.0000699
  0.3375000  0.0563000  0.6244351  0.0000384 -0.0001064
  0.3375000  0.0675000  0.5493761  0.0001205 -0.0001133
  0.3500000  0.0563000  0.6244473  0.0000519 -0.0001335
  0.3500000  0.0675000  0.5493804  0.0001384 -0.0001416
  0.3625000  0.0563000  0.6244617  0.0000672 -0.0001656
  0.3750000  0.0563000  0.6244786  0.0000843 -0.0002033
  0.3750000  0.0675000  0.5493904  0.0001808 -0.0002140
  0.3625000  0.0675000  0.5493852  0.0001585 -0.0001750
  0.3875000  0.0563000  0.6244984  0.0001029 -0.0002470
  0.3875000  0.0675000  0.5493959  0.0002052 -0.0002592
  0.4000000  0.0563000  0.6245212  0.0001229 -0.0002972
  0.4000000  0.0675000  0.5494018  0.0002313 -0.0003110
  0.4125000  0.0563000  0.6245475  0.0001439 -0.0003542
  0.4250000  0.0563000  0.6245773  0.0001651 -0.0004180
  0.4250000  0.0675000  0.5494142  0.0002860 -0.0004352
  0.4125000  0.0675000  0.5494079  0.0002585 -0.0003696
  0.4375000  0.0563000  0.6246108  0.0001858 -0.0004886
  0.4375000  0.0675000  0.5494206  0.0003126 -0.0005075
  0.4500000  0.0563000  0.6246483  0.0002046 -0.0005652
  0.4500000  0.0675000  0.5494268  0.0003365 -0.0005858
  0.4625000  0.0563000  0.6246895  0.0002198 -0.0006468
  0.4750000  0.0563000  0.6247344  0.0002294 -0.0007314
  0.4750000  0.0675000  0.5494384  0.0003666 -0.0007547
  0.4625000  0.0675000  0.5494328  0.0003554 -0.0006688
  0.4875000  0.0563000  0.6247825  0.0002305 -0.0008163
  0.4875000  0.0675000  0.5494433  0.0003664 -0.0008406
  0.5000000  0.0563000  0.6248330  0.0002199 -0.0008978
  0.5000000  0.0675000  0.5494472  0.0003503 -0.0009224
  0.5125000  0.0563000  0.6248848  0.0001937 -0.0009707
  0.5250000  0.0563000  0.6249361  0.0001472 -0.0010282
  0.5250000  0.0675000  0.5494501  0.0002488 -0.0010504
  0.5125000  0.0675000  0.5494496  0.0003132 -0.0009947
  0.5375000  0.0563000  0.6249844  0.0000756 -0.0010619
  0.5375000  0.0675000  0.5494475  0.0001503 -0.0010804
  0.5500000  0.0563000  0.6250262 -0.0000266 -0.0010613
  0.5500000  0.0675000  0.5494404  0.0000105 -0.0010734
  0.5625000  0.0563000  0.6250565 -0.0001649 -0.0010139
  0.5750000  0.0563000  0.6250685 -0.0003442 -0.0009048
  0.5750000  0.0675000  0.5494021 -0.0004235 -0.0008908
  0.5625000  0.0675000  0.5494264 -0.0001784 -0.0010157
  0.5875000  0.0563000  0.6250515 -0.0005691 -0.0007163
  0.5875000  0.0675000  0.5493650 -0.0007311 -0.0006800
  0.6000000  0.0563000  0.6248710 -0.0008411 -0.0004294
  0.6000000  0.0675000  0.5491992 -0.0011407 -0.0003610
  0.6125000  0.0563000  0.6245540 -0.0011707 -0.0000253
  0.6250000  0.0564000  0.6241389 -0.0015567  0.0005222
  0.6249000  0.0676000  0.5484298 -0.0021107  0.0006844
  0.6125000  0.0676000  0.5489960 -0.0016070  0.0000430
  0.6374000  0.0564000  0.6233454 -0.0019400  0.0012037
  0.6374000  0.0677000  0.5478232 -0.0027149  0.0014662
  0.6499000  0.0565000  0.6225136 -0.0024269  0.0020856
  0.6499000  0.0678000  0.5470448 -0.0033918  0.0024423
  0.6624000  0.0566000  0.6213688 -0.0029420  0.0031530
  0.6748000  0.0567000  0.6199223 -0.0034419  0.0043858
  0.6748000  0.0680000  0.5444363 -0.0047302  0.0050464
  0.6623000  0.0679000  0.5458526 -0.0040431  0.0036234
  0.6873000  0.0568000  0.6180896 -0.0039364  0.0058315
  0.6872000  0.0682000  0.5425960 -0.0054520  0.0067062
  0.6998000  0.0570000  0.6158020 -0.0044338  0.0074754
  0.6997000  0.0684000  0.5401380 -0.0061366  0.0085541
  0.7123000  0.0572000  0.6132833 -0.0048744  0.0093082
  0.7248000  0.0573000  0.6103650 -0.0051596  0.0113425
  0.7247000  0.0689000  0.5340791 -0.0072083  0.0129865
  0.7122000  0.0687000  0.5372675 -0.0067443  0.0106849
  0.6871000  0.0795000  0.4676803 -0.0071306  0.0073567
  0.6995000  0.0798000  0.4651425 -0.0079756  0.0093856
  0.6992000  0.0910000  0.3911987 -0.0099527  0.0099672
  0.6869000  0.0907000  0.3936545 -0.0089092  0.0077005
  0.6746000  0.0905000  0.3952382 -0.0077168  0.0057290
  0.6747000  0.0793000  0.4695819 -0.0061764  0.0055133
  0.7119000  0.0801000  0.4617833 -0.0087733  0.0116733
  0.7245000  0.0805000  0.4580067 -0.0095750  0.0143238
  0.7241000  0.0921000  0.3821370 -0.0121035  0.0154243
  0.7116000  0.0915000  0.3875861 -0.0109889  0.0124969
  0.7372000  0.0808000  0.4543289 -0.0096864  0.0171637
  0.7373000  0.0691000  0.5311646 -0.0073246  0.0153611
  0.7500000  0.0691000  0.5284664 -0.0073188  0.0176833
  0.7500000  0.0809000  0.4516197 -0.0095334  0.0196485
  0.7500000  0.0930000  0.3726519 -0.0115157  0.0213427
  0.7369000  0.0927000  0.3760554 -0.0127562  0.0188313
  0.7374000  0.0575000  0.6076034 -0.0052838  0.0134227
  0.7500000  0.0575000  0.6048033 -0.0053511  0.0154373
  0.7626000  0.0575000  0.6024376 -0.0052815  0.0174446
  0.7627000  0.0691000  0.5266259 -0.0073240  0.0199818
  0.7752000  0.0573000  0.6000298 -0.0051325  0.0194646
  0.7753000  0.0689000  0.5250928 -0.0071796  0.0223257
  0.7628000  0.0808000  0.4504402 -0.0096748  0.0220886
  0.7755000  0.0805000  0.4503529 -0.0095924  0.0248273
  0.7759000  0.0921000  0.3756459 -0.0120745  0.0270141
  0.7631000  0.0927000  0.3728289 -0.0127497  0.0237989
  0.7881000  0.0801000  0.4502442 -0.0087855  0.0272985
  0.7884000  0.0914000  0.3777055 -0.0109685  0.0297625
  0.7879000  0.0686000  0.5237253 -0.0067224  0.0245052
  0.8003000  0.0684000  0.5220794 -0.0061249  0.0265749
  0.8005000  0.0797000  0.4494946 -0.0079147  0.0295314
  0.8008000  0.0910000  0.3780552 -0.0099395  0.0321638
  0.7877000  0.0572000  0.5978337 -0.0048797  0.0213807
  0.8002000  0.0570000  0.5951898 -0.0044640  0.0232025
  0.8129000  0.0795000  0.4480720 -0.0071036  0.0314650
  0.8128000  0.0682000  0.5198455 -0.0054524  0.0282948
  0.8252000  0.0680000  0.5169868 -0.0047162  0.0298967
  0.8253000  0.0793000  0.4459067 -0.0061932  0.0332868
  0.8254000  0.0905000  0.3754148 -0.0077511  0.0362781
  0.8131000  0.0907000  0.3771390 -0.0089059  0.0343472
  0.8127000  0.0568000  0.5921585 -0.0039305  0.0247713
  0.8252000  0.0567000  0.5887812 -0.0034393  0.0261616
  0.8376000  0.0566000  0.5850776 -0.0029363  0.0273430
  0.8377000  0.0679000  0.5139665 -0.0040180  0.0312260
  0.8501000  0.0565000  0.5810725 -0.0024674  0.0283690
  0.8501000  0.0677000  0.5105589 -0.0033785  0.0324071
  0.8626000  0.0564000  0.5766308 -0.0019404  0.0291759
  0.8750000  0.0564000  0.5720889 -0.0015314  0.0298867
  0.8751000  0.0676000  0.5026261 -0.0020960  0.0341276
  0.8626000  0.0677000  0.5067531 -0.0026957  0.0333616
  0.8875000  0.0563000  0.5673453 -0.0011695  0.0304112
  0.8875000  0.0676000  0.4986428 -0.0016036  0.0346948
  0.9000000  0.0563000  0.5624446 -0.0008408  0.0307971
  0.9000000  0.0675000  0.4943197 -0.0011592  0.0351383
  0.9125000  0.0563000  0.5574098 -0.0005662  0.0310760
  0.9250000  0.0563000  0.5522231 -0.0003409  0.0312638
  0.9250000  0.0675000  0.4853116 -0.0004274  0.0356695
  0.9125000  0.0675000  0.4898511 -0.0007340  0.0354585
  0.9375000  0.0563000  0.5470081 -0.0001614  0.0313731
  0.9375000  0.0675000  0.4807578 -0.0001825  0.0357946
  0.9500000  0.0563000  0.5417745 -0.0000229  0.0314206
  0.9500000  0.0675000  0.4761938  0.0000063  0.0358524
  0.9625000  0.0563000  0.5365296  0.0000797  0.0314212
  0.9750000  0.0563000  0.5312781  0.0001516  0.0313876
  0.9750000  0.0675000  0.4670476  0.0002442  0.0358295
  0.9625000  0.0675000  0.4716229  0.0001460  0.0358594
  0.9875000  0.0563000  0.5260236  0.0001983  0.0313301
  0.9875000  0.0675000  0.4624693  0.0003084  0.0357739
  1.0000000  0.0563000  0.5207686  0.0002248  0.0312572
  1.0000000  0.0675000  0.4578889  0.0003453  0.0357016
  1.0125000  0.0563000  0.5155148  0.0002356  0.0311758
  1.0250000  0.0563000  0.5102635  0.0002348  0.0310909
  1.0250000  0.0675000  0.4487243  0.0003611  0.0355340
  1.0125000  0.0675000  0.4533071  0.0003611  0.0356198
  1.0375000  0.0563000  0.5050155  0.0002255  0.0310063
  1.0375000  0.0675000  0.4441408  0.0003497  0.0354481
  1.0500000  0.0563000  0.4997710  0.0002105  0.0309247
  1.0500000  0.0675000  0.4395569  0.0003305  0.0353650
  1.0625000  0.0563000  0.4945303  0.0001920  0.0308481
  1.0750000  0.0563000  0.4892936  0.0001715  0.0307776
  1.0750000  0.0675000  0.4303885  0.0002796  0.0352145
  1.0625000  0.0675000  0.4349727  0.0003064  0.0352867
  1.0875000  0.0563000  0.4840605  0.0001505  0.0307137
  1.0875000  0.0675000  0.4258043  0.0002519  0.0351489
  1.1000000  0.0563000  0.4788311  0.0001298  0.0306567
  1.1000000  0.0675000  0.4212203  0.0002244  0.0350903
  1.1125000  0.0563000  0.4736050  0.0001101  0.0306065
  1.1250000  0.0563000  0.4683820  0.0000917  0.0305628
  1.1250000  0.0675000  0.4120530  0.0001734  0.0349933
  1.1125000  0.0675000  0.4166365  0.0001981  0.0350385
  1.1375000  0.0563000  0.4631619  0.0000749  0.0305252
  1.1375000  0.0675000  0.4074699  0.0001509  0.0349543
  1.1500000  0.0563000  0.4579443  0.0000598  0.0304931
  1.1500000  0.0675000  0.4028872  0.0001305  0.0349209
  1.1625000  0.0563000  0.4527289  0.0000465  0.0304660
  1.1750000  0.0563000  0.4475155  0.0000349  0.0304433
  1.1750000  0.0675000  0.3937232  0.0000964  0.0348689
  1.1625000  0.0675000  0.3983050  0.0001124  0.0348926
  1.1875000  0.0563000  0.4423038  0.0000249  0.0304245
  1.1875000  0.0675000  0.3891418  0.0000826  0.0348492
  1.2000000  0.0563000  0.4370936  0.0000164  0.0304091
  1.2000000  0.0675000  0.3845608  0.0000707  0.0348330
  1.2125000  0.0563000  0.4318847  0.0000092  0.0303965
  1.2250000  0.0563000  0.4266769  0.0000032  0.0303865
  1.2250000  0.0675000  0.3753999  0.0000520  0.0348091
  1.2125000  0.0675000  0.3799801  0.0000606  0.0348198
  1.2375000  0.0563000  0.4214701 -0.0000017  0.0303785
  1.2375000  0.0675000  0.3708199  0.0000448  0.0348006
  1.2500000  0.0563000  0.4162639 -0.0000057  0.0303722
  1.2500000  0.0675000  0.3662403  0.0000389  0.0347939
  1.2625000  0.0563000  0.4110585 -0.0000090  0.0303674
  1.2750000  0.0563000  0.4058535 -0.0000115  0.0303637
  1.2750000  0.0675000  0.3570818  0.0000299  0.0347847
  1.2625000  0.0675000  0.3616609  0.0000340  0.0347887
  1.2875000  0.0563000  0.4006490 -0.0000135  0.0303610
  1.2875000  0.0675000  0.3525028  0.0000267  0.0347817
  1.3000000  0.0563000  0.3954448 -0.0000150  0.0303590
  1.3000000  0.0675000  0.3479241  0.0000240  0.0347795
  1.3125000  0.0563000  0.3902409 -0.0000161  0.0303577
  1.3250000  0.0563000  0.3850372 -0.0000169  0.0303568
  1.3250000  0.0675000  0.3387670  0.0000203  0.0347769
  1.3125000  0.0675000  0.3433455  0.0000219  0.0347780
  1.3375000  0.0563000  0.3798337 -0.0000175  0.0303563
  1.3375000  0.0675000  0.3341886  0.0000189  0.0347763
  1.3500000  0.0563000  0.3746303 -0.0000178  0.0303560
  1.3500000  0.0675000  0.3296104  0.0000179  0.0347760
  1.3625000  0.0563000  0.3694270 -0.0000180  0.0303560
  1.3750000  0.0563000  0.3642237 -0.0000180  0.0303561
  1.3750000  0.0675000  0.3204541  0.0000164  0.0347759
  1.3625000  0.0675000  0.3250322  0.0000171  0.0347758
  1.3875000  0.0563000  0.3590205 -0.0000180  0.0303563
  1.3875000  0.0675000  0.3158760  0.0000159  0.0347761
  1.4000000  0.0563000  0.3538174 -0.0000178  0.0303565
  1.4000000  0.0675000  0.3112979  0.0000155  0.0347763
  1.4125000  0.0563000  0.3486142 -0.0000176  0.0303569
  1.4250000  0.0563000  0.3434111 -0.0000174  0.0303572
  1.4250000  0.0675000  0.3021420  0.0000148  0.0347770
  1.4125000  0.0675000  0.3067199  0.0000151  0.0347766
  1.4375000  0.0563000  0.3382080 -0.0000172  0.0303576
  1.4375000  0.0675000  0.2975640  0.0000146  0.0347773
  1.4500000  0.0563000  0.3330048 -0.0000169  0.0303580
  1.4500000  0.0675000  0.2929860  0.0000143  0.0347777
  1.4625000  0.0563000  0.3278017 -0.0000167  0.0303584
  1.4750000  0.0563000  0.3225985 -0.0000164  0.0303587
  1.4750000  0.0675000  0.2838302  0.0000138  0.0347785
  1.4625000  0.0675000  0.2884081  0.0000141  0.0347781
  1.4875000  0.0563000  0.3173953 -0.0000161  0.0303591
  1.4875000  0.0675000  0.2792523  0.0000136  0.0347789
  1.5000000  0.0563000  0.3121921 -0.0000159  0.0303595
  1.5000000  0.0675000  0.2746744  0.0000134  0.0347793
  1.5125000  0.0563000  0.3069889 -0.0000157  0.0303599
  1.5250000  0.0563000  0.3017856 -0.0000154  0.0303603
  1.5250000  0.0675000  0.2655185  0.0000129  0.0347800
  1.5125000  0.0675000  0.2700964  0.0000131  0.0347797
  1.5375000  0.0563000  0.2965823 -0.0000152  0.0303607
  1.5375000  0.0675000  0.2609406  0.0000126  0.0347804
  1.5500000  0.0563000  0.2913791 -0.0000149  0.0303610
  1.5500000  0.0675000  0.2563628  0.0000123  0.0347808
  1.5625000  0.0563000  0.2861758 -0.0000147  0.0303614
  1.5750000  0.0563000  0.2809725 -0.0000145  0.0303618
  1.5750000  0.0675000  0.2472070  0.0000119  0.0347816
  1.5625000  0.0675000  0.2517849  0.0000121  0.0347812
  1.5875000  0.0563000  0.2757692 -0.0000142  0.0303621
  1.5875000  0.0675000  0.2426292  0.0000117  0.0347819
  1.6000000  0.0563000  0.2705659 -0.0000139  0.0303625
  1.6000000  0.0675000  0.2380514  0.0000115  0.0347822
  1.6125000  0.0563000  0.2653626 -0.0000135  0.0303628
  1.6250000  0.0563000  0.2601594 -0.0000131  0.0303630
  1.6250000  0.0675000  0.2288958  0.0000115  0.0347826
  1.6125000  0.0675000  0.2334736  0.0000114  0.0347825
  1.6375000  0.0563000  0.2549562 -0.0000126  0.0303631
  1.6375000  0.0675000  0.2243182  0.0000116  0.0347827
  1.6500000  0.0563000  0.2497531 -0.0000119  0.0303630
  1.6500000  0.0675000  0.2197405  0.0000119  0.0347826
  1.6625000  0.0563000  0.2445500 -0.0000111  0.0303628
  1.6750000  0.0563000  0.2393472 -0.0000101  0.0303623
  1.6750000  0.0675000  0.2105855  0.0000133  0.0347816
  1.6625000  0.0675000  0.2151630  0.0000125  0.0347822
  1.6875000  0.0563000  0.2341444 -0.0000088  0.0303614
  1.6875000  0.0675000  0.2060082  0.0000145  0.0347806
  1.7000000  0.0563000  0.2289419 -0.0000072  0.0303600
  1.7000000  0.0675000  0.2014310  0.0000161  0.0347790
  1.7125000  0.0563000  0.2237397 -0.0000052  0.0303581
  1.7250000  0.0563000  0.2185378 -0.0000027  0.0303553
  1.7250000  0.0675000  0.1922771  0.0000210  0.0347739
  1.7125000  0.0675000  0.1968540  0.0000182  0.0347769
  1.7375000  0.0563000  0.2133364  0.0000003  0.0303517
  1.7375000  0.0675000  0.1877005  0.0000245  0.0347699
  1.7500000  0.0563000  0.2081355  0.0000041  0.0303469
  1.7500000  0.0675000  0.1831241  0.0000289  0.0347647
  1.7625000  0.0563000  0.2029352  0.0000086  0.0303406
  1.7750000  0.0563000  0.1977358  0.0000141  0.0303326
  1.7750000  0.0675000  0.1739723  0.0000412  0.0347494
  1.7625000  0.0675000  0.1785480  0.0000344  0.0347579
  1.7875000  0.0563000  0.1925372  0.0000206  0.0303224
  1.7875000  0.0675000  0.1693968  0.0000494  0.0347386
  1.8000000  0.0563000  0.1873398  0.0000285  0.0303098
  1.8000000  0.0675000  0.1648217  0.0000592  0.0347253
  1.8125000  0.0563000  0.1821437  0.0000378  0.0302942
  1.8250000  0.0563000  0.1769491  0.0000487  0.0302751
  1.8250000  0.0675000  0.1556727  0.0000849  0.0346889
  1.8125000  0.0675000  0.1602470  0.0000710  0.0347089
  1.8375000  0.0563000  0.1717563  0.0000615  0.0302519
  1.8375000  0.0675000  0.1510987  0.0001012  0.0346647
  1.8500000  0.0563000  0.1665654  0.0000763  0.0302241
  1.8500000  0.0675000  0.1465250  0.0001200  0.0346358
  1.8625000  0.0563000  0.1613766  0.0000933  0.0301908
  1.8750000  0.0563000  0.1561903  0.0001127  0.0301515
  1.8750000  0.0675000  0.1373780  0.0001666  0.0345610
  1.8625000  0.0675000  0.1419514  0.0001418  0.0346015
  1.8875000  0.0563000  0.1510066  0.0001347  0.0301053
  1.8875000  0.0675000  0.1328043  0.0001945  0.0345138
  1.9000000  0.0563000  0.1458256  0.0001593  0.0300516
  1.9000000  0.0675000  0.1282301  0.0002257  0.0344592
  1.9125000  0.0563000  0.1406473  0.0001866  0.0299896
  1.9250000  0.0563000  0.1354716  0.0002164  0.0299188
  1.9250000  0.0675000  0.1190777  0.0002974  0.0343256
  1.9125000  0.0675000  0.1236547  0.0002601  0.0343966
  1.9375000  0.0563000  0.1302982  0.0002486  0.0298387
  1.9375000  0.0675000  0.1144979  0.0003373  0.0342461
  1.9500000  0.0563000  0.1251265  0.0002827  0.0297491
  1.9500000  0.0675000  0.1099142  0.0003790  0.0341580
  1.9625000  0.0563000  0.1199555  0.0003180  0.0296502
  1.9750000  0.0563000  0.1147835  0.0003535  0.0295426
  1.9750000  0.0675000  0.1007275  0.0004627  0.0339595
  1.9625000  0.0675000  0.1053248  0.0004213  0.0340621
  1.9875000  0.0563000  0.1096084  0.0003877  0.0294277
  1.9875000  0.0675000  0.0961195  0.0005007  0.0338524
  2.0000000  0.0563000  0.1044268  0.0004183  0.0293081
  2.0000000  0.0675000  0.0914969  0.0005320  0.0337441
  2.0125000  0.0563000  0.0992341  0.0004424  0.0291874
  2.0250000  0.0563000  0.0940243  0.0004556  0.0290714
  2.0250000  0.0675000  0.0821877  0.0005540  0.0335462
  2.0125000  0.0675000  0.0868549  0.0005519  0.0336397
  2.0375000  0.0563000  0.0887889  0.0004518  0.0289685
  2.0375000  0.0675000  0.0774875  0.0005293  0.0334739
  2.0500000  0.0563000  0.0835170  0.0004225  0.0288905
  2.0500000  0.0675000  0.0727452  0.0004655  0.0334369
  2.0625000  0.0563000  0.0781940  0.0003555  0.0288544
  2.0750000  0.0563000  0.0728014  0.0002331  0.0288839
  2.0750000  0.0675000  0.0630887  0.0001420  0.0335535
  2.0625000  0.0675000  0.0679497  0.0003447  0.0334546
  2.0875000  0.0563000  0.0673157  0.0000288  0.0290133
  2.0875000  0.0675000  0.0581491 -0.0001790  0.0337691
  2.1000000  0.0563000  0.0616957 -0.0002977  0.0292984
  2.1000000  0.0675000  0.0531075 -0.0006758  0.0341496
  2.1125000  0.0563000  0.0559207 -0.0008096  0.0298088
  2.1250000  0.0564000  0.0499685 -0.0016088  0.0306277
  2.1249000  0.0676000  0.0427442 -0.0025360  0.0357090
  2.1125000  0.0676000  0.0479876 -0.0014218  0.0347632
  2.1374000  0.0564000  0.0438048 -0.0028361  0.0318830
  2.1374000  0.0677000  0.0374760 -0.0042122  0.0370619
  2.1499000  0.0565000  0.0374817 -0.0047802  0.0337750
  2.1499000  0.0678000  0.0322715 -0.0067393  0.0389485
  2.1624000  0.0566000  0.0311025 -0.0078729  0.0365002
  2.1748000  0.0567000  0.0250225 -0.0128592  0.0402744
  2.1748000  0.0680000  0.0231468 -0.0162544  0.0445442
  2.1623000  0.0679000  0.0273460 -0.0105449  0.0414591
  2.1873000  0.0568000  0.0200220 -0.0209406  0.0451002
  2.1872000  0.0682000  0.0203223 -0.0246945  0.0478563
  2.1998000  0.0570000  0.0174354 -0.0338125  0.0502110
  2.1997000  0.0684000  0.0196481 -0.0365978  0.0503503
  2.2123000  0.0572000  0.0186668 -0.0526979  0.0531467
  2.2248000  0.0573000  0.0235955 -0.0760581  0.0497033
  2.2247000  0.0689000  0.0252156 -0.0685092  0.0448462
  2.2122000  0.0687000  0.0215441 -0.0519026  0.0501165
  2.1871000  0.0795000  0.0200279 -0.0267032  0.0489870
  2.1995000  0.0798000  0.0202699 -0.0370382  0.0495590
  2.1992000  0.0910000  0.0195631 -0.0359715  0.0484858
  2.1869000  0.0907000  0.0189038 -0.0272920  0.0492025
  2.1746000  0.0905000  0.0194123 -0.0200134  0.0485995
  2.1747000  0.0793000  0.0214305 -0.0186536  0.0471651
  2.2119000  0.0801000  0.0220903 -0.0490531  0.0475574
  2.2245000  0.0805000  0.0246863 -0.0609387  0.0417633
  2.2241000  0.0921000  0.0228979 -0.0539087  0.0398586
  2.2116000  0.0915000  0.0211205 -0.0453179  0.0456189
  2.2372000  0.0808000  0.0265533 -0.0699885  0.0320197
  2.2373000  0.0691000  0.0283979 -0.0819765  0.0335145
  2.2500000  0.0691000  0.0283600 -0.0872857  0.0178265
  2.2500000  0.0809000  0.0261087 -0.0734125  0.0197889
  2.2500000  0.0930000  0.0233404 -0.0623174  0.0214706
  2.2369000  0.0927000  0.0239435 -0.0599827  0.0313888
  2.2374000  0.0575000  0.0290071 -0.0970628  0.0365651
  2.2500000  0.0575000  0.0298898 -0.1058363  0.0155763
  2.2626000  0.0575000  0.0238167 -0.0970799 -0.0054210
  2.2627000  0.0691000  0.0238587 -0.0819996  0.0021213
  2.2752000  0.0573000  0.0132216 -0.0761129 -0.0186096
  2.2753000  0.0689000  0.0161300 -0.0685542 -0.0092837
  2.2628000  0.0808000  0.0226789 -0.0700102  0.0075161
  2.2755000  0.0805000  0.0168832 -0.0609983 -0.0023271
  2.2759000  0.0921000  0.0163782 -0.0539766  0.0028517
  2.2631000  0.0927000  0.0207507 -0.0600163  0.0115024
  2.2881000  0.0801000  0.0103448 -0.0491584 -0.0082334
  2.2884000  0.0915000  0.0112262 -0.0454230 -0.0030828
  2.2878000  0.0686000  0.0078992 -0.0519941 -0.0146291
  2.3003000  0.0684000  0.0014049 -0.0367011 -0.0149381
  2.3005000  0.0797000  0.0045803 -0.0371744 -0.0103267
  2.3008000  0.0910000  0.0063747 -0.0361225 -0.0060507
  2.2877000  0.0572000  0.0030728 -0.0527602 -0.0221027
  2.3002000  0.0570000 -0.0033786 -0.0338805 -0.0192102
  2.3129000  0.0795000  0.0003993 -0.0268523 -0.0098123
  2.3128000  0.0682000 -0.0025010 -0.0248100 -0.0124852
  2.3252000  0.0680000 -0.0042531 -0.0163959 -0.0092048
  2.3253000  0.0793000 -0.0021292 -0.0188233 -0.0080162
  2.3254000  0.0905000 -0.0003318 -0.0202123 -0.0062365
  2.3131000  0.0907000  0.0024395 -0.0274741 -0.0068237
  2.3127000  0.0568000 -0.0060134 -0.0210396 -0.0141412
  2.3252000  0.0567000 -0.0062451 -0.0129730 -0.0093360
  2.3376000  0.0566000 -0.0053971 -0.0079942 -0.0055687
  2.3377000  0.0679000 -0.0046334 -0.0107025 -0.0061327
  2.3501000  0.0565000 -0.0042569 -0.0049151 -0.0028516
  2.3501000  0.0678000 -0.0043017 -0.0069069 -0.0036281
  2.3625000  0.0565000 -0.0031648 -0.0029728 -0.0009627
  2.3750000  0.0565000 -0.0022471 -0.0017245  0.0003071
  2.3750000  0.0677000 -0.0029862 -0.0026950 -0.0003776
  2.3626000  0.0677000 -0.0036764 -0.0043869 -0.0017409
  2.3875000  0.0565000 -0.0015298 -0.0009024  0.0011300
  2.3874000  0.0678000 -0.0023413 -0.0015398  0.0005647
  2.3874000  0.0790000 -0.0027266 -0.0022473  0.0000588
  2.3874000  0.0902000 -0.0027969 -0.0029517 -0.0003324
  2.3750000  0.0902000 -0.0030788 -0.0046566 -0.0012020
  2.3750000  0.0790000 -0.0032079 -0.0037075 -0.0008969
  2.3626000  0.0790000 -0.0035876 -0.0057726 -0.0021938
  2.3501000  0.0790000 -0.0037193 -0.0087245 -0.0038645
  2.3626000  0.0902000 -0.0031531 -0.0069935 -0.0023072
  2.3502000  0.0903000 -0.0028711 -0.0101866 -0.0036147
  2.3626000  0.1014000 -0.0025757 -0.0079428 -0.0021300
  2.3502000  0.1015000 -0.0020041 -0.0112065 -0.0030163
  2.3750000  0.1014000 -0.0027503 -0.0054563 -0.0012928
  2.3750000  0.1126000 -0.0023426 -0.0060596 -0.0012094
  2.3626000  0.1126000 -0.0019951 -0.0085824 -0.0017438
  2.3502000  0.1127000 -0.0012543 -0.0117834 -0.0022083
  2.3874000  0.1015000 -0.0026575 -0.0035829 -0.0005817
  2.3874000  0.1127000 -0.0024022 -0.0040931 -0.0006988
  2.3874000  0.1239000 -0.0021051 -0.0044465 -0.0007060
  2.3874000  0.1351000 -0.0018167 -0.0046346 -0.0006403
  2.3750000  0.1351000 -0.0015975 -0.0065716 -0.0007172
  2.3750000  0.1239000 -0.0019415 -0.0064299 -0.0009980
  2.3626000  0.1239000 -0.0014968 -0.0089019 -0.0012320
  2.3502000  0.1239000 -0.0006899 -0.0119470 -0.0013099
  2.3626000  0.1351000 -0.0011177 -0.0089308 -0.0006738
  2.3502000  0.1350000 -0.0003292 -0.0117512 -0.0004153
  2.3626000  0.1463000 -0.0008728 -0.0086949 -0.0001270
  2.3502000  0.1463000 -0.0001587 -0.0112605  0.0004095
  2.3750000  0.1463000 -0.0013308 -0.0065015 -0.0004142
  2.3750000  0.1576000 -0.0011441 -0.0062456 -0.0001254
  2.3626000  0.1576000 -0.0007464 -0.0082415  0.0003632
  2.3502000  0.1575000 -0.0001481 -0.0105327  0.0011215
  2.3874000  0.1463000 -0.0015631 -0.0046623 -0.0005352
  2.3874000  0.1576000 -0.0013563 -0.0045370 -0.0004192
  2.3874000  0.1689000 -0.0011930 -0.0042806 -0.0003169
  2.3874000  0.1803000 -0.0010584 -0.0039189 -0.0002452
  2.3750000  0.1803000 -0.0009520 -0.0052960  0.0002964
  2.3750000  0.1689000 -0.0010253 -0.0058328  0.0001174
  2.3626000  0.1689000 -0.0007133 -0.0076157  0.0007670
  2.3501000  0.1689000 -0.0002573 -0.0096243  0.0016897
  2.3626000  0.1803000 -0.0007466 -0.0068559  0.0010608
  2.3501000  0.1803000 -0.0004431 -0.0085876  0.0020968
  2.3625000  0.1918000 -0.0008018 -0.0060016  0.0012371
  2.3501000  0.1918000 -0.0006528 -0.0074692  0.0023413
  2.3750000  0.1918000 -0.0008964 -0.0046676  0.0003993
  2.3750000  0.2034000 -0.0008247 -0.0039811  0.0004216
  2.3625000  0.2034000 -0.0008353 -0.0050949  0.0012943
  2.3501000  0.2033000 -0.0008381 -0.0063058  0.0024190
  2.3875000  0.1918000 -0.0009339 -0.0034743 -0.0002176
  2.3875000  0.2034000 -0.0007930 -0.0029723 -0.0002357
  2.3875000  0.2151000 -0.0006059 -0.0024440 -0.0002983
  2.3750000  0.2151000 -0.0006974 -0.0032684  0.0003671
  2.3625000  0.2151000 -0.0008041 -0.0041726  0.0012401
  2.3500000  0.2151000 -0.0009429 -0.0051459  0.0023458
  2.3376000  0.2150000 -0.0011378 -0.0061679  0.0037078
  2.3376000  0.2033000 -0.0008535 -0.0075878  0.0038239
  2.3251000  0.2150000 -0.0014184 -0.0071991  0.0053402
  2.3251000  0.2032000 -0.0009145 -0.0089041  0.0055389
  2.3376000  0.1917000 -0.0004719 -0.0090390  0.0037479
  2.3252000  0.1916000 -0.0002895 -0.0106676  0.0054961
  2.3252000  0.1801000  0.0003876 -0.0124421  0.0051969
  2.3377000  0.1802000 -0.0000539 -0.0104711  0.0034615
  2.3127000  0.1915000 -0.0001473 -0.0122825  0.0076114
  2.3126000  0.2032000 -0.0010605 -0.0101961  0.0075730
  2.3001000  0.2031000 -0.0013426 -0.0113964  0.0099265
  2.3002000  0.1914000 -0.0001048 -0.0138090  0.0101003
  2.3003000  0.1798000  0.0012409 -0.0163382  0.0099357
  2.3128000  0.1800000  0.0008431 -0.0144303  0.0073524
  2.3126000  0.2149000 -0.0018261 -0.0082043  0.0072544
  2.3001000  0.2149000 -0.0023990 -0.0091321  0.0094417
  2.2876000  0.2148000 -0.0031843 -0.0099287  0.0118744
  2.2876000  0.2030000 -0.0018122 -0.0124343  0.0125753
  2.2877000  0.1913000 -0.0002216 -0.0151425  0.0129478
  2.2752000  0.1911000 -0.0005773 -0.0161886  0.0161005
  2.2753000  0.1794000  0.0015569 -0.0193989  0.0163721
  2.2879000  0.1796000  0.0015136 -0.0180426  0.0129606
  2.2626000  0.1910000 -0.0012295 -0.0168477  0.0194802
  2.2500000  0.1910000 -0.0022188 -0.0170569  0.0229670
  2.2500000  0.1791000  0.0006326 -0.0205309  0.0239155
  2.2627000  0.1792000  0.0012834 -0.0202552  0.0200777
  2.2881000  0.1680000  0.0033215 -0.0211019  0.0125686
  2.2755000  0.1676000  0.0038186 -0.0228716  0.0162479
  2.2759000  0.1559000  0.0061363 -0.0266079  0.0156507
  2.2884000  0.1565000  0.0050860 -0.0242380  0.0117306
  2.3008000  0.1569000  0.0039241 -0.0215620  0.0084830
  2.3005000  0.1683000  0.0026130 -0.0189467  0.0094018
  2.2628000  0.1673000  0.0039707 -0.0240146  0.0203220
  2.2500000  0.1672000  0.0036836 -0.0243906  0.0245596
  2.2500000  0.1550000  0.0069479 -0.0287962  0.0248955
  2.2631000  0.1553000  0.0068214 -0.0282724  0.0201458
  2.2372000  0.1673000  0.0029221 -0.0239693  0.0287879
  2.2369000  0.1553000  0.0064294 -0.0282230  0.0296298
  2.2373000  0.1792000 -0.0004160 -0.0202099  0.0277437
  2.2247000  0.1794000 -0.0018617 -0.0193060  0.0314206
  2.2245000  0.1676000  0.0016844 -0.0227700  0.0328302
  2.2241000  0.1559000  0.0053020 -0.0265031  0.0341039
  2.2374000  0.1910000 -0.0035697 -0.0168045  0.0264454
  2.2248000  0.1911000 -0.0052722 -0.0161030  0.0297971
  2.2119000  0.1680000  0.0000731 -0.0209503  0.0364685
  2.2121000  0.1796000 -0.0036414 -0.0179021  0.0347904
  2.1997000  0.1798000 -0.0056775 -0.0161555  0.0377710
  2.1995000  0.1683000 -0.0017821 -0.0187482  0.0395998
  2.1992000  0.1570000  0.0020543 -0.0213640  0.0412276
  2.2116000  0.1565000  0.0037409 -0.0240862  0.0379985
  2.2123000  0.1913000 -0.0072814 -0.0150134  0.0329084
  2.1998000  0.1914000 -0.0095467 -0.0136423  0.0357119
  2.1873000  0.1915000 -0.0119755 -0.0120813  0.0381603
  2.1872000  0.1800000 -0.0078364 -0.0142137  0.0403170
  2.1748000  0.1916000 -0.0145141 -0.0104438  0.0402395
  2.1748000  0.1801000 -0.0100675 -0.0122023  0.0424418
  2.1871000  0.1686000 -0.0037086 -0.0163650  0.0422019
  2.1747000  0.1687000 -0.0056502 -0.0139353  0.0443177
  2.1746000  0.1574000 -0.0013079 -0.0155924  0.0459008
  2.1869000  0.1572000  0.0003398 -0.0184913  0.0438449
  2.1622000  0.1688000 -0.0075191 -0.0115648  0.0459728
  2.1623000  0.1802000 -0.0122882 -0.0102119  0.0441481
  2.1499000  0.1803000 -0.0144867 -0.0083209  0.0454753
  2.1498000  0.1689000 -0.0092965 -0.0093454  0.0472166
  2.1498000  0.1576000 -0.0041681 -0.0102400  0.0485495
  2.1622000  0.1575000 -0.0028259 -0.0128094  0.0474457
  2.1624000  0.1917000 -0.0171063 -0.0087984  0.0419484
  2.1499000  0.1918000 -0.0197071 -0.0072253  0.0433154
  2.1374000  0.1919000 -0.0222581 -0.0057785  0.0443906
  2.1374000  0.1804000 -0.0165812 -0.0066050  0.0464827
  2.1374000  0.2034000 -0.0279540 -0.0048882  0.0418088
  2.1250000  0.2034000 -0.0309937 -0.0038103  0.0426526
  2.1250000  0.1919000 -0.0247814 -0.0044805  0.0452019
  2.1249000  0.1804000 -0.0185774 -0.0050904  0.0472281
  2.1375000  0.2151000 -0.0335942 -0.0039909  0.0387456
  2.1250000  0.2151000 -0.0371579 -0.0031249  0.0395860
  2.1125000  0.1919000 -0.0272300 -0.0033476  0.0457951
  2.1125000  0.2035000 -0.0339901 -0.0028649  0.0432841
  2.1000000  0.2035000 -0.0369821 -0.0020582  0.0437440
  2.1000000  0.1919000 -0.0296285 -0.0023993  0.0462167
  2.1000000  0.1804000 -0.0222922 -0.0026845  0.0481094
  2.1125000  0.1804000 -0.0204729 -0.0037743  0.0477567
  2.1125000  0.2152000 -0.0407277 -0.0023541  0.0402239
  2.1000000  0.2152000 -0.0443159 -0.0016961  0.0406987
  2.0875000  0.2152000 -0.0478858 -0.0011407  0.0410340
  2.0875000  0.2035000 -0.0399363 -0.0013810  0.0440608
  2.0750000  0.2152000 -0.0514628 -0.0006944  0.0412506
  2.0750000  0.2035000 -0.0428664 -0.0008428  0.0442679
  2.0875000  0.1920000 -0.0319607 -0.0016074  0.0464956
  2.0750000  0.1919000 -0.0342725 -0.0009796  0.0466754
  2.0750000  0.1804000 -0.0256986 -0.0010784  0.0484641
  2.0875000  0.1805000 -0.0240101 -0.0017878  0.0483314
  2.0625000  0.1920000 -0.0365087 -0.0004794  0.0467678
  2.0625000  0.2035000 -0.0457634 -0.0004086  0.0443889
  2.0500000  0.2035000 -0.0486575 -0.0000880  0.0444420
  2.0500000  0.1919000 -0.0387645 -0.0001070  0.0468064
  2.0500000  0.1805000 -0.0288869 -0.0001136  0.0485397
  2.0625000  0.1805000 -0.0272967 -0.0005237  0.0485245
  2.0625000  0.2152000 -0.0550233 -0.0003320  0.0413773
  2.0500000  0.2152000 -0.0585878 -0.0000647  0.0414399
  2.0375000  0.2152000 -0.0621363  0.0001430  0.0414486
  2.0375000  0.2035000 -0.0515287  0.0001587  0.0444477
  2.0250000  0.2152000 -0.0656965  0.0002778  0.0414233
  2.0250000  0.2035000 -0.0544083  0.0003217  0.0444191
  2.0375000  0.1920000 -0.0409540  0.0001710  0.0467997
  2.0250000  0.1919000 -0.0431766  0.0003613  0.0467709
  2.0250000  0.1805000 -0.0319755  0.0003993  0.0484841
  2.0375000  0.1805000 -0.0304317  0.0001925  0.0485213
  2.0125000  0.1920000 -0.0453671  0.0004864  0.0467173
  2.0125000  0.2035000 -0.0572798  0.0004403  0.0443667
  2.0000000  0.2035000 -0.0601657  0.0005016  0.0442984
  2.0000000  0.1920000 -0.0475822  0.0005550  0.0466560
  2.0000000  0.1805000 -0.0350590  0.0006181  0.0483718
  2.0125000  0.1805000 -0.0335138  0.0005387  0.0484301
  2.0125000  0.2152000 -0.0692440  0.0003771  0.0413705
  2.0000000  0.2152000 -0.0728092  0.0004284  0.0413038
  1.9875000  0.2152000 -0.0763635  0.0004579  0.0412232
  1.9875000  0.2035000 -0.0630348  0.0005359  0.0442284
  1.9750000  0.2152000 -0.0799374  0.0004524  0.0411439
  1.9750000  0.2035000 -0.0659161  0.0005330  0.0441552
  1.9875000  0.1920000 -0.0497706  0.0005947  0.0465894
  1.9750000  0.1919000 -0.0519951  0.0006007  0.0465249
  1.9750000  0.1805000 -0.0381420  0.0006540  0.0482580
  1.9875000  0.1805000 -0.0365911  0.0006548  0.0483143
  1.9625000  0.1920000 -0.0542095  0.0005819  0.0464548
  1.9625000  0.2035000 -0.0688096  0.0005271  0.0440780
  1.9500000  0.2035000 -0.0717253  0.0004941  0.0440023
  1.9500000  0.1920000 -0.0564626  0.0005441  0.0463915
  1.9500000  0.1805000 -0.0413000  0.0006030  0.0481455
  1.9625000  0.1805000 -0.0397113  0.0006377  0.0481991
  1.9625000  0.2152000 -0.0835001  0.0004470  0.0410617
  1.9500000  0.2152000 -0.0870865  0.0004183  0.0409843
  1.9375000  0.2152000 -0.0906603  0.0003925  0.0409067
  1.9375000  0.2035000 -0.0746231  0.0004630  0.0439371
  1.9250000  0.2152000 -0.0942574  0.0003475  0.0408404
  1.9250000  0.2035000 -0.0775366  0.0004139  0.0438772
  1.9375000  0.1920000 -0.0586874  0.0005103  0.0463324
  1.9250000  0.1919000 -0.0609559  0.0004666  0.0462820
  1.9250000  0.1805000 -0.0444787  0.0005040  0.0480582
  1.9375000  0.1805000 -0.0428777  0.0005593  0.0480993
  1.9125000  0.1920000 -0.0632108  0.0004166  0.0462297
  1.9125000  0.2035000 -0.0804631  0.0003820  0.0438184
  1.9000000  0.2035000 -0.0834126  0.0003337  0.0437644
  1.9000000  0.1920000 -0.0655083  0.0003615  0.0461864
  1.9000000  0.1805000 -0.0477394  0.0004039  0.0479809
  1.9125000  0.1805000 -0.0460994  0.0004556  0.0480164
  1.9125000  0.2152000 -0.0978397  0.0003203  0.0407776
  1.9000000  0.2152000 -0.1014479  0.0002785  0.0407231
  1.8875000  0.2152000 -0.1050388  0.0002497  0.0406703
  1.8875000  0.2035000 -0.0863376  0.0002986  0.0437223
  1.8750000  0.2152000 -0.1086544  0.0002053  0.0406297
  1.8750000  0.2035000 -0.0892777  0.0002503  0.0436859
  1.8875000  0.1920000 -0.0677685  0.0003237  0.0461482
  1.8750000  0.1919000 -0.0700745  0.0002829  0.0461185
  1.8750000  0.1805000 -0.0510046  0.0003024  0.0479290
  1.8875000  0.1805000 -0.0493614  0.0003551  0.0479527
  1.8625000  0.1920000 -0.0723599  0.0002409  0.0460860
  1.8625000  0.2035000 -0.0922289  0.0002273  0.0436500
  1.8500000  0.2035000 -0.0952023  0.0001886  0.0436175
  1.8500000  0.1920000 -0.0746896  0.0001965  0.0460614
  1.8500000  0.1805000 -0.0543413  0.0002253  0.0478832
  1.8625000  0.1805000 -0.0526647  0.0002640  0.0479036
  1.8625000  0.2152000 -0.1122502  0.0001861  0.0405919
  1.8500000  0.2152000 -0.1158731  0.0001527  0.0405611
  1.8375000  0.2152000 -0.1194738  0.0001355  0.0405304
  1.8375000  0.2035000 -0.0981440  0.0001669  0.0435956
  1.8250000  0.2152000 -0.1231006  0.0001012  0.0405102
  1.8250000  0.2035000 -0.1011000  0.0001304  0.0435775
  1.8375000  0.1920000 -0.0769717  0.0001737  0.0460405
  1.8250000  0.1919000 -0.0793015  0.0001482  0.0460265
  1.8250000  0.1805000 -0.0576608  0.0001546  0.0478576
  1.8375000  0.1805000 -0.0559918  0.0001918  0.0478689
  1.8125000  0.1920000 -0.0816038  0.0001210  0.0460080
  1.8125000  0.2035000 -0.1040655  0.0001224  0.0435582
  1.8000000  0.2035000 -0.1070529  0.0000960  0.0435403
  1.8000000  0.1920000 -0.0839528  0.0000902  0.0459959
  1.8000000  0.1805000 -0.0610422  0.0001107  0.0478325
  1.8125000  0.1805000 -0.0593443  0.0001335  0.0478432
  1.8125000  0.2152000 -0.1267029  0.0000952  0.0404909
  1.8000000  0.2152000 -0.1303340  0.0000723  0.0404762
  1.7875000  0.2152000 -0.1339387  0.0000668  0.0404596
  1.7875000  0.2035000 -0.1100020  0.0000876  0.0435312
  1.7750000  0.2152000 -0.1375714  0.0000409  0.0404519
  1.7750000  0.2035000 -0.1129656  0.0000611  0.0435245
  1.7875000  0.1920000 -0.0862449  0.0000825  0.0459859
  1.7750000  0.1919000 -0.0885877  0.0000702  0.0459814
  1.7750000  0.1805000 -0.0643890  0.0000687  0.0478228
  1.7875000  0.1805000 -0.0627069  0.0000925  0.0478268
  1.7625000  0.1920000 -0.0908973  0.0000545  0.0459711
  1.7625000  0.2035000 -0.1159381  0.0000651  0.0435148
  1.7500000  0.2035000 -0.1189329  0.0000473  0.0435052
  1.7500000  0.1920000 -0.0932570  0.0000330  0.0459660
  1.7500000  0.1805000 -0.0677933  0.0000497  0.0478094
  1.7625000  0.1805000 -0.0660843  0.0000611  0.0478147
  1.7625000  0.2152000 -0.1411756  0.0000455  0.0404435
  1.7500000  0.2152000 -0.1448110  0.0000298  0.0404377
  1.7375000  0.2152000 -0.1484162  0.0000322  0.0404287
  1.7375000  0.2035000 -0.1218840  0.0000480  0.0435030
  1.7250000  0.2152000 -0.1520521  0.0000111  0.0404276
  1.7250000  0.2035000 -0.1248504  0.0000273  0.0435021
  1.7375000  0.1920000 -0.0955518  0.0000358  0.0459619
  1.7250000  0.1919000 -0.0979012  0.0000320  0.0459624
  1.7250000  0.1805000 -0.0711508  0.0000260  0.0478081
  1.7375000  0.1805000 -0.0694634  0.0000417  0.0478083
  1.7125000  0.1920000 -0.1002126  0.0000231  0.0459562
  1.7125000  0.2035000 -0.1278258  0.0000391  0.0434974
  1.7000000  0.2035000 -0.1308248  0.0000258  0.0434918
  1.7000000  0.1920000 -0.1025785  0.0000065  0.0459545
  1.7000000  0.1805000 -0.0745661  0.0000220  0.0478005
  1.7125000  0.1805000 -0.0728514  0.0000268  0.0478031
  1.7125000  0.2152000 -0.1556559  0.0000225  0.0404247
  1.7000000  0.2152000 -0.1592936  0.0000106  0.0404232
  1.6875000  0.2152000 -0.1628979  0.0000177  0.0404177
  1.6875000  0.2035000 -0.1337751  0.0000319  0.0434928
  1.6750000  0.2152000 -0.1665356 -0.0000017  0.0404196
  1.6750000  0.2035000 -0.1367421  0.0000135  0.0434946
  1.6875000  0.1920000 -0.1048722  0.0000156  0.0459531
  1.6750000  0.1919000 -0.1072250  0.0000163  0.0459559
  1.6750000  0.1805000 -0.0779258  0.0000080  0.0478030
  1.6875000  0.1805000 -0.0762369  0.0000196  0.0478015
  1.6625000  0.1920000 -0.1095357  0.0000107  0.0459515
  1.6625000  0.2035000 -0.1397186  0.0000299  0.0434920
  1.6500000  0.2035000 -0.1427202  0.0000184  0.0434880
  1.6500000  0.1920000 -0.1119057 -0.0000040  0.0459512
  1.6500000  0.1805000 -0.0813463  0.0000117  0.0477979
  1.6625000  0.1805000 -0.0796285  0.0000134  0.0477993
  1.6625000  0.2152000 -0.1701381  0.0000140  0.0404191
  1.6500000  0.2152000 -0.1737773  0.0000034  0.0404194
  1.6375000  0.2152000 -0.1773800  0.0000132  0.0404151
  1.6375000  0.2035000 -0.1456685  0.0000274  0.0434904
  1.6250000  0.2152000 -0.1810192 -0.0000063  0.0404183
  1.6250000  0.2035000 -0.1486352  0.0000092  0.0434932
  1.6375000  0.1920000 -0.1141966  0.0000085  0.0459510
  1.6250000  0.1919000 -0.1165516  0.0000115  0.0459546
  1.6250000  0.1805000 -0.0847046  0.0000017  0.0478020
  1.6375000  0.1805000 -0.0830159  0.0000120  0.0477998
  1.6125000  0.1920000 -0.1188605  0.0000071  0.0459509
  1.6125000  0.2035000 -0.1516121  0.0000285  0.0434915
  1.6000000  0.2035000 -0.1546159  0.0000173  0.0434880
  1.6000000  0.1920000 -0.1212338 -0.0000075  0.0459511
  1.6000000  0.1805000 -0.0881280  0.0000092  0.0477978
  1.6125000  0.1805000 -0.0864081  0.0000096  0.0477988
  1.6125000  0.2152000 -0.1846200  0.0000120  0.0404188
  1.6000000  0.2152000 -0.1882607  0.0000015  0.0404195
  1.5875000  0.2152000 -0.1918617  0.0000128  0.0404155
  1.5875000  0.2035000 -0.1575618  0.0000280  0.0434907
  1.5750000  0.2152000 -0.1955022 -0.0000077  0.0404191
  1.5750000  0.2035000 -0.1605280  0.0000089  0.0434939
  1.5875000  0.1920000 -0.1235213  0.0000071  0.0459513
  1.5750000  0.1919000 -0.1258780  0.0000111  0.0459551
  1.5750000  0.1805000 -0.0914836  0.0000004  0.0478023
  1.5875000  0.1805000 -0.0897955  0.0000105  0.0478000
  1.5625000  0.1920000 -0.1281850  0.0000069  0.0459516
  1.5625000  0.2035000 -0.1635051  0.0000301  0.0434924
  1.5500000  0.2035000 -0.1665109  0.0000183  0.0434890
  1.5500000  0.1920000 -0.1305613 -0.0000084  0.0459519
  1.5500000  0.1805000 -0.0949092  0.0000095  0.0477984
  1.5625000  0.1805000 -0.0931875  0.0000095  0.0477993
  1.5625000  0.2152000 -0.1991013  0.0000125  0.0404200
  1.5500000  0.2152000 -0.2027433  0.0000014  0.0404207
  1.5375000  0.2152000 -0.2063426  0.0000137  0.0404167
  1.5375000  0.2035000 -0.1694544  0.0000301  0.0434918
  1.5250000  0.2152000 -0.2099845 -0.0000081  0.0404205
  1.5250000  0.2035000 -0.1724199  0.0000096  0.0434951
  1.5375000  0.1920000 -0.1328453  0.0000075  0.0459522
  1.5250000  0.1919000 -0.1352036  0.0000120  0.0459561
  1.5250000  0.1805000 -0.0982616  0.0000004  0.0478031
  1.5375000  0.1805000 -0.0965744  0.0000111  0.0478008
  1.5125000  0.1920000 -0.1375084  0.0000076  0.0459526
  1.5125000  0.2035000 -0.1753973  0.0000324  0.0434937
  1.5000000  0.2035000 -0.1784051  0.0000198  0.0434903
  1.5000000  0.1920000 -0.1398878 -0.0000089  0.0459530
  1.5000000  0.1805000 -0.1016892  0.0000103  0.0477992
  1.5125000  0.1805000 -0.0999658  0.0000104  0.0478000
  1.5125000  0.2152000 -0.2135819  0.0000136  0.0404215
  1.5000000  0.2152000 -0.2172253  0.0000016  0.0404221
  1.4875000  0.2152000 -0.2208230  0.0000148  0.0404180
  1.4875000  0.2035000 -0.1813462  0.0000324  0.0434931
  1.4750000  0.2152000 -0.2244663 -0.0000086  0.0404219
  1.4750000  0.2035000 -0.1843111  0.0000104  0.0434964
  1.4875000  0.1920000 -0.1421682  0.0000082  0.0459532
  1.4750000  0.1919000 -0.1445281  0.0000130  0.0459571
  1.4750000  0.1805000 -0.1050384  0.0000007  0.0478039
  1.4875000  0.1805000 -0.1033521  0.0000121  0.0478016
  1.4625000  0.1920000 -0.1468308  0.0000083  0.0459536
  1.4625000  0.2035000 -0.1872886  0.0000347  0.0434950
  1.4500000  0.2035000 -0.1902984  0.0000213  0.0434916
  1.4500000  0.1920000 -0.1492133 -0.0000093  0.0459540
  1.4500000  0.1805000 -0.1084680  0.0000112  0.0478000
  1.4625000  0.1805000 -0.1067429  0.0000113  0.0478008
  1.4625000  0.2152000 -0.2280620  0.0000146  0.0404231
  1.4500000  0.2152000 -0.2317068  0.0000019  0.0404235
  1.4375000  0.2152000 -0.2353027  0.0000159  0.0404192
  1.4375000  0.2035000 -0.1932371  0.0000347  0.0434943
  1.4250000  0.2152000 -0.2389474 -0.0000090  0.0404233
  1.4250000  0.2035000 -0.1962013  0.0000113  0.0434976
  1.4375000  0.1920000 -0.1514901  0.0000090  0.0459543
  1.4250000  0.1919000 -0.1538516  0.0000141  0.0459581
  1.4250000  0.1805000 -0.1118140  0.0000010  0.0478046
  1.4375000  0.1805000 -0.1101286  0.0000131  0.0478024
  1.4125000  0.1920000 -0.1561522  0.0000092  0.0459546
  1.4125000  0.2035000 -0.1991791  0.0000372  0.0434962
  1.4000000  0.2035000 -0.2021909  0.0000231  0.0434926
  1.4000000  0.1920000 -0.1585377 -0.0000092  0.0459548
  1.4000000  0.1805000 -0.1152457  0.0000127  0.0478006
  1.4125000  0.1805000 -0.1135188  0.0000125  0.0478014
  1.4125000  0.2152000 -0.2425415  0.0000158  0.0404246
  1.4000000  0.2152000 -0.2461876  0.0000024  0.0404247
  1.3875000  0.2152000 -0.2497819  0.0000175  0.0404202
  1.3875000  0.2035000 -0.2051271  0.0000377  0.0434951
  1.3750000  0.2152000 -0.2534279 -0.0000085  0.0404242
  1.3750000  0.2035000 -0.2080908  0.0000133  0.0434983
  1.3875000  0.1920000 -0.1608111  0.0000105  0.0459550
  1.3750000  0.1919000 -0.1631741  0.0000165  0.0459587
  1.3750000  0.1805000 -0.1185887  0.0000028  0.0478050
  1.3875000  0.1805000 -0.1169041  0.0000150  0.0478030
  1.3625000  0.1920000 -0.1654728  0.0000120  0.0459548
  1.3625000  0.2035000 -0.2110688  0.0000413  0.0434966
  1.3500000  0.2035000 -0.2140827  0.0000272  0.0434926
  1.3500000  0.1920000 -0.1678615 -0.0000066  0.0459547
  1.3500000  0.1805000 -0.1220228  0.0000169  0.0478005
  1.3625000  0.1805000 -0.1202940  0.0000158  0.0478015
  1.3625000  0.2152000 -0.2570202  0.0000184  0.0404252
  1.3500000  0.2152000 -0.2606677  0.0000047  0.0404248
  1.3375000  0.2152000 -0.2642603  0.0000216  0.0404195
  1.3375000  0.2035000 -0.2170166  0.0000437  0.0434945
  1.3250000  0.2152000 -0.2679077 -0.0000048  0.0404228
  1.3250000  0.2035000 -0.2199798  0.0000191  0.0434969
  1.3375000  0.1920000 -0.1701315  0.0000154  0.0459544
  1.3250000  0.1919000 -0.1724966  0.0000233  0.0459574
  1.3250000  0.1805000 -0.1253635  0.0000094  0.0478039
  1.3375000  0.1805000 -0.1236793  0.0000206  0.0478025
  1.3125000  0.1920000 -0.1747937  0.0000204  0.0459527
  1.3125000  0.2035000 -0.2229583  0.0000503  0.0434943
  1.3000000  0.2035000 -0.2259747  0.0000375  0.0434889
  1.3000000  0.1920000 -0.1771862  0.0000030  0.0459514
  1.3000000  0.1805000 -0.1288014  0.0000289  0.0477978
  1.3125000  0.1805000 -0.1270698  0.0000252  0.0477997
  1.3125000  0.2152000 -0.2714984  0.0000250  0.0404230
  1.3000000  0.2152000 -0.2751473  0.0000123  0.0404210
  1.2875000  0.2152000 -0.2787384  0.0000322  0.0404137
  1.2875000  0.2035000 -0.2289068  0.0000574  0.0434890
  1.2750000  0.2152000 -0.2823875  0.0000071  0.0404148
  1.2750000  0.2035000 -0.2318703  0.0000345  0.0434894
  1.2875000  0.1920000 -0.1794537  0.0000291  0.0459496
  1.2750000  0.1919000 -0.1818216  0.0000408  0.0459508
  1.2750000  0.1805000 -0.1321420  0.0000278  0.0477988
  1.2875000  0.1805000 -0.1304568  0.0000358  0.0477988
  1.2625000  0.1920000 -0.1841185  0.0000419  0.0459438
  1.2625000  0.2035000 -0.2348501  0.0000709  0.0434841
  1.2500000  0.2035000 -0.2378701  0.0000618  0.0434754
  1.2500000  0.1920000 -0.1865164  0.0000286  0.0459398
  1.2500000  0.1805000 -0.1355873  0.0000583  0.0477888
  1.2625000  0.1805000 -0.1338510  0.0000491  0.0477928
  1.2625000  0.2152000 -0.2859770  0.0000416  0.0404122
  1.2500000  0.2152000 -0.2896280  0.0000319  0.0404065
  1.2375000  0.2152000 -0.2932183  0.0000573  0.0403946
  1.2375000  0.2035000 -0.2408018  0.0000880  0.0434715
  1.2250000  0.2152000 -0.2968700  0.0000361  0.0403906
  1.2250000  0.2035000 -0.2437674  0.0000700  0.0434670
  1.2375000  0.1920000 -0.1887834  0.0000619  0.0459347
  1.2250000  0.1919000 -0.1911569  0.0000811  0.0459317
  1.2250000  0.1805000 -0.1389336  0.0000709  0.0477840
  1.2375000  0.1805000 -0.1372443  0.0000719  0.0477872
  1.2125000  0.1920000 -0.1934566  0.0000901  0.0459198
  1.2125000  0.2035000 -0.2467509  0.0001153  0.0434560
  1.2000000  0.2035000 -0.2497773  0.0001139  0.0434402
  1.2000000  0.1920000 -0.1958639  0.0000853  0.0459099
  1.2000000  0.1805000 -0.1423948  0.0001213  0.0477658
  1.2125000  0.1805000 -0.1406490  0.0001019  0.0477742
  1.2125000  0.2152000 -0.3004595  0.0000784  0.0403816
  1.2000000  0.2152000 -0.3041141  0.0000754  0.0403680
  1.1875000  0.2152000 -0.3077057  0.0001100  0.0403468
  1.1875000  0.2035000 -0.2527122  0.0001507  0.0434281
  1.1750000  0.2152000 -0.3113626  0.0000969  0.0403321
  1.1750000  0.2035000 -0.2556840  0.0001422  0.0434140
  1.1875000  0.1920000 -0.1981351  0.0001306  0.0458979
  1.1750000  0.1919000 -0.2005198  0.0001623  0.0458870
  1.1750000  0.1805000 -0.1457592  0.0001583  0.0477498
  1.1875000  0.1805000 -0.1440591  0.0001468  0.0477590
  1.1625000  0.1920000 -0.2028293  0.0001848  0.0458658
  1.1625000  0.2035000 -0.2586763  0.0002015  0.0433918
  1.1500000  0.2035000 -0.2617153  0.0002129  0.0433633
  1.1500000  0.1920000 -0.2052538  0.0001939  0.0458454
  1.1500000  0.1805000 -0.1492538  0.0002401  0.0477168
  1.1625000  0.1805000 -0.1474892  0.0002047  0.0477330
  1.1625000  0.2152000 -0.3149552  0.0001515  0.0403108
  1.1500000  0.2152000 -0.3186173  0.0001596  0.0402826
  1.1375000  0.2152000 -0.3222150  0.0002082  0.0402447
  1.1375000  0.2035000 -0.2646608  0.0002654  0.0433365
  1.1250000  0.2152000 -0.3258830  0.0002077  0.0402115
  1.1250000  0.2035000 -0.2676478  0.0002715  0.0433063
  1.1375000  0.1920000 -0.2075389  0.0002566  0.0458216
  1.1250000  0.1919000 -0.2099458  0.0003061  0.0457975
  1.1250000  0.1805000 -0.1526600  0.0003121  0.0476826
  1.1375000  0.1805000 -0.1509364  0.0002830  0.0477014
  1.1125000  0.1920000 -0.2122778  0.0003462  0.0457620
  1.1125000  0.2035000 -0.2706594  0.0003489  0.0432663
  1.1000000  0.2035000 -0.2737232  0.0003765  0.0432182
  1.1000000  0.1920000 -0.2147346  0.0003723  0.0457263
  1.1000000  0.1805000 -0.1562192  0.0004320  0.0476287
  1.1125000  0.1805000 -0.1544191  0.0003780  0.0476556
  1.1125000  0.2152000 -0.3294860  0.0002788  0.0401696
  1.1000000  0.2152000 -0.3331644  0.0003016  0.0401184
  1.0875000  0.2152000 -0.3367787  0.0003665  0.0400559
  1.0875000  0.2035000 -0.2766936  0.0004466  0.0431708
  1.0750000  0.2152000 -0.3404704  0.0003795  0.0399969
  1.0750000  0.2035000 -0.2797124  0.0004668  0.0431194
  1.0875000  0.1920000 -0.2170504  0.0004535  0.0456866
  1.0750000  0.1919000 -0.2194989  0.0005189  0.0456466
  1.0750000  0.1805000 -0.1597068  0.0005361  0.0475734
  1.0875000  0.1805000 -0.1579387  0.0004924  0.0476025
  1.0625000  0.1920000 -0.2218752  0.0005710  0.0455957
  1.0625000  0.2035000 -0.2827623  0.0005587  0.0430581
  1.0500000  0.2035000 -0.2858729  0.0005946  0.0429898
  1.0500000  0.1920000 -0.2243881  0.0006031  0.0455466
  1.0500000  0.1805000 -0.1633782  0.0006722  0.0475031
  1.0625000  0.1805000 -0.1615179  0.0006136  0.0475370
  1.0625000  0.2152000 -0.3440990  0.0004652  0.0399284
  1.0500000  0.2152000 -0.3478117  0.0004976  0.0398509
  1.0375000  0.2152000 -0.3514644  0.0005689  0.0397636
  1.0375000  0.2035000 -0.2888933  0.0006683  0.0429251
  1.0250000  0.2152000 -0.3552054  0.0005792  0.0396840
  1.0250000  0.2035000 -0.2919720  0.0006806  0.0428612
  1.0375000  0.1920000 -0.2267611  0.0006846  0.0454966
  1.0250000  0.1919000 -0.2292795  0.0007381  0.0454519
  1.0250000  0.1805000 -0.1670001  0.0007530  0.0474463
  1.0375000  0.1805000 -0.1651607  0.0007280  0.0474736
  1.0125000  0.1920000 -0.2317300  0.0007620  0.0454040
  1.0125000  0.2035000 -0.2950916  0.0007547  0.0427948
  1.0000000  0.2035000 -0.2982835  0.0007525  0.0427327
  1.0000000  0.1920000 -0.2343297  0.0007435  0.0453691
  1.0000000  0.1805000 -0.1708354  0.0007927  0.0474048
  1.0125000  0.1805000 -0.1688901  0.0007950  0.0474192
  1.0125000  0.2152000 -0.3588900  0.0006551  0.0396016
  1.0000000  0.2152000 -0.3626725  0.0006614  0.0395200
  0.9875000  0.2152000 -0.3664048  0.0006888  0.0394439
  0.9875000  0.2035000 -0.3013908  0.0007650  0.0426902
  0.9750000  0.2152000 -0.3702422  0.0006262  0.0393974
  0.9750000  0.2035000 -0.3045677  0.0006810  0.0426707
  0.9875000  0.1920000 -0.2367896  0.0007475  0.0453487
  0.9750000  0.1919000 -0.2394044  0.0006837  0.0453541
  0.9750000  0.1805000 -0.1746263  0.0006420  0.0474315
  0.9875000  0.1805000 -0.1727020  0.0007550  0.0474083
  0.9625000  0.1920000 -0.2419484  0.0005380  0.0453822
  0.9625000  0.2035000 -0.3077943  0.0006170  0.0426782
  0.9500000  0.2035000 -0.3111023  0.0004167  0.0427292
  0.9500000  0.1920000 -0.2446403  0.0002804  0.0454606
  0.9500000  0.1805000 -0.1786095  0.0002172  0.0475590
  0.9625000  0.1805000 -0.1765971  0.0004908  0.0474760
  0.9625000  0.2152000 -0.3740361  0.0005961  0.0393780
  0.9500000  0.2152000 -0.3779470  0.0004455  0.0393994
  0.9375000  0.2152000 -0.3818186  0.0002481  0.0394791
  0.9375000  0.2035000 -0.3143182  0.0001539  0.0428447
  0.9250000  0.2152000 -0.3858117 -0.0001334  0.0396630
  0.9250000  0.2035000 -0.3175993 -0.0003352  0.0430560
  0.9375000  0.1920000 -0.2471202 -0.0000419  0.0455893
  0.9250000  0.1919000 -0.2497670 -0.0005710  0.0458035
  0.9250000  0.1804000 -0.1823954 -0.0007534  0.0478759
  0.9375000  0.1805000 -0.1804274 -0.0001594  0.0476895
  0.9125000  0.1920000 -0.2521783 -0.0012664  0.0460815
  0.9125000  0.2035000 -0.3208484 -0.0009015  0.0433617
  0.9000000  0.2035000 -0.3241098 -0.0018715  0.0437981
  0.9000000  0.1919000 -0.2547420 -0.0023179  0.0464676
  0.9000000  0.1804000 -0.1858547 -0.0026340  0.0484243
  0.9125000  0.1805000 -0.1840465 -0.0015306  0.0481113
  0.9125000  0.2152000 -0.3897597 -0.0005983  0.0399524
  0.9000000  0.2152000 -0.3937515 -0.0013954  0.0404114
  0.8875000  0.2152000 -0.3975486 -0.0024628  0.0410781
  0.8875000  0.2035000 -0.3271002 -0.0031151  0.0444096
  0.8750000  0.2151000 -0.4013794 -0.0040225  0.0419942
  0.8750000  0.2034000 -0.3301013 -0.0048513  0.0451960
  0.8875000  0.1919000 -0.2570000 -0.0036639  0.0469675
  0.8750000  0.1919000 -0.2591507 -0.0055979  0.0475515
  0.8751000  0.1804000 -0.1886593 -0.0060791  0.0491463
  0.8875000  0.1804000 -0.1873117 -0.0040640  0.0487628
  0.8626000  0.1919000 -0.2607757 -0.0081125  0.0482070
  0.8625000  0.2034000 -0.3327083 -0.0072479  0.0461293
  0.8501000  0.2034000 -0.3348472 -0.0105803  0.0472072
  0.8501000  0.1918000 -0.2621235 -0.0113585  0.0488205
  0.8501000  0.1803000 -0.1902011 -0.0115806  0.0496693
  0.8626000  0.1804000 -0.1896635 -0.0085115  0.0494751
  0.8625000  0.2151000 -0.4050537 -0.0061586  0.0431823
  0.8500000  0.2151000 -0.4084571 -0.0093175  0.0446499
  0.8376000  0.2151000 -0.4110160 -0.0136546  0.0463437
  0.8376000  0.2033000 -0.3363527 -0.0148506  0.0482418
  0.8251000  0.2150000 -0.4127114 -0.0195808  0.0480468
  0.8251000  0.2032000 -0.3369590 -0.0204581  0.0489558
  0.8376000  0.1918000 -0.2625418 -0.0154741  0.0492548
  0.8252000  0.1916000 -0.2623375 -0.0205700  0.0492749
  0.8252000  0.1801000 -0.1889239 -0.0199873  0.0490120
  0.8377000  0.1802000 -0.1897969 -0.0154383  0.0495568
  0.8127000  0.1915000 -0.2612149 -0.0264931  0.0484557
  0.8126000  0.2032000 -0.3363918 -0.0273921  0.0489645
  0.8001000  0.2031000 -0.3350441 -0.0354168  0.0476250
  0.8002000  0.1914000 -0.2594713 -0.0330671  0.0464547
  0.8003000  0.1798000 -0.1851415 -0.0303786  0.0452767
  0.8128000  0.1800000 -0.1873497 -0.0250347  0.0476116
  0.8126000  0.2149000 -0.4131631 -0.0273334  0.0491851
  0.8001000  0.2149000 -0.4121644 -0.0370420  0.0489577
  0.7876000  0.2148000 -0.4098802 -0.0478635  0.0463518
  0.7876000  0.2030000 -0.3328276 -0.0438149  0.0443238
  0.7877000  0.1913000 -0.2570893 -0.0396352  0.0428126
  0.7752000  0.1911000 -0.2548049 -0.0454083  0.0374892
  0.7753000  0.1794000 -0.1796822 -0.0398634  0.0365736
  0.7879000  0.1796000 -0.1823314 -0.0354892  0.0415407
  0.7626000  0.1910000 -0.2534405 -0.0494082  0.0306623
  0.7500000  0.1910000 -0.2536305 -0.0508680  0.0230697
  0.7500000  0.1791000 -0.1777851 -0.0440399  0.0239936
  0.7627000  0.1792000 -0.1779344 -0.0429133  0.0305095
  0.7881000  0.1680000 -0.1083607 -0.0315476  0.0403887
  0.7755000  0.1676000 -0.1049276 -0.0347193  0.0357171
  0.7759000  0.1559000 -0.0303071 -0.0301664  0.0348259
  0.7884000  0.1565000 -0.0357699 -0.0278658  0.0392559
  0.8008000  0.1569000 -0.0399460 -0.0246764  0.0427951
  0.8005000  0.1683000 -0.1118262 -0.0275798  0.0440424
  0.7628000  0.1673000 -0.1020508 -0.0371780  0.0301598
  0.7500000  0.1672000 -0.1012266 -0.0382663  0.0246100
  0.7500000  0.1550000 -0.0226785 -0.0337005  0.0249096
  0.7631000  0.1553000 -0.0247369 -0.0316760  0.0295235
  0.7372000  0.1673000 -0.1030358 -0.0371743  0.0190478
  0.7369000  0.1553000 -0.0250499 -0.0316643  0.0202850
  0.7373000  0.1792000 -0.1795773 -0.0429122  0.0174679
  0.7247000  0.1794000 -0.1829833 -0.0398629  0.0113782
  0.7245000  0.1676000 -0.1069320 -0.0347135  0.0134580
  0.7241000  0.1559000 -0.0309977 -0.0301620  0.0149641
  0.7374000  0.1910000 -0.2557319 -0.0494084  0.0154696
  0.7248000  0.1911000 -0.2594022 -0.0454079  0.0086204
  0.7119000  0.1680000 -0.1114618 -0.0315488  0.0087625
  0.7121000  0.1796000 -0.1873064 -0.0354939  0.0063854
  0.6997000  0.1798000 -0.1918118 -0.0303644  0.0026136
  0.6995000  0.1683000 -0.1160242 -0.0275668  0.0050760
  0.6992000  0.1570000 -0.0415678 -0.0247129  0.0069606
  0.7116000  0.1565000 -0.0369869 -0.0278803  0.0105180
  0.7123000  0.1913000 -0.2639990 -0.0396275  0.0032741
  0.6998000  0.1914000 -0.2687134 -0.0330782 -0.0004040
  0.6873000  0.1915000 -0.2727845 -0.0264851 -0.0024332
  0.6872000  0.1800000 -0.1957173 -0.0250372  0.0002480
  0.6748000  0.1916000 -0.2761466 -0.0205413 -0.0032505
  0.6748000  0.1801000 -0.1989299 -0.0199926 -0.0011533
  0.6871000  0.1686000 -0.1198914 -0.0232160  0.0024839
  0.6747000  0.1687000 -0.1229707 -0.0189145  0.0006551
  0.6746000  0.1574000 -0.0478479 -0.0175188  0.0022099
  0.6869000  0.1572000 -0.0452507 -0.0211185  0.0042213
  0.6622000  0.1688000 -0.1253309 -0.0149842 -0.0003387
  0.6623000  0.1802000 -0.2014909 -0.0154635 -0.0017168
  0.6499000  0.1803000 -0.2036406 -0.0115720 -0.0018490
  0.6498000  0.1689000 -0.1272235 -0.0115076 -0.0008920
  0.6498000  0.1576000 -0.0513886 -0.0111174  0.0001411
  0.6622000  0.1575000 -0.0498815 -0.0141933  0.0009682
  0.6624000  0.1917000 -0.2787476 -0.0154620 -0.0032558
  0.6499000  0.1918000 -0.2806764 -0.0113073 -0.0028419
  0.6374000  0.1919000 -0.2817044 -0.0081127 -0.0021833
  0.6374000  0.1804000 -0.2048635 -0.0085103 -0.0016585
  0.6374000  0.2034000 -0.3594211 -0.0072402 -0.0026204
  0.6250000  0.2034000 -0.3598025 -0.0048466 -0.0017236
  0.6250000  0.1919000 -0.2823735 -0.0056176 -0.0015840
  0.6249000  0.1804000 -0.2055574 -0.0060828 -0.0013343
  0.6375000  0.2151000 -0.4375986 -0.0061555 -0.0026911
  0.6250000  0.2151000 -0.4376037 -0.0040009 -0.0015560
  0.6125000  0.1919000 -0.2826079 -0.0036570 -0.0010044
  0.6125000  0.2035000 -0.3597775 -0.0031118 -0.0009091
  0.6000000  0.2035000 -0.3597746 -0.0018639 -0.0002962
  0.6000000  0.1919000 -0.2826898 -0.0023184 -0.0005035
  0.6000000  0.1804000 -0.2061569 -0.0026317 -0.0006139
  0.6125000  0.1804000 -0.2059042 -0.0040567 -0.0009491
  0.6125000  0.2152000 -0.4373441 -0.0024631 -0.0006524
  0.6000000  0.2152000 -0.4371295 -0.0014000  0.0000144
  0.5875000  0.2152000 -0.4367369 -0.0006185  0.0004672
  0.5875000  0.2035000 -0.3594912 -0.0009089  0.0001341
  0.5750000  0.2152000 -0.4364346 -0.0001341  0.0007577
  0.5750000  0.2035000 -0.3592163 -0.0003298  0.0004384
  0.5875000  0.1920000 -0.2824528 -0.0012674 -0.0001257
  0.5750000  0.1919000 -0.2823940 -0.0005769  0.0001550
  0.5750000  0.1804000 -0.2061067 -0.0007528 -0.0000741
  0.5875000  0.1805000 -0.2060358 -0.0015270 -0.0003079
  0.5625000  0.1920000 -0.2819743 -0.0000173  0.0003661
  0.5625000  0.2035000 -0.3588465  0.0001647  0.0006492
  0.5500000  0.2035000 -0.3585943  0.0003997  0.0007610
  0.5500000  0.1919000 -0.2819013  0.0003099  0.0004924
  0.5500000  0.1805000 -0.2056457  0.0001975  0.0002394
  0.5625000  0.1805000 -0.2057686 -0.0001555  0.0001116
  0.5625000  0.2152000 -0.4361166  0.0002564  0.0009408
  0.5500000  0.2152000 -0.4358759  0.0004304  0.0010226
  0.5375000  0.2152000 -0.4355771  0.0006071  0.0010448
  0.5375000  0.2035000 -0.3582711  0.0006247  0.0008164
  0.5250000  0.2152000 -0.4354109  0.0006263  0.0010223
  0.5250000  0.2035000 -0.3580761  0.0006830  0.0008221
  0.5375000  0.1920000 -0.2814704  0.0005616  0.0005711
  0.5250000  0.1919000 -0.2813653  0.0006823  0.0006026
  0.5250000  0.1805000 -0.2051203  0.0006414  0.0003751
  0.5375000  0.1805000 -0.2053361  0.0004946  0.0003234
  0.5125000  0.1920000 -0.2810744  0.0007501  0.0006043
  0.5125000  0.2035000 -0.3578740  0.0007759  0.0008038
  0.5000000  0.2035000 -0.3577526  0.0007597  0.0007578
  0.5000000  0.1920000 -0.2809601  0.0007413  0.0005839
  0.5000000  0.1805000 -0.2047328  0.0007970  0.0003943
  0.5125000  0.1805000 -0.2048958  0.0007581  0.0003919
  0.5125000  0.2152000 -0.4351846  0.0006932  0.0009761
  0.5000000  0.2152000 -0.4350811  0.0006624  0.0009022
  0.4875000  0.2152000 -0.4349116  0.0006611  0.0008176
  0.4875000  0.2035000 -0.3575240  0.0007662  0.0006984
  0.4750000  0.2152000 -0.4348551  0.0005769  0.0007373
  0.4750000  0.2035000 -0.3573733  0.0006852  0.0006346
  0.4875000  0.1920000 -0.2806737  0.0007659  0.0005490
  0.4750000  0.1919000 -0.2805646  0.0007437  0.0005048
  0.4750000  0.1805000 -0.2042729  0.0007542  0.0003571
  0.4875000  0.1805000 -0.2044705  0.0008005  0.0003818
  0.4625000  0.1920000 -0.2803674  0.0006885  0.0004563
  0.4625000  0.2035000 -0.3572681  0.0006822  0.0005686
  0.4500000  0.2035000 -0.3572355  0.0006034  0.0005005
  0.4500000  0.1920000 -0.2803440  0.0006006  0.0004064
  0.4500000  0.1805000 -0.2040548  0.0006775  0.0002960
  0.4625000  0.1805000 -0.2041322  0.0007328  0.0003269
  0.4625000  0.2152000 -0.4347252  0.0005748  0.0006570
  0.4500000  0.2152000 -0.4347022  0.0004990  0.0005713
  0.4375000  0.2152000 -0.4346008  0.0004724  0.0004905
  0.4375000  0.2035000 -0.3570860  0.0005726  0.0004351
  0.4250000  0.2152000 -0.4346017  0.0003767  0.0004244
  0.4250000  0.2035000 -0.3570047  0.0004721  0.0003764
  0.4375000  0.1920000 -0.2801412  0.0005756  0.0003572
  0.4250000  0.1919000 -0.2801083  0.0005254  0.0003100
  0.4250000  0.1805000 -0.2037562  0.0005375  0.0002301
  0.4375000  0.1805000 -0.2038757  0.0006201  0.0002640
  0.4125000  0.1920000 -0.2799793  0.0004581  0.0002663
  0.4125000  0.2035000 -0.3569599  0.0004629  0.0003228
  0.4000000  0.2035000 -0.3569795  0.0003868  0.0002721
  0.4000000  0.1920000 -0.2800164  0.0003694  0.0002266
  0.4000000  0.1805000 -0.2036752  0.0004381  0.0001705
  0.4125000  0.1805000 -0.2036875  0.0004981  0.0001980
  0.4125000  0.2152000 -0.4345197  0.0003735  0.0003648
  0.4000000  0.2152000 -0.4345365  0.0003033  0.0003036
  0.3875000  0.2152000 -0.4344680  0.0002870  0.0002492
  0.3875000  0.2035000 -0.3568746  0.0003650  0.0002268
  0.3750000  0.2152000 -0.4344961  0.0002046  0.0002097
  0.3750000  0.2035000 -0.3568313  0.0002776  0.0001894
  0.3875000  0.1920000 -0.2798665  0.0003514  0.0001909
  0.3750000  0.1919000 -0.2798797  0.0003136  0.0001591
  0.3750000  0.1805000 -0.2034862  0.0003138  0.0001209
  0.3875000  0.1805000 -0.2035542  0.0003853  0.0001455
  0.3625000  0.1920000 -0.2797903  0.0002619  0.0001313
  0.3625000  0.2035000 -0.3568186  0.0002839  0.0001571
  0.3500000  0.2035000 -0.3568654  0.0002247  0.0001270
  0.3500000  0.1920000 -0.2798616  0.0001905  0.0001075
  0.3500000  0.1805000 -0.2034892  0.0002471  0.0000824
  0.3625000  0.1805000 -0.2034625  0.0002896  0.0000991
  0.3625000  0.2152000 -0.4344362  0.0002162  0.0001761
  0.3500000  0.2152000 -0.4344712  0.0001615  0.0001395
  0.3375000  0.2152000 -0.4344174  0.0001608  0.0001078
  0.3375000  0.2035000 -0.3567830  0.0002199  0.0001012
  0.3250000  0.2152000 -0.4344574  0.0000933  0.0000891
  0.3250000  0.2035000 -0.3567586  0.0001492  0.0000817
  0.3375000  0.1920000 -0.2797406  0.0001907  0.0000871
  0.3250000  0.1919000 -0.2797782  0.0001709  0.0000696
  0.3250000  0.1805000 -0.2033621  0.0001602  0.0000537
  0.3375000  0.1805000 -0.2034016  0.0002130  0.0000681
  0.3125000  0.1920000 -0.2797093  0.0001365  0.0000550
  0.3125000  0.2035000 -0.3567615  0.0001715  0.0000657
  0.3000000  0.2035000 -0.3568210  0.0001271  0.0000500
  0.3000000  0.1920000 -0.2797976  0.0000815  0.0000430
  0.3000000  0.1805000 -0.2034096  0.0001292  0.0000334
  0.3125000  0.1805000 -0.2033626  0.0001543  0.0000414
  0.3125000  0.2152000 -0.4344070  0.0001191  0.0000741
  0.3000000  0.2152000 -0.4344496  0.0000775  0.0000540
  0.2875000  0.2152000 -0.4344018  0.0000887  0.0000368
  0.2875000  0.2035000 -0.3567491  0.0001361  0.0000370
  0.2750000  0.2152000 -0.4344465  0.0000320  0.0000306
  0.2750000  0.2035000 -0.3567330  0.0000777  0.0000287
  0.2875000  0.1920000 -0.2796906  0.0000967  0.0000331
  0.2750000  0.1919000 -0.2797398  0.0000906  0.0000249
  0.2750000  0.1805000 -0.2033134  0.0000730  0.0000195
  0.2875000  0.1805000 -0.2033389  0.0001111  0.0000269
  0.2625000  0.1920000 -0.2796802  0.0000685  0.0000182
  0.2625000  0.2035000 -0.3567427  0.0001111  0.0000223
  0.2500000  0.2035000 -0.3568076  0.0000765  0.0000149
  0.2500000  0.1920000 -0.2797761  0.0000244  0.0000131
  0.2500000  0.1805000 -0.2033815  0.0000670  0.0000104
  0.2625000  0.1805000 -0.2033253  0.0000803  0.0000132
  0.2625000  0.2152000 -0.4343998  0.0000674  0.0000265
  0.2500000  0.2152000 -0.4344452  0.0000343  0.0000156
  0.2375000  0.2152000 -0.4343996  0.0000529  0.0000061
  0.2375000  0.2035000 -0.3567399  0.0000940  0.0000088
  0.2250000  0.2152000 -0.4344458  0.0000026  0.0000064
  0.2250000  0.2035000 -0.3567270  0.0000430  0.0000064
  0.2375000  0.1920000 -0.2796751  0.0000492  0.0000091
  0.2250000  0.1919000 -0.2797290  0.0000513  0.0000058
  0.2250000  0.1805000 -0.2032986  0.0000301  0.0000047
  0.2375000  0.1805000 -0.2033182  0.0000592  0.0000084
  0.2125000  0.1920000 -0.2796731  0.0000364  0.0000032
  0.2125000  0.2035000 -0.3567392  0.0000828  0.0000048
  0.2000000  0.2035000 -0.3568060  0.0000536  0.0000014
  0.2000000  0.1920000 -0.2797718 -0.0000016  0.0000015
  0.2000000  0.1805000 -0.2033750  0.0000385  0.0000013
  0.2125000  0.1805000 -0.2033152  0.0000452  0.0000016
  0.2125000  0.2152000 -0.4344002  0.0000434  0.0000076
  0.2000000  0.2152000 -0.4344464  0.0000149  0.0000011
  0.1875000  0.2152000 -0.4344012  0.0000374 -0.0000048
  0.1875000  0.2035000 -0.3567396  0.0000757 -0.0000014
  0.1750000  0.2152000 -0.4344477 -0.0000097 -0.0000016
  0.1750000  0.2035000 -0.3567277  0.0000285 -0.0000012
  0.1875000  0.1920000 -0.2796730  0.0000283  0.0000003
  0.1750000  0.1919000 -0.2797284  0.0000348 -0.0000008
  0.1750000  0.1805000 -0.2032969  0.0000119 -0.0000005
  0.1875000  0.1805000 -0.2033145  0.0000363  0.0000015
  0.1625000  0.1920000 -0.2796737  0.0000234 -0.0000015
  0.1625000  0.2035000 -0.3567405  0.0000714 -0.0000006
  0.1500000  0.2035000 -0.3568077  0.0000448 -0.0000023
  0.1500000  0.1920000 -0.2797731 -0.0000117 -0.0000018
  0.1500000  0.1805000 -0.2033759  0.0000274 -0.0000013
  0.1625000  0.1805000 -0.2033150  0.0000309 -0.0000022
  0.1625000  0.2152000 -0.4344022  0.0000339  0.0000019
  0.1500000  0.2152000 -0.4344485  0.0000076 -0.0000028
  0.1375000  0.2152000 -0.4344032  0.0000319 -0.0000072
  0.1375000  0.2035000 -0.3567416  0.0000690 -0.0000038
  0.1250000  0.2152000 -0.4344496 -0.0000138 -0.0000030
  0.1250000  0.2035000 -0.3567298  0.0000235 -0.0000026
  0.1375000  0.1920000 -0.2796748  0.0000206 -0.0000019
  0.1250000  0.1919000 -0.2797305  0.0000290 -0.0000020
  0.1250000  0.1805000 -0.2032990  0.0000055 -0.0000015
  0.1375000  0.1805000 -0.2033161  0.0000278 -0.0000003
  0.1125000  0.1920000 -0.2796759  0.0000192 -0.0000021
  0.1125000  0.2035000 -0.3567426  0.0000677 -0.0000012
  0.1000000  0.2035000 -0.3568097  0.0000422 -0.0000023
  0.1000000  0.1920000 -0.2797753 -0.0000147 -0.0000019
  0.1000000  0.1805000 -0.2033782  0.0000240 -0.0000014
  0.1125000  0.1805000 -0.2033172  0.0000262 -0.0000027
  0.1125000  0.2152000 -0.4344040  0.0000309  0.0000014
  0.1000000  0.2152000 -0.4344501  0.0000055 -0.0000027
  0.0875000  0.2152000 -0.4344047  0.0000304 -0.0000067
  0.0875000  0.2035000 -0.3567434  0.0000672 -0.0000034
  0.0750000  0.2152000 -0.4344509 -0.0000147 -0.0000021
  0.0750000  0.2035000 -0.3567315  0.0000223 -0.0000019
  0.0875000  0.1920000 -0.2796769  0.0000186 -0.0000016
  0.0750000  0.1919000 -0.2797325  0.0000276 -0.0000015
  0.0750000  0.1805000 -0.2033011  0.0000040 -0.0000011
  0.0875000  0.1805000 -0.2033183  0.0000255 -0.0000001
  0.0625000  0.1920000 -0.2796776  0.0000183 -0.0000014
  0.0625000  0.2035000 -0.3567440  0.0000670 -0.0000003
  0.0500000  0.2035000 -0.3568109  0.0000418 -0.0000013
  0.0500000  0.1920000 -0.2797769 -0.0000152 -0.0000010
  0.0500000  0.1805000 -0.2033799  0.0000234 -0.0000008
  0.0625000  0.1805000 -0.2033192  0.0000252 -0.0000022
  0.0625000  0.2152000 -0.4344051  0.0000303  0.0000025
  0.0500000  0.2152000 -0.4344510  0.0000052 -0.0000014
  0.0375000  0.2152000 -0.4344054  0.0000303 -0.0000054
  0.0375000  0.2035000 -0.3567445  0.0000670 -0.0000022
  0.0250000  0.2152000 -0.4344515 -0.0000148 -0.0000007
  0.0250000  0.2035000 -0.3567323  0.0000223 -0.0000006
  0.0375000  0.1920000 -0.2796782  0.0000183 -0.0000007
  0.0250000  0.1919000 -0.2797335  0.0000275 -0.0000005
  0.0250000  0.1805000 -0.2033023  0.0000038 -0.0000004
  0.0375000  0.1805000 -0.2033198  0.0000251  0.0000006
  0.0125000  0.1920000 -0.2796784  0.0000183 -0.0000004
  0.0125000  0.2035000 -0.3567447  0.0000670  0.0000009
  0.0000000  0.2035000 -0.3568114  0.0000419  0.0000000
  0.0000000  0.1920000 -0.2797774 -0.0000152  0.0000000
  0.0000000  0.1805000 -0.2033805  0.0000234  0.0000000
  0.0125000  0.1805000 -0.2033201  0.0000252 -0.0000014
  0.0125000  0.2152000 -0.4344055  0.0000303  0.0000039
  0.0000000  0.2152000 -0.4344513  0.0000052  0.0000000
 -0.0125000  0.2152000 -0.4344055  0.0000303 -0.0000039
 -0.0125000  0.2035000 -0.3567447  0.0000670 -0.0000009
 -0.0250000  0.2152000 -0.4344515 -0.0000148  0.0000007
 -0.0250000  0.2035000 -0.3567323  0.0000223  0.0000006
 -0.0125000  0.1920000 -0.2796784  0.0000183  0.0000004
 -0.0250000  0.1919000 -0.2797335  0.0000275  0.0000005
 -0.0250000  0.1805000 -0.2033023  0.0000038  0.0000004
 -0.0125000  0.1805000 -0.2033201  0.0000252  0.0000014
 -0.0375000  0.1920000 -0.2796782  0.0000183  0.0000007
 -0.0375000  0.2035000 -0.3567445  0.0000670  0.0000022
 -0.0500000  0.2035000 -0.3568109  0.0000418  0.0000013
 -0.0500000  0.1920000 -0.2797769 -0.0000152  0.0000010
 -0.0500000  0.1805000 -0.2033799  0.0000234  0.0000008
 -0.0375000  0.1805000 -0.2033198  0.0000251 -0.0000006
 -0.0375000  0.2152000 -0.4344054  0.0000303  0.0000054
 -0.0500000  0.2152000 -0.4344510  0.0000052  0.0000014
 -0.0625000  0.2152000 -0.4344051  0.0000303 -0.0000025
 -0.0625000  0.2035000 -0.3567440  0.0000670  0.0000003
 -0.0750000  0.2152000 -0.4344509 -0.0000147  0.0000021
 -0.0750000  0.2035000 -0.3567315  0.0000223  0.0000019
 -0.0625000  0.1920000 -0.2796776  0.0000183  0.0000014
 -0.0750000  0.1919000 -0.2797325  0.0000276  0.0000015
 -0.0750000  0.1805000 -0.2033011  0.0000040  0.0000011
 -0.0625000  0.1805000 -0.2033192  0.0000252  0.0000022
 -0.0875000  0.1920000 -0.2796769  0.0000186  0.0000016
 -0.0875000  0.2035000 -0.3567434  0.0000672  0.0000034
 -0.1000000  0.2035000 -0.3568097  0.0000422  0.0000023
 -0.1000000  0.1920000 -0.2797753 -0.0000147  0.0000019
 -0.1000000  0.1805000 -0.2033782  0.0000240  0.0000014
 -0.0875000  0.1805000 -0.2033183  0.0000255  0.0000001
 -0.0875000  0.2152000 -0.4344047  0.0000304  0.0000067
 -0.1000000  0.2152000 -0.4344501  0.0000055  0.0000027
 -0.1125000  0.2152000 -0.4344040  0.0000309 -0.0000014
 -0.1125000  0.2035000 -0.3567426  0.0000677  0.0000012
 -0.1250000  0.2152000 -0.4344496 -0.0000138  0.0000030
 -0.1250000  0.2035000 -0.3567298  0.0000235  0.0000026
 -0.1125000  0.1920000 -0.2796759  0.0000192  0.0000021
 -0.1250000  0.1919000 -0.2797305  0.0000290  0.0000020
 -0.1250000  0.1805000 -0.2032990  0.0000055  0.0000015
 -0.1125000  0.1805000 -0.2033172  0.0000262  0.0000027
 -0.1375000  0.1920000 -0.2796748  0.0000206  0.0000019
 -0.1375000  0.2035000 -0.3567416  0.0000690  0.0000038
 -0.1500000  0.2035000 -0.3568077  0.0000448  0.0000023
 -0.1500000  0.1920000 -0.2797731 -0.0000117  0.0000018
 -0.1500000  0.1805000 -0.2033759  0.0000274  0.0000013
 -0.1375000  0.1805000 -0.2033161  0.0000278  0.0000003
 -0.1375000  0.2152000 -0.4344032  0.0000319  0.0000072
 -0.1500000  0.2152000 -0.4344485  0.0000076  0.0000028
 -0.1625000  0.2152000 -0.4344022  0.0000339 -0.0000019
 -0.1625000  0.2035000 -0.3567405  0.0000714  0.0000006
 -0.1750000  0.2152000 -0.4344477 -0.0000097  0.0000016
 -0.1750000  0.2035000 -0.3567277  0.0000285  0.0000012
 -0.1625000  0.1920000 -0.2796737  0.0000234  0.0000015
 -0.1750000  0.1919000 -0.2797284  0.0000348  0.0000008
 -0.1750000  0.1805000 -0.2032969  0.0000119  0.0000005
 -0.1625000  0.1805000 -0.2033150  0.0000309  0.0000022
 -0.1875000  0.1920000 -0.2796730  0.0000283 -0.0000003
 -0.1875000  0.2035000 -0.3567396  0.0000757  0.0000014
 -0.2000000  0.2035000 -0.3568060  0.0000536 -0.0000014
 -0.2000000  0.1920000 -0.2797718 -0.0000016 -0.0000015
 -0.2000000  0.1805000 -0.2033750  0.0000385 -0.0000013
 -0.1875000  0.1805000 -0.2033145  0.0000363 -0.0000015
 -0.1875000  0.2152000 -0.4344012  0.0000374  0.0000048
 -0.2000000  0.2152000 -0.4344464  0.0000149 -0.0000011
 -0.2125000  0.2152000 -0.4344002  0.0000434 -0.0000076
 -0.2125000  0.2035000 -0.3567392  0.0000828 -0.0000048
 -0.2250000  0.2152000 -0.4344458  0.0000026 -0.0000064
 -0.2250000  0.2035000 -0.3567270  0.0000430 -0.0000064
 -0.2125000  0.1920000 -0.2796731  0.0000364 -0.0000032
 -0.2250000  0.1919000 -0.2797290  0.0000513 -0.0000058
 -0.2250000  0.1805000 -0.2032986  0.0000301 -0.0000047
 -0.2125000  0.1805000 -0.2033152  0.0000452 -0.0000016
 -0.2375000  0.1920000 -0.2796751  0.0000492 -0.0000091
 -0.2375000  0.2035000 -0.3567399  0.0000940 -0.0000088
 -0.2500000  0.2035000 -0.3568076  0.0000765 -0.0000149
 -0.2500000  0.1920000 -0.2797761  0.0000244 -0.0000131
 -0.2500000  0.1805000 -0.2033815  0.0000670 -0.0000104
 -0.2375000  0.1805000 -0.2033182  0.0000592 -0.0000084
 -0.2375000  0.2152000 -0.4343996  0.0000529 -0.0000061
 -0.2500000  0.2152000 -0.4344452  0.0000343 -0.0000156
 -0.2625000  0.2152000 -0.4343998  0.0000674 -0.0000265
 -0.2625000  0.2035000 -0.3567427  0.0001111 -0.0000223
 -0.2750000  0.2152000 -0.4344465  0.0000320 -0.0000306
 -0.2750000  0.2035000 -0.3567330  0.0000777 -0.0000287
 -0.2625000  0.1920000 -0.2796802  0.0000685 -0.0000182
 -0.2750000  0.1919000 -0.2797398  0.0000906 -0.0000249
 -0.2750000  0.1805000 -0.2033134  0.0000730 -0.0000195
 -0.2625000  0.1805000 -0.2033253  0.0000803 -0.0000132
 -0.2875000  0.1920000 -0.2796906  0.0000967 -0.0000331
 -0.2875000  0.2035000 -0.3567491  0.0001361 -0.0000370
 -0.3000000  0.2035000 -0.3568210  0.0001271 -0.0000500
 -0.3000000  0.1920000 -0.2797976  0.0000815 -0.0000430
 -0.3000000  0.1805000 -0.2034096  0.0001292 -0.0000334
 -0.2875000  0.1805000 -0.2033389  0.0001111 -0.0000269
 -0.2875000  0.2152000 -0.4344018  0.0000887 -0.0000368
 -0.3000000  0.2152000 -0.4344496  0.0000775 -0.0000540
 -0.3125000  0.2152000 -0.4344070  0.0001191 -0.0000741
 -0.3125000  0.2035000 -0.3567615  0.0001715 -0.0000657
 -0.3250000  0.2152000 -0.4344574  0.0000933 -0.0000891
 -0.3250000  0.2035000 -0.3567586  0.0001492 -0.0000817
 -0.3125000  0.1920000 -0.2797093  0.0001365 -0.0000550
 -0.3250000  0.1919000 -0.2797782  0.0001709 -0.0000696
 -0.3250000  0.1805000 -0.2033621  0.0001602 -0.0000537
 -0.3125000  0.1805000 -0.2033626  0.0001543 -0.0000414
 -0.3375000  0.1920000 -0.2797406  0.0001907 -0.0000871
 -0.3375000  0.2035000 -0.3567830  0.0002199 -0.0001012
 -0.3500000  0.2035000 -0.3568654  0.0002247 -0.0001270
 -0.3500000  0.1920000 -0.2798616  0.0001905 -0.0001075
 -0.3500000  0.1805000 -0.2034892  0.0002471 -0.0000824
 -0.3375000  0.1805000 -0.2034016  0.0002130 -0.0000681
 -0.3375000  0.2152000 -0.4344174  0.0001608 -0.0001078
 -0.3500000  0.2152000 -0.4344712  0.0001615 -0.0001395
 -0.3625000  0.2152000 -0.4344362  0.0002162 -0.0001761
 -0.3625000  0.2035000 -0.3568186  0.0002839 -0.0001572
 -0.3750000  0.2152000 -0.4344961  0.0002046 -0.0002097
 -0.3750000  0.2035000 -0.3568313  0.0002776 -0.0001894
 -0.3625000  0.1920000 -0.2797903  0.0002619 -0.0001313
 -0.3750000  0.1919000 -0.2798797  0.0003136 -0.0001591
 -0.3750000  0.1805000 -0.2034862  0.0003138 -0.0001209
 -0.3625000  0.1805000 -0.2034625  0.0002896 -0.0000991
 -0.3875000  0.1920000 -0.2798665  0.0003514 -0.0001909
 -0.3875000  0.2035000 -0.3568745  0.0003650 -0.0002268
 -0.4000000  0.2035000 -0.3569795  0.0003868 -0.0002721
 -0.4000000  0.1920000 -0.2800164  0.0003694 -0.0002266
 -0.4000000  0.1805000 -0.2036752  0.0004381 -0.0001705
 -0.3875000  0.1805000 -0.2035542  0.0003853 -0.0001455
 -0.3875000  0.2152000 -0.4344680  0.0002870 -0.0002492
 -0.4000000  0.2152000 -0.4345365  0.0003033 -0.0003036
 -0.4125000  0.2152000 -0.4345197  0.0003734 -0.0003648
 -0.4125000  0.2035000 -0.3569599  0.0004629 -0.0003228
 -0.4250000  0.2152000 -0.4346017  0.0003767 -0.0004244
 -0.4250000  0.2035000 -0.3570047  0.0004721 -0.0003764
 -0.4125000  0.1920000 -0.2799792  0.0004581 -0.0002663
 -0.4250000  0.1919000 -0.2801083  0.0005254 -0.0003101
 -0.4250000  0.1805000 -0.2037562  0.0005375 -0.0002301
 -0.4125000  0.1805000 -0.2036875  0.0004981 -0.0001980
 -0.4375000  0.1920000 -0.2801412  0.0005756 -0.0003572
 -0.4375000  0.2035000 -0.3570860  0.0005726 -0.0004351
 -0.4500000  0.2035000 -0.3572355  0.0006034 -0.0005005
 -0.4500000  0.1920000 -0.2803440  0.0006006 -0.0004064
 -0.4500000  0.1805000 -0.2040548  0.0006775 -0.0002961
 -0.4375000  0.1805000 -0.2038756  0.0006201 -0.0002640
 -0.4375000  0.2152000 -0.4346008  0.0004724 -0.0004905
 -0.4500000  0.2152000 -0.4347021  0.0004990 -0.0005713
 -0.4625000  0.2152000 -0.4347252  0.0005748 -0.0006570
 -0.4625000  0.2035000 -0.3572681  0.0006822 -0.0005686
 -0.4750000  0.2152000 -0.4348550  0.0005769 -0.0007372
 -0.4750000  0.2035000 -0.3573732  0.0006852 -0.0006346
 -0.4625000  0.1920000 -0.2803673  0.0006885 -0.0004563
 -0.4750000  0.1919000 -0.2805645  0.0007437 -0.0005048
 -0.4750000  0.1805000 -0.2042728  0.0007543 -0.0003572
 -0.4625000  0.1805000 -0.2041322  0.0007328 -0.0003270
 -0.4875000  0.1920000 -0.2806735  0.0007659 -0.0005490
 -0.4875000  0.2035000 -0.3575239  0.0007663 -0.0006984
 -0.5000000  0.2035000 -0.3577524  0.0007599 -0.0007577
 -0.5000000  0.1920000 -0.2809597  0.0007415 -0.0005840
 -0.5000000  0.1805000 -0.2047327  0.0007972 -0.0003945
 -0.4875000  0.1805000 -0.2044705  0.0008005 -0.0003819
 -0.4875000  0.2152000 -0.4349116  0.0006612 -0.0008175
 -0.5000000  0.2152000 -0.4350812  0.0006626 -0.0009021
 -0.5125000  0.2152000 -0.4351854  0.0006935 -0.0009766
 -0.5125000  0.2035000 -0.3578742  0.0007766 -0.0008035
 -0.5250000  0.2152000 -0.4354101  0.0006243 -0.0010239
 -0.5250000  0.2035000 -0.3580779  0.0006847 -0.0008252
 -0.5125000  0.1920000 -0.2810732  0.0007507 -0.0006043
 -0.5250000  0.1919000 -0.2813650  0.0006882 -0.0006026
 -0.5250000  0.1805000 -0.2051224  0.0006430 -0.0003720
 -0.5125000  0.1805000 -0.2048961  0.0007588 -0.0003923
 -0.5375000  0.1920000 -0.2815693  0.0005410 -0.0005708
 -0.5375000  0.2035000 -0.3583350  0.0006261 -0.0008151
 -0.5500000  0.2035000 -0.3586775  0.0004226 -0.0007611
 -0.5500000  0.1920000 -0.2819446  0.0002784 -0.0004922
 -0.5500000  0.1805000 -0.2057277  0.0002197 -0.0002400
 -0.5375000  0.1805000 -0.2054004  0.0004952 -0.0003250
 -0.5375000  0.2152000 -0.4355775  0.0006010 -0.0010412
 -0.5500000  0.2152000 -0.4358740  0.0004465 -0.0010228
 -0.5625000  0.2152000 -0.4361188  0.0002517 -0.0009413
 -0.5625000  0.2035000 -0.3589096  0.0001634 -0.0006494
 -0.5750000  0.2152000 -0.4364976 -0.0001353 -0.0007580
 -0.5750000  0.2035000 -0.3592187 -0.0003343 -0.0004391
 -0.5625000  0.1920000 -0.2820722 -0.0000396 -0.0003657
 -0.5750000  0.1919000 -0.2823937 -0.0005711 -0.0001568
 -0.5750000  0.1804000 -0.2061089 -0.0007506  0.0000705
 -0.5625000  0.1805000 -0.2058326 -0.0001546 -0.0001107
 -0.5875000  0.1920000 -0.2824524 -0.0012623  0.0001258
 -0.5875000  0.2035000 -0.3594894 -0.0008926 -0.0001343
 -0.6000000  0.2035000 -0.3597748 -0.0018698  0.0002996
 -0.6000000  0.1919000 -0.2826898 -0.0023180  0.0005056
 -0.6000000  0.1804000 -0.2061571 -0.0026307  0.0006149
 -0.5875000  0.1805000 -0.2060366 -0.0015247  0.0003085
 -0.5875000  0.2152000 -0.4368195 -0.0005945 -0.0004676
 -0.6000000  0.2152000 -0.4371929 -0.0013980 -0.0000132
 -0.6125000  0.2152000 -0.4373459 -0.0024603  0.0006488
 -0.6125000  0.2035000 -0.3597763 -0.0031132  0.0009082
 -0.6250000  0.2151000 -0.4375491 -0.0040207  0.0015540
 -0.6250000  0.2034000 -0.3598026 -0.0048466  0.0016847
 -0.6125000  0.1919000 -0.2826071 -0.0036590  0.0010041
 -0.6250000  0.1919000 -0.2824280 -0.0055979  0.0015828
 -0.6249000  0.1804000 -0.2055573 -0.0060820  0.0013339
 -0.6125000  0.1804000 -0.2059043 -0.0040566  0.0009495
 -0.6374000  0.1919000 -0.2817042 -0.0081145  0.0022332
 -0.6375000  0.2034000 -0.3594244 -0.0072403  0.0026132
 -0.6499000  0.2034000 -0.3585856 -0.0105798  0.0036852
 -0.6499000  0.1918000 -0.2807206 -0.0113593  0.0028370
 -0.6499000  0.1803000 -0.2037023 -0.0115757  0.0018457
 -0.6374000  0.1804000 -0.2048644 -0.0085116  0.0016612
 -0.6375000  0.2151000 -0.4376012 -0.0061518  0.0027407
 -0.6500000  0.2151000 -0.4373889 -0.0093137  0.0042072
 -0.6624000  0.2151000 -0.4363173 -0.0136551  0.0058878
 -0.6624000  0.2033000 -0.3571146 -0.0148456  0.0047084
 -0.6749000  0.2150000 -0.4343927 -0.0195836  0.0075710
 -0.6749000  0.2032000 -0.3547359 -0.0204536  0.0053961
 -0.6624000  0.1918000 -0.2787912 -0.0154721  0.0032587
 -0.6748000  0.1916000 -0.2762474 -0.0205685  0.0032600
 -0.6748000  0.1801000 -0.1989981 -0.0199878  0.0011615
 -0.6623000  0.1802000 -0.2015740 -0.0154360  0.0017194
 -0.6873000  0.1915000 -0.2727832 -0.0264887  0.0024255
 -0.6874000  0.2032000 -0.3511830 -0.0273887  0.0053832
 -0.6999000  0.2031000 -0.3468666 -0.0354150  0.0040264
 -0.6998000  0.1914000 -0.2687107 -0.0330652  0.0004018
 -0.6997000  0.1798000 -0.1918157 -0.0303750 -0.0026132
 -0.6872000  0.1800000 -0.1957169 -0.0250310 -0.0002566
 -0.6874000  0.2149000 -0.4312177 -0.0273329  0.0086933
 -0.6999000  0.2149000 -0.4265969 -0.0370422  0.0084503
 -0.7124000  0.2148000 -0.4206993 -0.0478640  0.0058217
 -0.7124000  0.2030000 -0.3416845 -0.0438130  0.0007018
 -0.7123000  0.1913000 -0.2640004 -0.0396339 -0.0032683
 -0.7248000  0.1911000 -0.2594017 -0.0454103 -0.0086220
 -0.7247000  0.1794000 -0.1829823 -0.0398657 -0.0113809
 -0.7121000  0.1796000 -0.1873069 -0.0354875 -0.0063815
 -0.7374000  0.1910000 -0.2557320 -0.0494095 -0.0154700
 -0.7500000  0.1910000 -0.2536304 -0.0508680 -0.0230688
 -0.7500000  0.1791000 -0.1777851 -0.0440399 -0.0239914
 -0.7373000  0.1792000 -0.1795751 -0.0429164 -0.0174677
 -0.7119000  0.1680000 -0.1114056 -0.0315449 -0.0087612
 -0.7245000  0.1676000 -0.1069285 -0.0347189 -0.0134629
 -0.7241000  0.1559000 -0.0309992 -0.0301676 -0.0149649
 -0.7116000  0.1565000 -0.0368928 -0.0278645 -0.0105177
 -0.6992000  0.1569000 -0.0415228 -0.0246762 -0.0069675
 -0.6995000  0.1683000 -0.1159436 -0.0275788 -0.0050807
 -0.7372000  0.1673000 -0.1030335 -0.0371842 -0.0190469
 -0.7500000  0.1672000 -0.1012265 -0.0382663 -0.0246039
 -0.7500000  0.1550000 -0.0226784 -0.0337005 -0.0249116
 -0.7369000  0.1553000 -0.0250598 -0.0316797 -0.0202825
 -0.7628000  0.1673000 -0.1020530 -0.0371682 -0.0301588
 -0.7631000  0.1553000 -0.0247270 -0.0316608 -0.0295208
 -0.7627000  0.1792000 -0.1779365 -0.0429091 -0.0305093
 -0.7753000  0.1794000 -0.1796832 -0.0398606 -0.0365762
 -0.7755000  0.1676000 -0.1049309 -0.0347140 -0.0357219
 -0.7759000  0.1559000 -0.0303057 -0.0301609 -0.0348267
 -0.7626000  0.1910000 -0.2534403 -0.0494071 -0.0306627
 -0.7752000  0.1911000 -0.2548055 -0.0454060 -0.0374909
 -0.7881000  0.1680000 -0.1084157 -0.0315516 -0.0403867
 -0.7879000  0.1796000 -0.1823310 -0.0354954 -0.0415369
 -0.8003000  0.1798000 -0.1851378 -0.0303684 -0.0452764
 -0.8005000  0.1683000 -0.1119040 -0.0275685 -0.0440456
 -0.8008000  0.1570000 -0.0399895 -0.0247120 -0.0428012
 -0.7884000  0.1565000 -0.0358608 -0.0278810 -0.0392557
 -0.7877000  0.1913000 -0.2570884 -0.0396285 -0.0428071
 -0.8002000  0.1914000 -0.2594740 -0.0330797 -0.0464561
 -0.8127000  0.1915000 -0.2612158 -0.0264899 -0.0484630
 -0.8128000  0.1800000 -0.1873496 -0.0250407 -0.0476199
 -0.8252000  0.1916000 -0.2622428 -0.0205439 -0.0492653
 -0.8252000  0.1801000 -0.1888599 -0.0199927 -0.0490056
 -0.8129000  0.1686000 -0.1146984 -0.0232172 -0.0466190
 -0.8253000  0.1687000 -0.1167001 -0.0189158 -0.0484337
 -0.8254000  0.1574000 -0.0453602 -0.0175202 -0.0475389
 -0.8131000  0.1572000 -0.0432108 -0.0211190 -0.0455337
 -0.8378000  0.1688000 -0.1179882 -0.0149838 -0.0494216
 -0.8377000  0.1802000 -0.1897185 -0.0154642 -0.0495585
 -0.8501000  0.1803000 -0.1901424 -0.0115762 -0.0496738
 -0.8502000  0.1689000 -0.1187976 -0.0115089 -0.0499649
 -0.8502000  0.1576000 -0.0480163 -0.0111165 -0.0496077
 -0.8378000  0.1575000 -0.0469490 -0.0141911 -0.0487829
 -0.8376000  0.1917000 -0.2625006 -0.0154646 -0.0492539
 -0.8501000  0.1918000 -0.2620784 -0.0113102 -0.0488231
 -0.8626000  0.1919000 -0.2607770 -0.0081116 -0.0481606
 -0.8626000  0.1804000 -0.1896633 -0.0085105 -0.0494726
 -0.8626000  0.2034000 -0.3327020 -0.0072462 -0.0461363
 -0.8750000  0.2034000 -0.3300941 -0.0048505 -0.0452317
 -0.8750000  0.1919000 -0.2590984 -0.0056159 -0.0475538
 -0.8751000  0.1804000 -0.1886594 -0.0060795 -0.0491466
 -0.8625000  0.2151000 -0.4050540 -0.0061628 -0.0431359
 -0.8750000  0.2151000 -0.4014267 -0.0040039 -0.0419937
 -0.8875000  0.1919000 -0.2570006 -0.0036621 -0.0469679
 -0.8875000  0.2035000 -0.3271020 -0.0031141 -0.0444106
 -0.9000000  0.2035000 -0.3241104 -0.0018657 -0.0437952
 -0.9000000  0.1919000 -0.2547421 -0.0023183 -0.0464657
 -0.9000000  0.1804000 -0.1858544 -0.0026349 -0.0484234
 -0.8875000  0.1804000 -0.1873116 -0.0040640 -0.0487625
 -0.8875000  0.2152000 -0.3975459 -0.0024656 -0.0410814
 -0.9000000  0.2152000 -0.3936966 -0.0013986 -0.0404137
 -0.9125000  0.2152000 -0.3896862 -0.0006197 -0.0399615
 -0.9125000  0.2035000 -0.3208502 -0.0009160 -0.0433609
 -0.9250000  0.2152000 -0.3857538 -0.0001311 -0.0396667
 -0.9250000  0.2035000 -0.3175971 -0.0003316 -0.0430569
 -0.9125000  0.1920000 -0.2521787 -0.0012708 -0.0460813
 -0.9250000  0.1919000 -0.2497673 -0.0005761 -0.0458047
 -0.9250000  0.1804000 -0.1823930 -0.0007555 -0.0478791
 -0.9125000  0.1805000 -0.1840458 -0.0015326 -0.0481107
 -0.9375000  0.1920000 -0.2470354 -0.0000226 -0.0455883
 -0.9375000  0.2035000 -0.3142615  0.0001557 -0.0428475
 -0.9500000  0.2035000 -0.3110304  0.0003969 -0.0427352
 -0.9500000  0.1919000 -0.2446028  0.0003076 -0.0454634
 -0.9500000  0.1805000 -0.1785385  0.0001978 -0.0475639
 -0.9375000  0.1805000 -0.1803725 -0.0001609 -0.0476904
 -0.9375000  0.2152000 -0.3818170  0.0002521 -0.0394796
 -0.9500000  0.2152000 -0.3779488  0.0004316 -0.0393989
 -0.9625000  0.2152000 -0.3740362  0.0006017 -0.0393750
 -0.9625000  0.2035000 -0.3077411  0.0006151 -0.0426795
 -0.9750000  0.2152000 -0.3702430  0.0006279 -0.0393990
 -0.9750000  0.2035000 -0.3045657  0.0006794 -0.0426734
 -0.9625000  0.1920000 -0.2418628  0.0005558 -0.0453813
 -0.9750000  0.1919000 -0.2394046  0.0006786 -0.0453537
 -0.9750000  0.1805000 -0.1746250  0.0006408 -0.0474289
 -0.9625000  0.1805000 -0.1765408  0.0004909 -0.0474790
 -0.9875000  0.1920000 -0.2367905  0.0007470 -0.0453486
 -0.9875000  0.2035000 -0.3013906  0.0007644 -0.0426899
 -1.0000000  0.2035000 -0.2982837  0.0007523 -0.0427326
 -1.0000000  0.1920000 -0.2343300  0.0007434 -0.0453691
 -1.0000000  0.1805000 -0.1708355  0.0007926 -0.0474049
 -0.9875000  0.1805000 -0.1727018  0.0007544 -0.0474086
 -0.9875000  0.2152000 -0.3664041  0.0006885 -0.0394444
 -1.0000000  0.2152000 -0.3626724  0.0006612 -0.0395200
 -1.0125000  0.2152000 -0.3588900  0.0006551 -0.0396015
 -1.0125000  0.2035000 -0.2950917  0.0007546 -0.0427948
 -1.0250000  0.2152000 -0.3552054  0.0005792 -0.0396840
 -1.0250000  0.2035000 -0.2919721  0.0006806 -0.0428612
 -1.0125000  0.1920000 -0.2317302  0.0007620 -0.0454040
 -1.0250000  0.1919000 -0.2292796  0.0007381 -0.0454519
 -1.0250000  0.1805000 -0.1670002  0.0007530 -0.0474464
 -1.0125000  0.1805000 -0.1688901  0.0007949 -0.0474192
 -1.0375000  0.1920000 -0.2267612  0.0006846 -0.0454966
 -1.0375000  0.2035000 -0.2888933  0.0006683 -0.0429251
 -1.0500000  0.2035000 -0.2858729  0.0005946 -0.0429898
 -1.0500000  0.1920000 -0.2243881  0.0006031 -0.0455466
 -1.0500000  0.1805000 -0.1633782  0.0006722 -0.0475032
 -1.0375000  0.1805000 -0.1651608  0.0007280 -0.0474737
 -1.0375000  0.2152000 -0.3514645  0.0005689 -0.0397636
 -1.0500000  0.2152000 -0.3478118  0.0004976 -0.0398509
 -1.0625000  0.2152000 -0.3440991  0.0004652 -0.0399284
 -1.0625000  0.2035000 -0.2827623  0.0005587 -0.0430581
 -1.0750000  0.2152000 -0.3404704  0.0003795 -0.0399969
 -1.0750000  0.2035000 -0.2797124  0.0004668 -0.0431194
 -1.0625000  0.1920000 -0.2218752  0.0005710 -0.0455957
 -1.0750000  0.1919000 -0.2194989  0.0005189 -0.0456466
 -1.0750000  0.1805000 -0.1597068  0.0005361 -0.0475734
 -1.0625000  0.1805000 -0.1615179  0.0006136 -0.0475370
 -1.0875000  0.1920000 -0.2170504  0.0004535 -0.0456866
 -1.0875000  0.2035000 -0.2766936  0.0004466 -0.0431708
 -1.1000000  0.2035000 -0.2737232  0.0003765 -0.0432182
 -1.1000000  0.1920000 -0.2147346  0.0003723 -0.0457264
 -1.1000000  0.1805000 -0.1562192  0.0004320 -0.0476287
 -1.0875000  0.1805000 -0.1579387  0.0004924 -0.0476025
 -1.0875000  0.2152000 -0.3367787  0.0003665 -0.0400559
 -1.1000000  0.2152000 -0.3331644  0.0003016 -0.0401184
 -1.1125000  0.2152000 -0.3294860  0.0002788 -0.0401696
 -1.1125000  0.2035000 -0.2706594  0.0003489 -0.0432663
 -1.1250000  0.2152000 -0.3258830  0.0002078 -0.0402115
 -1.1250000  0.2035000 -0.2676478  0.0002715 -0.0433063
 -1.1125000  0.1920000 -0.2122778  0.0003462 -0.0457620
 -1.1250000  0.1919000 -0.2099458  0.0003061 -0.0457975
 -1.1250000  0.1805000 -0.1526600  0.0003121 -0.0476826
 -1.1125000  0.1805000 -0.1544191  0.0003780 -0.0476556
 -1.1375000  0.1920000 -0.2075389  0.0002566 -0.0458216
 -1.1375000  0.2035000 -0.2646608  0.0002654 -0.0433365
 -1.1500000  0.2035000 -0.2617153  0.0002129 -0.0433633
 -1.1500000  0.1920000 -0.2052538  0.0001939 -0.0458454
 -1.1500000  0.1805000 -0.1492538  0.0002401 -0.0477168
 -1.1375000  0.1805000 -0.1509364  0.0002830 -0.0477014
 -1.1375000  0.2152000 -0.3222150  0.0002082 -0.0402447
 -1.1500000  0.2152000 -0.3186173  0.0001596 -0.0402826
 -1.1625000  0.2152000 -0.3149552  0.0001515 -0.0403108
 -1.1625000  0.2035000 -0.2586763  0.0002015 -0.0433918
 -1.1750000  0.2152000 -0.3113626  0.0000969 -0.0403321
 -1.1750000  0.2035000 -0.2556840  0.0001422 -0.0434140
 -1.1625000  0.1920000 -0.2028293  0.0001848 -0.0458658
 -1.1750000  0.1919000 -0.2005198  0.0001623 -0.0458870
 -1.1750000  0.1805000 -0.1457592  0.0001583 -0.0477498
 -1.1625000  0.1805000 -0.1474892  0.0002047 -0.0477330
 -1.1875000  0.1920000 -0.1981351  0.0001306 -0.0458979
 -1.1875000  0.2035000 -0.2527122  0.0001507 -0.0434281
 -1.2000000  0.2035000 -0.2497773  0.0001139 -0.0434402
 -1.2000000  0.1920000 -0.1958639  0.0000853 -0.0459099
 -1.2000000  0.1805000 -0.1423948  0.0001213 -0.0477658
 -1.1875000  0.1805000 -0.1440591  0.0001468 -0.0477590
 -1.1875000  0.2152000 -0.3077057  0.0001100 -0.0403468
 -1.2000000  0.2152000 -0.3041141  0.0000754 -0.0403680
 -1.2125000  0.2152000 -0.3004595  0.0000784 -0.0403816
 -1.2125000  0.2035000 -0.2467509  0.0001153 -0.0434560
 -1.2250000  0.2152000 -0.2968700  0.0000361 -0.0403906
 -1.2250000  0.2035000 -0.2437674  0.0000700 -0.0434670
 -1.2125000  0.1920000 -0.1934566  0.0000901 -0.0459198
 -1.2250000  0.1919000 -0.1911569  0.0000811 -0.0459317
 -1.2250000  0.1805000 -0.1389336  0.0000709 -0.0477840
 -1.2125000  0.1805000 -0.1406490  0.0001019 -0.0477742
 -1.2375000  0.1920000 -0.1887834  0.0000619 -0.0459347
 -1.2375000  0.2035000 -0.2408018  0.0000880 -0.0434715
 -1.2500000  0.2035000 -0.2378701  0.0000618 -0.0434754
 -1.2500000  0.1920000 -0.1865164  0.0000286 -0.0459398
 -1.2500000  0.1805000 -0.1355873  0.0000583 -0.0477888
 -1.2375000  0.1805000 -0.1372443  0.0000719 -0.0477872
 -1.2375000  0.2152000 -0.2932183  0.0000573 -0.0403946
 -1.2500000  0.2152000 -0.2896280  0.0000319 -0.0404065
 -1.2625000  0.2152000 -0.2859770  0.0000416 -0.0404122
 -1.2625000  0.2035000 -0.2348501  0.0000709 -0.0434841
 -1.2750000  0.2152000 -0.2823875  0.0000071 -0.0404148
 -1.2750000  0.2035000 -0.2318703  0.0000345 -0.0434894
 -1.2625000  0.1920000 -0.1841185  0.0000419 -0.0459438
 -1.2750000  0.1919000 -0.1818216  0.0000408 -0.0459508
 -1.2750000  0.1805000 -0.1321420  0.0000278 -0.0477988
 -1.2625000  0.1805000 -0.1338510  0.0000491 -0.0477928
 -1.2875000  0.1920000 -0.1794537  0.0000291 -0.0459496
 -1.2875000  0.2035000 -0.2289068  0.0000574 -0.0434890
 -1.3000000  0.2035000 -0.2259747  0.0000375 -0.0434889
 -1.3000000  0.1920000 -0.1771862  0.0000030 -0.0459514
 -1.3000000  0.1805000 -0.1288014  0.0000289 -0.0477978
 -1.2875000  0.1805000 -0.1304568  0.0000358 -0.0477988
 -1.2875000  0.2152000 -0.2787384  0.0000322 -0.0404137
 -1.3000000  0.2152000 -0.2751473  0.0000123 -0.0404210
 -1.3125000  0.2152000 -0.2714984  0.0000250 -0.0404230
 -1.3125000  0.2035000 -0.2229583  0.0000503 -0.0434943
 -1.3250000  0.2152000 -0.2679077 -0.0000048 -0.0404228
 -1.3250000  0.2035000 -0.2199798  0.0000191 -0.0434969
 -1.3125000  0.1920000 -0.1747937  0.0000204 -0.0459527
 -1.3250000  0.1919000 -0.1724966  0.0000233 -0.0459574
 -1.3250000  0.1805000 -0.1253635  0.0000094 -0.0478039
 -1.3125000  0.1805000 -0.1270698  0.0000252 -0.0477997
 -1.3375000  0.1920000 -0.1701315  0.0000154 -0.0459544
 -1.3375000  0.2035000 -0.2170166  0.0000437 -0.0434945
 -1.3500000  0.2035000 -0.2140827  0.0000272 -0.0434926
 -1.3500000  0.1920000 -0.1678615 -0.0000066 -0.0459547
 -1.3500000  0.1805000 -0.1220228  0.0000169 -0.0478005
 -1.3375000  0.1805000 -0.1236793  0.0000206 -0.0478025
 -1.3375000  0.2152000 -0.2642603  0.0000216 -0.0404195
 -1.3500000  0.2152000 -0.2606677  0.0000047 -0.0404248
 -1.3625000  0.2152000 -0.2570202  0.0000184 -0.0404252
 -1.3625000  0.2035000 -0.2110688  0.0000413 -0.0434966
 -1.3750000  0.2152000 -0.2534279 -0.0000085 -0.0404242
 -1.3750000  0.2035000 -0.2080908  0.0000133 -0.0434983
 -1.3625000  0.1920000 -0.1654728  0.0000120 -0.0459548
 -1.3750000  0.1919000 -0.1631741  0.0000165 -0.0459587
 -1.3750000  0.1805000 -0.1185887  0.0000028 -0.0478050
 -1.3625000  0.1805000 -0.1202940  0.0000158 -0.0478015
 -1.3875000  0.1920000 -0.1608111  0.0000105 -0.0459550
 -1.3875000  0.2035000 -0.2051271  0.0000377 -0.0434951
 -1.4000000  0.2035000 -0.2021909  0.0000231 -0.0434926
 -1.4000000  0.1920000 -0.1585377 -0.0000092 -0.0459548
 -1.4000000  0.1805000 -0.1152457  0.0000127 -0.0478006
 -1.3875000  0.1805000 -0.1169041  0.0000150 -0.0478030
 -1.3875000  0.2152000 -0.2497819  0.0000175 -0.0404202
 -1.4000000  0.2152000 -0.2461876  0.0000024 -0.0404247
 -1.4125000  0.2152000 -0.2425415  0.0000158 -0.0404246
 -1.4125000  0.2035000 -0.1991791  0.0000372 -0.0434962
 -1.4250000  0.2152000 -0.2389474 -0.0000090 -0.0404233
 -1.4250000  0.2035000 -0.1962013  0.0000113 -0.0434976
 -1.4125000  0.1920000 -0.1561522  0.0000092 -0.0459546
 -1.4250000  0.1919000 -0.1538516  0.0000141 -0.0459581
 -1.4250000  0.1805000 -0.1118140  0.0000010 -0.0478046
 -1.4125000  0.1805000 -0.1135188  0.0000125 -0.0478014
 -1.4375000  0.1920000 -0.1514901  0.0000090 -0.0459543
 -1.4375000  0.2035000 -0.1932371  0.0000347 -0.0434943
 -1.4500000  0.2035000 -0.1902984  0.0000213 -0.0434916
 -1.4500000  0.1920000 -0.1492133 -0.0000093 -0.0459540
 -1.4500000  0.1805000 -0.1084680  0.0000112 -0.0478000
 -1.4375000  0.1805000 -0.1101286  0.0000131 -0.0478024
 -1.4375000  0.2152000 -0.2353027  0.0000159 -0.0404192
 -1.4500000  0.2152000 -0.2317068  0.0000019 -0.0404235
 -1.4625000  0.2152000 -0.2280620  0.0000146 -0.0404231
 -1.4625000  0.2035000 -0.1872886  0.0000347 -0.0434950
 -1.4750000  0.2152000 -0.2244663 -0.0000086 -0.0404219
 -1.4750000  0.2035000 -0.1843111  0.0000104 -0.0434964
 -1.4625000  0.1920000 -0.1468308  0.0000083 -0.0459536
 -1.4750000  0.1919000 -0.1445281  0.0000130 -0.0459571
 -1.4750000  0.1805000 -0.1050384  0.0000007 -0.0478039
 -1.4625000  0.1805000 -0.1067429  0.0000113 -0.0478008
 -1.4875000  0.1920000 -0.1421682  0.0000082 -0.0459532
 -1.4875000  0.2035000 -0.1813462  0.0000324 -0.0434931
 -1.5000000  0.2035000 -0.1784051  0.0000198 -0.0434903
 -1.5000000  0.1920000 -0.1398878 -0.0000089 -0.0459530
 -1.5000000  0.1805000 -0.1016892  0.0000103 -0.0477992
 -1.4875000  0.1805000 -0.1033521  0.0000121 -0.0478016
 -1.4875000  0.2152000 -0.2208230  0.0000148 -0.0404180
 -1.5000000  0.2152000 -0.2172253  0.0000016 -0.0404221
 -1.5125000  0.2152000 -0.2135819  0.0000136 -0.0404215
 -1.5125000  0.2035000 -0.1753973  0.0000324 -0.0434937
 -1.5250000  0.2152000 -0.2099845 -0.0000081 -0.0404205
 -1.5250000  0.2035000 -0.1724199  0.0000096 -0.0434951
 -1.5125000  0.1920000 -0.1375084  0.0000076 -0.0459526
 -1.5250000  0.1919000 -0.1352036  0.0000120 -0.0459561
 -1.5250000  0.1805000 -0.0982616  0.0000004 -0.0478031
 -1.5125000  0.1805000 -0.0999658  0.0000104 -0.0478000
 -1.5375000  0.1920000 -0.1328453  0.0000075 -0.0459522
 -1.5375000  0.2035000 -0.1694544  0.0000301 -0.0434918
 -1.5500000  0.2035000 -0.1665109  0.0000183 -0.0434890
 -1.5500000  0.1920000 -0.1305613 -0.0000084 -0.0459519
 -1.5500000  0.1805000 -0.0949092  0.0000095 -0.0477984
 -1.5375000  0.1805000 -0.0965744  0.0000111 -0.0478008
 -1.5375000  0.2152000 -0.2063426  0.0000137 -0.0404167
 -1.5500000  0.2152000 -0.2027433  0.0000014 -0.0404207
 -1.5625000  0.2152000 -0.1991013  0.0000125 -0.0404200
 -1.5625000  0.2035000 -0.1635051  0.0000301 -0.0434924
 -1.5750000  0.2152000 -0.1955022 -0.0000077 -0.0404191
 -1.5750000  0.2035000 -0.1605280  0.0000089 -0.0434939
 -1.5625000  0.1920000 -0.1281850  0.0000069 -0.0459516
 -1.5750000  0.1919000 -0.1258780  0.0000111 -0.0459551
 -1.5750000  0.1805000 -0.0914836  0.0000004 -0.0478023
 -1.5625000  0.1805000 -0.0931875  0.0000095 -0.0477993
 -1.5875000  0.1920000 -0.1235213  0.0000071 -0.0459513
 -1.5875000  0.2035000 -0.1575618  0.0000280 -0.0434907
 -1.6000000  0.2035000 -0.1546159  0.0000173 -0.0434880
 -1.6000000  0.1920000 -0.1212338 -0.0000075 -0.0459511
 -1.6000000  0.1805000 -0.0881280  0.0000092 -0.0477978
 -1.5875000  0.1805000 -0.0897955  0.0000105 -0.0478000
 -1.5875000  0.2152000 -0.1918617  0.0000128 -0.0404155
 -1.6000000  0.2152000 -0.1882607  0.0000015 -0.0404195
 -1.6125000  0.2152000 -0.1846200  0.0000120 -0.0404188
 -1.6125000  0.2035000 -0.1516121  0.0000285 -0.0434915
 -1.6250000  0.2152000 -0.1810192 -0.0000063 -0.0404183
 -1.6250000  0.2035000 -0.1486352  0.0000092 -0.0434932
 -1.6125000  0.1920000 -0.1188605  0.0000071 -0.0459509
 -1.6250000  0.1919000 -0.1165516  0.0000115 -0.0459546
 -1.6250000  0.1805000 -0.0847046  0.0000017 -0.0478020
 -1.6125000  0.1805000 -0.0864081  0.0000096 -0.0477988
 -1.6375000  0.1920000 -0.1141966  0.0000085 -0.0459510
 -1.6375000  0.2035000 -0.1456685  0.0000274 -0.0434904
 -1.6500000  0.2035000 -0.1427202  0.0000184 -0.0434880
 -1.6500000  0.1920000 -0.1119057 -0.0000040 -0.0459512
 -1.6500000  0.1805000 -0.0813463  0.0000117 -0.0477979
 -1.6375000  0.1805000 -0.0830159  0.0000120 -0.0477998
 -1.6375000  0.2152000 -0.1773800  0.0000132 -0.0404151
 -1.6500000  0.2152000 -0.1737773  0.0000034 -0.0404194
 -1.6625000  0.2152000 -0.1701381  0.0000140 -0.0404191
 -1.6625000  0.2035000 -0.1397186  0.0000299 -0.0434920
 -1.6750000  0.2152000 -0.1665356 -0.0000017 -0.0404196
 -1.6750000  0.2035000 -0.1367421  0.0000135 -0.0434946
 -1.6625000  0.1920000 -0.1095357  0.0000107 -0.0459515
 -1.6750000  0.1919000 -0.1072250  0.0000163 -0.0459559
 -1.6750000  0.1805000 -0.0779258  0.0000080 -0.0478030
 -1.6625000  0.1805000 -0.0796285  0.0000134 -0.0477993
 -1.6875000  0.1920000 -0.1048722  0.0000156 -0.0459531
 -1.6875000  0.2035000 -0.1337751  0.0000319 -0.0434928
 -1.7000000  0.2035000 -0.1308248  0.0000258 -0.0434918
 -1.7000000  0.1920000 -0.1025785  0.0000065 -0.0459545
 -1.7000000  0.1805000 -0.0745661  0.0000220 -0.0478005
 -1.6875000  0.1805000 -0.0762369  0.0000196 -0.0478015
 -1.6875000  0.2152000 -0.1628979  0.0000177 -0.0404177
 -1.7000000  0.2152000 -0.1592936  0.0000106 -0.0404232
 -1.7125000  0.2152000 -0.1556559  0.0000225 -0.0404247
 -1.7125000  0.2035000 -0.1278258  0.0000391 -0.0434974
 -1.7250000  0.2152000 -0.1520521  0.0000111 -0.0404276
 -1.7250000  0.2035000 -0.1248504  0.0000273 -0.0435021
 -1.7125000  0.1920000 -0.1002126  0.0000231 -0.0459562
 -1.7250000  0.1919000 -0.0979012  0.0000320 -0.0459624
 -1.7250000  0.1805000 -0.0711508  0.0000260 -0.0478081
 -1.7125000  0.1805000 -0.0728514  0.0000268 -0.0478031
 -1.7375000  0.1920000 -0.0955518  0.0000358 -0.0459619
 -1.7375000  0.2035000 -0.1218840  0.0000480 -0.0435030
 -1.7500000  0.2035000 -0.1189329  0.0000473 -0.0435052
 -1.7500000  0.1920000 -0.0932570  0.0000330 -0.0459660
 -1.7500000  0.1805000 -0.0677933  0.0000497 -0.0478094
 -1.7375000  0.1805000 -0.0694634  0.0000417 -0.0478083
 -1.7375000  0.2152000 -0.1484162  0.0000322 -0.0404287
 -1.7500000  0.2152000 -0.1448110  0.0000298 -0.0404377
 -1.7625000  0.2152000 -0.1411756  0.0000455 -0.0404435
 -1.7625000  0.2035000 -0.1159381  0.0000651 -0.0435148
 -1.7750000  0.2152000 -0.1375714  0.0000409 -0.0404519
 -1.7750000  0.2035000 -0.1129656  0.0000611 -0.0435245
 -1.7625000  0.1920000 -0.0908973  0.0000545 -0.0459711
 -1.7750000  0.1919000 -0.0885877  0.0000702 -0.0459814
 -1.7750000  0.1805000 -0.0643890  0.0000687 -0.0478228
 -1.7625000  0.1805000 -0.0660843  0.0000611 -0.0478147
 -1.7875000  0.1920000 -0.0862449  0.0000825 -0.0459859
 -1.7875000  0.2035000 -0.1100020  0.0000876 -0.0435312
 -1.8000000  0.2035000 -0.1070529  0.0000960 -0.0435403
 -1.8000000  0.1920000 -0.0839528  0.0000902 -0.0459959
 -1.8000000  0.1805000 -0.0610422  0.0001107 -0.0478325
 -1.7875000  0.1805000 -0.0627069  0.0000925 -0.0478268
 -1.7875000  0.2152000 -0.1339387  0.0000668 -0.0404596
 -1.8000000  0.2152000 -0.1303340  0.0000723 -0.0404762
 -1.8125000  0.2152000 -0.1267029  0.0000952 -0.0404909
 -1.8125000  0.2035000 -0.1040655  0.0001224 -0.0435582
 -1.8250000  0.2152000 -0.1231006  0.0001012 -0.0405102
 -1.8250000  0.2035000 -0.1011000  0.0001304 -0.0435775
 -1.8125000  0.1920000 -0.0816038  0.0001210 -0.0460080
 -1.8250000  0.1919000 -0.0793015  0.0001482 -0.0460265
 -1.8250000  0.1805000 -0.0576608  0.0001546 -0.0478576
 -1.8125000  0.1805000 -0.0593443  0.0001335 -0.0478432
 -1.8375000  0.1920000 -0.0769717  0.0001737 -0.0460405
 -1.8375000  0.2035000 -0.0981440  0.0001669 -0.0435956
 -1.8500000  0.2035000 -0.0952023  0.0001886 -0.0436175
 -1.8500000  0.1920000 -0.0746896  0.0001965 -0.0460614
 -1.8500000  0.1805000 -0.0543413  0.0002253 -0.0478832
 -1.8375000  0.1805000 -0.0559918  0.0001918 -0.0478689
 -1.8375000  0.2152000 -0.1194738  0.0001355 -0.0405304
 -1.8500000  0.2152000 -0.1158731  0.0001527 -0.0405611
 -1.8625000  0.2152000 -0.1122502  0.0001861 -0.0405919
 -1.8625000  0.2035000 -0.0922289  0.0002273 -0.0436500
 -1.8750000  0.2152000 -0.1086544  0.0002053 -0.0406297
 -1.8750000  0.2035000 -0.0892777  0.0002503 -0.0436859
 -1.8625000  0.1920000 -0.0723598  0.0002409 -0.0460860
 -1.8750000  0.1919000 -0.0700745  0.0002829 -0.0461185
 -1.8750000  0.1805000 -0.0510046  0.0003024 -0.0479290
 -1.8625000  0.1805000 -0.0526647  0.0002640 -0.0479036
 -1.8875000  0.1920000 -0.0677685  0.0003237 -0.0461482
 -1.8875000  0.2035000 -0.0863376  0.0002986 -0.0437223
 -1.9000000  0.2035000 -0.0834126  0.0003337 -0.0437644
 -1.9000000  0.1920000 -0.0655083  0.0003615 -0.0461864
 -1.9000000  0.1805000 -0.0477394  0.0004039 -0.0479809
 -1.8875000  0.1805000 -0.0493614  0.0003551 -0.0479527
 -1.8875000  0.2152000 -0.1050388  0.0002497 -0.0406703
 -1.9000000  0.2152000 -0.1014479  0.0002785 -0.0407231
 -1.9125000  0.2152000 -0.0978397  0.0003203 -0.0407776
 -1.9125000  0.2035000 -0.0804631  0.0003820 -0.0438184
 -1.9250000  0.2152000 -0.0942574  0.0003475 -0.0408404
 -1.9250000  0.2035000 -0.0775366  0.0004139 -0.0438772
 -1.9125000  0.1920000 -0.0632108  0.0004166 -0.0462297
 -1.9250000  0.1919000 -0.0609559  0.0004666 -0.0462820
 -1.9250000  0.1805000 -0.0444787  0.0005040 -0.0480582
 -1.9125000  0.1805000 -0.0460994  0.0004556 -0.0480164
 -1.9375000  0.1920000 -0.0586874  0.0005103 -0.0463324
 -1.9375000  0.2035000 -0.0746231  0.0004630 -0.0439371
 -1.9500000  0.2035000 -0.0717253  0.0004942 -0.0440023
 -1.9500000  0.1920000 -0.0564626  0.0005441 -0.0463915
 -1.9500000  0.1805000 -0.0413000  0.0006030 -0.0481455
 -1.9375000  0.1805000 -0.0428777  0.0005593 -0.0480993
 -1.9375000  0.2152000 -0.0906603  0.0003925 -0.0409067
 -1.9500000  0.2152000 -0.0870865  0.0004184 -0.0409843
 -1.9625000  0.2152000 -0.0835001  0.0004471 -0.0410617
 -1.9625000  0.2035000 -0.0688095  0.0005271 -0.0440780
 -1.9750000  0.2152000 -0.0799374  0.0004524 -0.0411439
 -1.9750000  0.2035000 -0.0659161  0.0005330 -0.0441552
 -1.9625000  0.1920000 -0.0542095  0.0005819 -0.0464548
 -1.9750000  0.1919000 -0.0519951  0.0006007 -0.0465249
 -1.9750000  0.1805000 -0.0381420  0.0006540 -0.0482580
 -1.9625000  0.1805000 -0.0397113  0.0006377 -0.0481991
 -1.9875000  0.1920000 -0.0497706  0.0005947 -0.0465894
 -1.9875000  0.2035000 -0.0630347  0.0005359 -0.0442284
 -2.0000000  0.2035000 -0.0601657  0.0005016 -0.0442984
 -2.0000000  0.1920000 -0.0475821  0.0005550 -0.0466560
 -2.0000000  0.1805000 -0.0350590  0.0006182 -0.0483718
 -1.9875000  0.1805000 -0.0365911  0.0006548 -0.0483143
 -1.9875000  0.2152000 -0.0763635  0.0004579 -0.0412232
 -2.0000000  0.2152000 -0.0728092  0.0004284 -0.0413038
 -2.0125000  0.2152000 -0.0692441  0.0003772 -0.0413706
 -2.0125000  0.2035000 -0.0572797  0.0004403 -0.0443666
 -2.0250000  0.2152000 -0.0656965  0.0002775 -0.0414234
 -2.0250000  0.2035000 -0.0544082  0.0003218 -0.0444194
 -2.0125000  0.1920000 -0.0453670  0.0004864 -0.0467174
 -2.0250000  0.1919000 -0.0431765  0.0003620 -0.0467713
 -2.0250000  0.1805000 -0.0319762  0.0003997 -0.0484837
 -2.0125000  0.1805000 -0.0335140  0.0005388 -0.0484302
 -2.0375000  0.1920000 -0.0409668  0.0001684 -0.0468001
 -2.0375000  0.2035000 -0.0515390  0.0001584 -0.0444451
 -2.0500000  0.2035000 -0.0486683 -0.0000849 -0.0444365
 -2.0500000  0.1920000 -0.0387701 -0.0001111 -0.0468035
 -2.0500000  0.1805000 -0.0288975 -0.0001108 -0.0485359
 -2.0375000  0.1805000 -0.0304395  0.0001930 -0.0485200
 -2.0375000  0.2152000 -0.0621368  0.0001425 -0.0414481
 -2.0500000  0.2152000 -0.0585877 -0.0000625 -0.0414406
 -2.0625000  0.2152000 -0.0550240 -0.0003326 -0.0413773
 -2.0625000  0.2035000 -0.0457695 -0.0004082 -0.0443863
 -2.0750000  0.2152000 -0.0514675 -0.0006935 -0.0412471
 -2.0750000  0.2035000 -0.0428665 -0.0008436 -0.0442676
 -2.0625000  0.1920000 -0.0365212 -0.0004824 -0.0467681
 -2.0750000  0.1919000 -0.0342725 -0.0009789 -0.0466761
 -2.0750000  0.1804000 -0.0256984 -0.0010784 -0.0484645
 -2.0625000  0.1805000 -0.0273056 -0.0005239 -0.0485229
 -2.0875000  0.1920000 -0.0319607 -0.0016069 -0.0464956
 -2.0875000  0.2035000 -0.0399363 -0.0013793 -0.0440618
 -2.1000000  0.2035000 -0.0369829 -0.0020582 -0.0437435
 -2.1000000  0.1919000 -0.0296286 -0.0023993 -0.0462166
 -2.1000000  0.1804000 -0.0222922 -0.0026845 -0.0481094
 -2.0875000  0.1805000 -0.0240101 -0.0017876 -0.0483315
 -2.0875000  0.2152000 -0.0478944 -0.0011377 -0.0410257
 -2.1000000  0.2152000 -0.0443240 -0.0016965 -0.0406956
 -2.1125000  0.2152000 -0.0407267 -0.0023543 -0.0402242
 -2.1125000  0.2035000 -0.0339905 -0.0028653 -0.0432842
 -2.1250000  0.2151000 -0.0371512 -0.0031272 -0.0395877
 -2.1250000  0.2034000 -0.0309861 -0.0038106 -0.0426540
 -2.1125000  0.1919000 -0.0272300 -0.0033476 -0.0457951
 -2.1250000  0.1919000 -0.0247831 -0.0044795 -0.0452000
 -2.1249000  0.1804000 -0.0185774 -0.0050903 -0.0472281
 -2.1125000  0.1804000 -0.0204729 -0.0037742 -0.0477567
 -2.1374000  0.1919000 -0.0222598 -0.0057808 -0.0443875
 -2.1375000  0.2034000 -0.0279510 -0.0048872 -0.0418078
 -2.1499000  0.2034000 -0.0249195 -0.0060890 -0.0407170
 -2.1499000  0.1918000 -0.0197074 -0.0072313 -0.0433158
 -2.1499000  0.1803000 -0.0144894 -0.0083200 -0.0454729
 -2.1374000  0.1804000 -0.0165818 -0.0066053 -0.0464827
 -2.1375000  0.2151000 -0.0335973 -0.0039928 -0.0387427
 -2.1500000  0.2151000 -0.0300834 -0.0049510 -0.0376682
 -2.1624000  0.2151000 -0.0266130 -0.0059767 -0.0363516
 -2.1624000  0.2033000 -0.0219054 -0.0073647 -0.0393513
 -2.1749000  0.2150000 -0.0232439 -0.0070278 -0.0347678
 -2.1749000  0.2032000 -0.0189316 -0.0086979 -0.0376892
 -2.1624000  0.1918000 -0.0171082 -0.0087979 -0.0419460
 -2.1748000  0.1916000 -0.0145212 -0.0104459 -0.0402389
 -2.1748000  0.1801000 -0.0100730 -0.0122002 -0.0424410
 -2.1623000  0.1802000 -0.0122931 -0.0102066 -0.0441437
 -2.1873000  0.1915000 -0.0119754 -0.0120817 -0.0381606
 -2.1874000  0.2032000 -0.0160449 -0.0100158 -0.0357016
 -2.1999000  0.2031000 -0.0133155 -0.0112465 -0.0333868
 -2.1998000  0.1914000 -0.0095467 -0.0136421 -0.0357126
 -2.1997000  0.1798000 -0.0056774 -0.0161558 -0.0377706
 -2.1872000  0.1800000 -0.0078356 -0.0142140 -0.0403174
 -2.1874000  0.2149000 -0.0199957 -0.0080502 -0.0328966
 -2.1999000  0.2149000 -0.0169204 -0.0090037 -0.0307489
 -2.2124000  0.2148000 -0.0140682 -0.0098295 -0.0283585
 -2.2124000  0.2030000 -0.0107795 -0.0123174 -0.0307789
 -2.2123000  0.1913000 -0.0072818 -0.0150131 -0.0329081
 -2.2248000  0.1911000 -0.0052722 -0.0161030 -0.0297969
 -2.2247000  0.1794000 -0.0018618 -0.0193059 -0.0314206
 -2.2121000  0.1796000 -0.0036417 -0.0179018 -0.0347904
 -2.2374000  0.1910000 -0.0035696 -0.0168045 -0.0264454
 -2.2500000  0.1910000 -0.0022187 -0.0170569 -0.0229670
 -2.2500000  0.1791000  0.0006327 -0.0205309 -0.0239156
 -2.2373000  0.1792000 -0.0004160 -0.0202099 -0.0277437
 -2.2119000  0.1680000  0.0000745 -0.0209519 -0.0364719
 -2.2245000  0.1676000  0.0016847 -0.0227701 -0.0328302
 -2.2241000  0.1559000  0.0053025 -0.0265035 -0.0341034
 -2.2116000  0.1565000  0.0037471 -0.0240836 -0.0379995
 -2.1992000  0.1569000  0.0020554 -0.0213659 -0.0412297
 -2.1995000  0.1683000 -0.0017784 -0.0187565 -0.0396024
 -2.2372000  0.1673000  0.0029221 -0.0239692 -0.0287879
 -2.2500000  0.1672000  0.0036837 -0.0243907 -0.0245596
 -2.2500000  0.1550000  0.0069481 -0.0287963 -0.0248962
 -2.2369000  0.1553000  0.0064292 -0.0282222 -0.0296293
 -2.2628000  0.1673000  0.0039711 -0.0240153 -0.0203222
 -2.2631000  0.1553000  0.0068215 -0.0282735 -0.0201454
 -2.2627000  0.1792000  0.0012837 -0.0202553 -0.0200769
 -2.2753000  0.1794000  0.0015575 -0.0194001 -0.0163782
 -2.2755000  0.1676000  0.0038192 -0.0228749 -0.0162506
 -2.2759000  0.1559000  0.0061355 -0.0266070 -0.0156503
 -2.2626000  0.1910000 -0.0012299 -0.0168472 -0.0194802
 -2.2752000  0.1911000 -0.0005781 -0.0161874 -0.0161030
 -2.2881000  0.1680000  0.0033203 -0.0211025 -0.0125716
 -2.2878000  0.1796000  0.0015134 -0.0180431 -0.0129645
 -2.3003000  0.1798000  0.0012420 -0.0163397 -0.0099410
 -2.3005000  0.1683000  0.0026125 -0.0189388 -0.0094057
 -2.3008000  0.1570000  0.0039247 -0.0215595 -0.0084845
 -2.2884000  0.1565000  0.0050830 -0.0242400 -0.0117311
 -2.2877000  0.1913000 -0.0002208 -0.0151476 -0.0129502
 -2.3002000  0.1914000 -0.0001036 -0.0138182 -0.0101037
 -2.3127000  0.1915000 -0.0001465 -0.0122840 -0.0076101
 -2.3128000  0.1800000  0.0008432 -0.0144301 -0.0073518
 -2.3252000  0.1916000 -0.0002897 -0.0106675 -0.0054961
 -2.3252000  0.1801000  0.0003876 -0.0124421 -0.0051972
 -2.3129000  0.1686000  0.0018336 -0.0165907 -0.0067706
 -2.3253000  0.1687000  0.0010536 -0.0141915 -0.0046322
 -2.3254000  0.1574000  0.0016375 -0.0158579 -0.0037857
 -2.3131000  0.1572000  0.0027514 -0.0187245 -0.0058538
 -2.3377000  0.1688000  0.0003429 -0.0118365 -0.0029596
 -2.3377000  0.1802000 -0.0000537 -0.0104712 -0.0034616
 -2.3501000  0.1803000 -0.0004432 -0.0085878 -0.0020966
 -2.3501000  0.1689000 -0.0002572 -0.0096219 -0.0016899
 -2.3502000  0.1576000 -0.0001478 -0.0105318 -0.0011220
 -2.3378000  0.1575000  0.0006555 -0.0130928 -0.0022367
 -2.3376000  0.1917000 -0.0004719 -0.0090390 -0.0037479
 -2.3501000  0.1918000 -0.0006528 -0.0074693 -0.0023412
 -2.3625000  0.1918000 -0.0008018 -0.0060016 -0.0012370
 -2.3626000  0.1803000 -0.0007467 -0.0068557 -0.0010608
 -2.3625000  0.2034000 -0.0008353 -0.0050949 -0.0012943
 -2.3750000  0.2034000 -0.0008247 -0.0039812 -0.0004216
 -2.3750000  0.1918000 -0.0008965 -0.0046676 -0.0003994
 -2.3750000  0.1803000 -0.0009520 -0.0052960 -0.0002965
 -2.3625000  0.2151000 -0.0008041 -0.0041727 -0.0012401
 -2.3750000  0.2151000 -0.0006974 -0.0032684 -0.0003671
 -2.3875000  0.1918000 -0.0009339 -0.0034733  0.0002174
 -2.3875000  0.2034000 -0.0007925 -0.0029718  0.0002353
 -2.3874000  0.1803000 -0.0010585 -0.0039176  0.0002455
 -2.3875000  0.2151000 -0.0006053 -0.0024435  0.0002980
 -2.3626000  0.1689000 -0.0007141 -0.0076136 -0.0007668
 -2.3750000  0.1689000 -0.0010252 -0.0058328 -0.0001174
 -2.3750000  0.1576000 -0.0011442 -0.0062457  0.0001255
 -2.3626000  0.1576000 -0.0007469 -0.0082417 -0.0003645
 -2.3874000  0.1689000 -0.0011930 -0.0042806  0.0003169
 -2.3874000  0.1576000 -0.0013563 -0.0045370  0.0004192
 -2.3626000  0.1463000 -0.0008727 -0.0086939  0.0001258
 -2.3750000  0.1463000 -0.0013307 -0.0065015  0.0004141
 -2.3750000  0.1351000 -0.0015976 -0.0065716  0.0007175
 -2.3626000  0.1351000 -0.0011173 -0.0089309  0.0006723
 -2.3502000  0.1351000 -0.0003289 -0.0117507  0.0004144
 -2.3502000  0.1463000 -0.0001583 -0.0112571 -0.0004105
 -2.3874000  0.1463000 -0.0015630 -0.0046623  0.0005351
 -2.3874000  0.1351000 -0.0018166 -0.0046360  0.0006405
 -2.3626000  0.1239000 -0.0014952 -0.0089037  0.0012314
 -2.3750000  0.1239000 -0.0019423 -0.0064279  0.0009977
 -2.3750000  0.1126000 -0.0023440 -0.0060581  0.0012099
 -2.3626000  0.1126000 -0.0019951 -0.0085825  0.0017434
 -2.3502000  0.1127000 -0.0012538 -0.0117860  0.0022095
 -2.3502000  0.1239000 -0.0006893 -0.0119466  0.0013094
 -2.3874000  0.1239000 -0.0021051 -0.0044472  0.0007056
 -2.3874000  0.1126000 -0.0024025 -0.0040922  0.0006977
 -2.3626000  0.1014000 -0.0025752 -0.0079428  0.0021298
 -2.3750000  0.1014000 -0.0027506 -0.0054579  0.0012941
 -2.3750000  0.0902000 -0.0030784 -0.0046581  0.0012026
 -2.3626000  0.0902000 -0.0031531 -0.0069924  0.0023060
 -2.3502000  0.0903000 -0.0028700 -0.0101934  0.0036152
 -2.3502000  0.1015000 -0.0020000 -0.0112101  0.0030176
 -2.3874000  0.1014000 -0.0026572 -0.0035810  0.0005803
 -2.3874000  0.0902000 -0.0027975 -0.0029500  0.0003315
 -2.3626000  0.0790000 -0.0035859 -0.0057780  0.0021939
 -2.3750000  0.0790000 -0.0032075 -0.0037062  0.0008964
 -2.3501000  0.0791000 -0.0037164 -0.0087318  0.0038651
 -2.3874000  0.0790000 -0.0027276 -0.0022470 -0.0000580
 -2.3378000  0.1016000 -0.0008579 -0.0154321  0.0038041
 -2.3378000  0.0904000 -0.0020105 -0.0145216  0.0050130
 -2.3255000  0.1017000  0.0010012 -0.0207280  0.0042275
 -2.3256000  0.1128000  0.0018380 -0.0205414  0.0022279
 -2.3379000  0.1127000  0.0000014 -0.0157677  0.0024461
 -2.3377000  0.0792000 -0.0033483 -0.0129300  0.0058721
 -2.3133000  0.1019000  0.0036838 -0.0270759  0.0039051
 -2.3134000  0.1129000  0.0042815 -0.0260130  0.0012622
 -2.3011000  0.1021000  0.0071353 -0.0342151  0.0023506
 -2.3013000  0.1131000  0.0072096 -0.0318878 -0.0007572
 -2.3134000  0.1239000  0.0043830 -0.0245148 -0.0010412
 -2.3014000  0.1239000  0.0068154 -0.0293648 -0.0033404
 -2.3013000  0.1348000  0.0060874 -0.0267732 -0.0054680
 -2.3134000  0.1349000  0.0041015 -0.0227442 -0.0029938
 -2.3256000  0.1350000  0.0023051 -0.0187537 -0.0012692
 -2.3256000  0.1239000  0.0022533 -0.0198358  0.0003723
 -2.2896000  0.1240000  0.0093155 -0.0339607 -0.0066009
 -2.2894000  0.1134000  0.0103518 -0.0376470 -0.0040399
 -2.2778000  0.1141000  0.0131855 -0.0425903 -0.0085496
 -2.2783000  0.1240000  0.0114941 -0.0377727 -0.0104660
 -2.2778000  0.1338000  0.0099703 -0.0337638 -0.0126624
 -2.2894000  0.1345000  0.0080842 -0.0305468 -0.0087186
 -2.2889000  0.1026000  0.0110812 -0.0415070 -0.0009000
 -2.2767000  0.1035000  0.0150126 -0.0478482 -0.0064068
 -2.2638000  0.1052000  0.0182508 -0.0514128 -0.0146871
 -2.2500000  0.1057000  0.0201581 -0.0519150 -0.0230026
 -2.2500000  0.1240000  0.0152799 -0.0423694 -0.0241943
 -2.2666000  0.1165000  0.0151719 -0.0458540 -0.0158080
 -2.2362000  0.1052000  0.0206921 -0.0514143 -0.0310544
 -2.2334000  0.1165000  0.0173420 -0.0457758 -0.0316518
 -2.2233000  0.1035000  0.0204162 -0.0477735 -0.0388683
 -2.2222000  0.1141000  0.0176648 -0.0424930 -0.0385472
 -2.2111000  0.1026000  0.0191860 -0.0413878 -0.0441967
 -2.2106000  0.1134000  0.0166440 -0.0375066 -0.0430312
 -2.1989000  0.1021000  0.0178490 -0.0340542 -0.0473809
 -2.1987000  0.1131000  0.0154179 -0.0317019 -0.0462941
 -2.2104000  0.1239000  0.0137211 -0.0337979 -0.0419196
 -2.1986000  0.1239000  0.0125114 -0.0291637 -0.0451841
 -2.1987000  0.1348000  0.0092621 -0.0265773 -0.0439922
 -2.2106000  0.1345000  0.0105788 -0.0304013 -0.0407306
 -2.2222000  0.1338000  0.0118209 -0.0336472 -0.0367874
 -2.2217000  0.1239000  0.0147187 -0.0376293 -0.0380467
 -2.1866000  0.1239000  0.0113985 -0.0242850 -0.0474872
 -2.1866000  0.1129000  0.0144451 -0.0257957 -0.0483042
 -2.1744000  0.1128000  0.0139793 -0.0202943 -0.0492708
 -2.1744000  0.1239000  0.0106068 -0.0195790 -0.0489098
 -2.1744000  0.1350000  0.0068896 -0.0184884 -0.0482059
 -2.1866000  0.1349000  0.0079731 -0.0225091 -0.0464745
 -2.1867000  0.1018000  0.0169995 -0.0268776 -0.0489086
 -2.1745000  0.1016000  0.0169346 -0.0204925 -0.0492179
 -2.1621000  0.1015000  0.0177061 -0.0151759 -0.0487883
 -2.1621000  0.1127000  0.0141286 -0.0154927 -0.0494952
 -2.1622000  0.0903000  0.0210068 -0.0142695 -0.0473591
 -2.1498000  0.0902000  0.0234242 -0.0099414 -0.0459632
 -2.1497000  0.1014000  0.0191941 -0.0109439 -0.0480008
 -2.1497000  0.1126000  0.0148636 -0.0115004 -0.0492632
 -2.1622000  0.0791000  0.0241420 -0.0127234 -0.0449950
 -2.1498000  0.0790000  0.0277151 -0.0085117 -0.0429769
 -2.1373000  0.1014000  0.0212550 -0.0076854 -0.0471270
 -2.1374000  0.0902000  0.0264257 -0.0067609 -0.0446613
 -2.1249000  0.0901000  0.0297763 -0.0044496 -0.0435588
 -2.1249000  0.1013000  0.0237028 -0.0052280 -0.0462942
 -2.1249000  0.1126000  0.0177403 -0.0058164 -0.0482733
 -2.1373000  0.1126000  0.0161078 -0.0083037 -0.0488078
 -2.1374000  0.0789000  0.0317689 -0.0055717 -0.0413215
 -2.1249000  0.0789000  0.0360666 -0.0035206 -0.0400426
 -2.1124000  0.0788000  0.0404815 -0.0021051 -0.0390837
 -2.1124000  0.0901000  0.0333311 -0.0027893 -0.0427005
 -2.1000000  0.0788000  0.0449141 -0.0011354 -0.0383999
 -2.1000000  0.0900000  0.0369830 -0.0016181 -0.0420454
 -2.1124000  0.1013000  0.0264130 -0.0034120 -0.0455987
 -2.1000000  0.1013000  0.0293016 -0.0020840 -0.0450133
 -2.1000000  0.1125000  0.0217768 -0.0024839 -0.0473249
 -2.1124000  0.1126000  0.0196586 -0.0039159 -0.0477767
 -2.0875000  0.1013000  0.0322641 -0.0011291 -0.0445885
 -2.0875000  0.0900000  0.0406590 -0.0007924 -0.0415953
 -2.0750000  0.0900000  0.0443382 -0.0002216 -0.0412866
 -2.0750000  0.1013000  0.0352661 -0.0004502 -0.0442826
 -2.0750000  0.1125000  0.0263267 -0.0006620 -0.0467008
 -2.0875000  0.1125000  0.0240161 -0.0014279 -0.0469744
 -2.0875000  0.0788000  0.0492868 -0.0004712 -0.0379577
 -2.0750000  0.0788000  0.0536208 -0.0000249 -0.0376791
 -2.0625000  0.0788000  0.0579011  0.0002672 -0.0375239
 -2.0625000  0.0900000  0.0479968  0.0001636 -0.0410941
 -2.0500000  0.0788000  0.0621301  0.0004503 -0.0374575
 -2.0500000  0.0900000  0.0516243  0.0004146 -0.0409898
 -2.0625000  0.1013000  0.0382771  0.0000198 -0.0440767
 -2.0500000  0.1013000  0.0412792  0.0003351 -0.0439502
 -2.0500000  0.1125000  0.0310320  0.0002544 -0.0463701
 -2.0625000  0.1125000  0.0286736 -0.0001191 -0.0465032
 -2.0375000  0.1013000  0.0442619  0.0005365 -0.0438845
 -2.0375000  0.0900000  0.0552175  0.0005688 -0.0409502
 -2.0250000  0.0900000  0.0587765  0.0006533 -0.0409566
 -2.0250000  0.1013000  0.0472198  0.0006546 -0.0438640
 -2.0250000  0.1125000  0.0357255  0.0006523 -0.0462484
 -2.0375000  0.1125000  0.0333858  0.0005007 -0.0462890
 -2.0375000  0.0788000  0.0663125  0.0005562 -0.0374537
 -2.0250000  0.0788000  0.0704543  0.0006078 -0.0374924
 -2.0125000  0.0788000  0.0745613  0.0006216 -0.0375586
 -2.0125000  0.0900000  0.0623032  0.0006885 -0.0409944
 -2.0000000  0.0788000  0.0786392  0.0006096 -0.0376413
 -2.0000000  0.0900000  0.0658008  0.0006893 -0.0410525
 -2.0125000  0.1013000  0.0501510  0.0007125 -0.0438758
 -2.0000000  0.1013000  0.0530555  0.0007277 -0.0439097
 -2.0000000  0.1125000  0.0403426  0.0007660 -0.0462493
 -2.0125000  0.1125000  0.0380453  0.0007343 -0.0462380
 -1.9875000  0.1013000  0.0559344  0.0007131 -0.0439576
 -1.9875000  0.0900000  0.0692723  0.0006667 -0.0411225
 -1.9750000  0.0900000  0.0727210  0.0006288 -0.0411982
 -1.9750000  0.1013000  0.0587897  0.0006787 -0.0440137
 -1.9750000  0.1125000  0.0448674  0.0007338 -0.0463110
 -1.9875000  0.1125000  0.0426165  0.0007621 -0.0462754
 -1.9875000  0.0788000  0.0826930  0.0005805 -0.0377323
 -1.9750000  0.0788000  0.0867269  0.0005407 -0.0378257
 -1.9625000  0.0788000  0.0907445  0.0004948 -0.0379176
 -1.9625000  0.0900000  0.0761500  0.0005818 -0.0412752
 -1.9500000  0.0788000  0.0947489  0.0004463 -0.0380052
 -1.9500000  0.0900000  0.0795620  0.0005299 -0.0413504
 -1.9625000  0.1013000  0.0616236  0.0006317 -0.0440733
 -1.9500000  0.1013000  0.0644382  0.0005775 -0.0441334
 -1.9500000  0.1125000  0.0493054  0.0006360 -0.0463950
 -1.9625000  0.1125000  0.0470965  0.0006897 -0.0463519
 -1.9375000  0.1013000  0.0672359  0.0005202 -0.0441915
 -1.9375000  0.0900000  0.0829596  0.0004764 -0.0414216
 -1.9250000  0.0900000  0.0863449  0.0004235 -0.0414877
 -1.9250000  0.1013000  0.0700186  0.0004626 -0.0442463
 -1.9250000  0.1125000  0.0536698  0.0005176 -0.0464795
 -1.9375000  0.1125000  0.0514959  0.0005775 -0.0464380
 -1.9375000  0.0788000  0.0987427  0.0003974 -0.0380869
 -1.9250000  0.0788000  0.1027278  0.0003500 -0.0381615
 -1.9125000  0.0788000  0.1067059  0.0003049 -0.0382287
 -1.9125000  0.0900000  0.0897199  0.0003728 -0.0415478
 -1.9000000  0.0788000  0.1106786  0.0002631 -0.0382885
 -1.9000000  0.0900000  0.0930861  0.0003253 -0.0416018
 -1.9125000  0.1013000  0.0727885  0.0004066 -0.0442969
 -1.9000000  0.1013000  0.0755472  0.0003535 -0.0443426
 -1.9000000  0.1125000  0.0579755  0.0004023 -0.0465541
 -1.9125000  0.1125000  0.0558291  0.0004586 -0.0465184
 -1.8875000  0.1013000  0.0782965  0.0003043 -0.0443835
 -1.8875000  0.0900000  0.0964452  0.0002815 -0.0416495
 -1.8750000  0.0900000  0.0997982  0.0002418 -0.0416913
 -1.8750000  0.1013000  0.0810376  0.0002594 -0.0444195
 -1.8750000  0.1125000  0.0622362  0.0003015 -0.0466148
 -1.8875000  0.1125000  0.0601107  0.0003498 -0.0465862
 -1.8875000  0.0788000  0.1146468  0.0002248 -0.0383410
 -1.8750000  0.0788000  0.1186115  0.0001902 -0.0383866
 -1.8625000  0.0788000  0.1225734  0.0001594 -0.0384259
 -1.8625000  0.0900000  0.1031462  0.0002063 -0.0417275
 -1.8500000  0.0788000  0.1265332  0.0001321 -0.0384595
 -1.8500000  0.0900000  0.1064901  0.0001748 -0.0417585
 -1.8625000  0.1013000  0.0837719  0.0002190 -0.0444508
 -1.8500000  0.1013000  0.0865004  0.0001830 -0.0444778
 -1.8500000  0.1125000  0.0664636  0.0002191 -0.0466616
 -1.8625000  0.1125000  0.0643534  0.0002580 -0.0466399
 -1.8375000  0.1013000  0.0892242  0.0001512 -0.0445009
 -1.8375000  0.0900000  0.1098306  0.0001472 -0.0417849
 -1.8250000  0.0900000  0.1131684  0.0001234 -0.0418071
 -1.8250000  0.1013000  0.0919440  0.0001236 -0.0445203
 -1.8250000  0.1125000  0.0706671  0.0001550 -0.0466961
 -1.8375000  0.1125000  0.0685678  0.0001849 -0.0466803
 -1.8375000  0.0788000  0.1304914  0.0001083 -0.0384879
 -1.8250000  0.0788000  0.1344482  0.0000876 -0.0385117
 -1.8125000  0.0788000  0.1384041  0.0000698 -0.0385315
 -1.8125000  0.0900000  0.1165040  0.0001028 -0.0418256
 -1.8000000  0.0788000  0.1423592  0.0000547 -0.0385478
 -1.8000000  0.0900000  0.1198379  0.0000853 -0.0418409
 -1.8125000  0.1013000  0.0946605  0.0000997 -0.0445367
 -1.8000000  0.1013000  0.0973743  0.0000792 -0.0445502
 -1.8000000  0.1125000  0.0748540  0.0001071 -0.0467204
 -1.8125000  0.1125000  0.0727623  0.0001292 -0.0467094
 -1.7875000  0.1013000  0.1000860  0.0000618 -0.0445613
 -1.7875000  0.0900000  0.1231703  0.0000706 -0.0418534
 -1.7750000  0.0900000  0.1265017  0.0000582 -0.0418636
 -1.7750000  0.1013000  0.1027960  0.0000472 -0.0445704
 -1.7750000  0.1125000  0.0790297  0.0000726 -0.0467370
 -1.7875000  0.1125000  0.0769430  0.0000883 -0.0467296
 -1.7875000  0.0788000  0.1463138  0.0000418 -0.0385611
 -1.7750000  0.0788000  0.1502680  0.0000310 -0.0385718
 -1.7625000  0.0788000  0.1542219  0.0000220 -0.0385804
 -1.7625000  0.0900000  0.1298322  0.0000480 -0.0418718
 -1.7500000  0.0788000  0.1581756  0.0000145 -0.0385872
 -1.7500000  0.0900000  0.1331621  0.0000396 -0.0418783
 -1.7625000  0.1013000  0.1055046  0.0000349 -0.0445777
 -1.7500000  0.1013000  0.1082122  0.0000247 -0.0445835
 -1.7500000  0.1125000  0.0831980  0.0000487 -0.0467478
 -1.7625000  0.1125000  0.0811146  0.0000595 -0.0467430
 -1.7375000  0.1013000  0.1109189  0.0000163 -0.0445880
 -1.7375000  0.0900000  0.1364915  0.0000327 -0.0418833
 -1.7250000  0.0900000  0.1398205  0.0000272 -0.0418873
 -1.7250000  0.1013000  0.1136249  0.0000094 -0.0445916
 -1.7250000  0.1125000  0.0873618  0.0000327 -0.0467546
 -1.7375000  0.1125000  0.0852803  0.0000398 -0.0467516
 -1.7375000  0.0788000  0.1621293  0.0000084 -0.0385925
 -1.7250000  0.0788000  0.1660829  0.0000034 -0.0385966
 -1.7125000  0.0788000  0.1700364 -0.0000007 -0.0385997
 -1.7125000  0.0900000  0.1431492  0.0000229 -0.0418902
 -1.7000000  0.0788000  0.1739900 -0.0000040 -0.0386019
 -1.7000000  0.0900000  0.1464778  0.0000195 -0.0418924
 -1.7125000  0.1013000  0.1163305  0.0000039 -0.0445943
 -1.7000000  0.1013000  0.1190358 -0.0000006 -0.0445963
 -1.7000000  0.1125000  0.0915228  0.0000225 -0.0467585
 -1.7125000  0.1125000  0.0894425  0.0000270 -0.0467568
 -1.6875000  0.1013000  0.1217408 -0.0000042 -0.0445978
 -1.6875000  0.0900000  0.1498063  0.0000168 -0.0418940
 -1.6750000  0.0900000  0.1531347  0.0000149 -0.0418951
 -1.6750000  0.1013000  0.1244456 -0.0000071 -0.0445988
 -1.6750000  0.1125000  0.0956824  0.0000164 -0.0467607
 -1.6875000  0.1125000  0.0936027  0.0000190 -0.0467598
 -1.6875000  0.0788000  0.1779436 -0.0000066 -0.0386035
 -1.6750000  0.0788000  0.1818972 -0.0000086 -0.0386046
 -1.6625000  0.0788000  0.1858509 -0.0000103 -0.0386053
 -1.6625000  0.0900000  0.1564631  0.0000134 -0.0418959
 -1.6500000  0.0788000  0.1898046 -0.0000115 -0.0386057
 -1.6500000  0.0900000  0.1597915  0.0000124 -0.0418963
 -1.6625000  0.1013000  0.1271503 -0.0000093 -0.0445995
 -1.6500000  0.1013000  0.1298550 -0.0000110 -0.0445999
 -1.6500000  0.1125000  0.0998412  0.0000130 -0.0467616
 -1.6625000  0.1125000  0.0977619  0.0000144 -0.0467612
 -1.6375000  0.1013000  0.1325597 -0.0000123 -0.0446001
 -1.6375000  0.0900000  0.1631199  0.0000117 -0.0418965
 -1.6250000  0.0900000  0.1664483  0.0000113 -0.0418965
 -1.6250000  0.1013000  0.1352643 -0.0000134 -0.0446002
 -1.6250000  0.1125000  0.1039999  0.0000113 -0.0467619
 -1.6375000  0.1125000  0.1019206  0.0000120 -0.0467618
 -1.6375000  0.0788000  0.1937584 -0.0000125 -0.0386059
 -1.6250000  0.0788000  0.1977123 -0.0000133 -0.0386059
 -1.6125000  0.0788000  0.2016662 -0.0000139 -0.0386058
 -1.6125000  0.0900000  0.1697768  0.0000111 -0.0418964
 -1.6000000  0.0788000  0.2056201 -0.0000144 -0.0386056
 -1.6000000  0.0900000  0.1731053  0.0000111 -0.0418963
 -1.6125000  0.1013000  0.1379690 -0.0000142 -0.0446001
 -1.6000000  0.1013000  0.1406737 -0.0000148 -0.0446000
 -1.6000000  0.1125000  0.1081586  0.0000108 -0.0467617
 -1.6125000  0.1125000  0.1060792  0.0000109 -0.0467618
 -1.5875000  0.1013000  0.1433785 -0.0000152 -0.0445998
 -1.5875000  0.0900000  0.1764339  0.0000111 -0.0418960
 -1.5750000  0.0900000  0.1797625  0.0000113 -0.0418958
 -1.5750000  0.1013000  0.1460833 -0.0000156 -0.0445995
 -1.5750000  0.1125000  0.1123174  0.0000108 -0.0467614
 -1.5875000  0.1125000  0.1102380  0.0000107 -0.0467616
 -1.5875000  0.0788000  0.2095741 -0.0000148 -0.0386053
 -1.5750000  0.0788000  0.2135281 -0.0000151 -0.0386050
 -1.5625000  0.0788000  0.2174821 -0.0000154 -0.0386046
 -1.5625000  0.0900000  0.1830911  0.0000115 -0.0418954
 -1.5500000  0.0788000  0.2214362 -0.0000156 -0.0386043
 -1.5500000  0.0900000  0.1864198  0.0000117 -0.0418951
 -1.5625000  0.1013000  0.1487882 -0.0000159 -0.0445993
 -1.5500000  0.1013000  0.1514931 -0.0000162 -0.0445990
 -1.5500000  0.1125000  0.1164765  0.0000112 -0.0467610
 -1.5625000  0.1125000  0.1143970  0.0000110 -0.0467612
 -1.5375000  0.1013000  0.1541981 -0.0000165 -0.0445987
 -1.5375000  0.0900000  0.1897486  0.0000119 -0.0418948
 -1.5250000  0.0900000  0.1930774  0.0000122 -0.0418944
 -1.5250000  0.1013000  0.1569032 -0.0000167 -0.0445984
 -1.5250000  0.1125000  0.1206359  0.0000117 -0.0467605
 -1.5375000  0.1125000  0.1185562  0.0000114 -0.0467608
 -1.5375000  0.0788000  0.2253903 -0.0000159 -0.0386039
 -1.5250000  0.0788000  0.2293445 -0.0000161 -0.0386035
 -1.5125000  0.0788000  0.2332986 -0.0000163 -0.0386032
 -1.5125000  0.0900000  0.1964062  0.0000125 -0.0418941
 -1.5000000  0.0788000  0.2372528 -0.0000166 -0.0386028
 -1.5000000  0.0900000  0.1997351  0.0000127 -0.0418938
 -1.5125000  0.1013000  0.1596083 -0.0000169 -0.0445981
 -1.5000000  0.1013000  0.1623135 -0.0000172 -0.0445978
 -1.5000000  0.1125000  0.1247956  0.0000122 -0.0467600
 -1.5125000  0.1125000  0.1227157  0.0000119 -0.0467603
 -1.4875000  0.1013000  0.1650187 -0.0000174 -0.0445975
 -1.4875000  0.0900000  0.2030640  0.0000129 -0.0418934
 -1.4750000  0.0900000  0.2063930  0.0000132 -0.0418931
 -1.4750000  0.1013000  0.1677240 -0.0000177 -0.0445972
 -1.4750000  0.1125000  0.1289555  0.0000127 -0.0467596
 -1.4875000  0.1125000  0.1268755  0.0000124 -0.0467598
 -1.4875000  0.0788000  0.2412071 -0.0000168 -0.0386024
 -1.4750000  0.0788000  0.2451613 -0.0000171 -0.0386020
 -1.4625000  0.0788000  0.2491156 -0.0000173 -0.0386017
 -1.4625000  0.0900000  0.2097220  0.0000134 -0.0418927
 -1.4500000  0.0788000  0.2530699 -0.0000176 -0.0386013
 -1.4500000  0.0900000  0.2130510  0.0000137 -0.0418924
 -1.4625000  0.1013000  0.1704293 -0.0000179 -0.0445970
 -1.4500000  0.1013000  0.1731347 -0.0000182 -0.0445967
 -1.4500000  0.1125000  0.1331157  0.0000132 -0.0467591
 -1.4625000  0.1125000  0.1310356  0.0000129 -0.0467593
 -1.4375000  0.1013000  0.1758402 -0.0000184 -0.0445964
 -1.4375000  0.0900000  0.2163801  0.0000139 -0.0418921
 -1.4250000  0.0900000  0.2197093  0.0000142 -0.0418918
 -1.4250000  0.1013000  0.1785457 -0.0000186 -0.0445961
 -1.4250000  0.1125000  0.1372762  0.0000138 -0.0467587
 -1.4375000  0.1125000  0.1351959  0.0000134 -0.0467589
 -1.4375000  0.0788000  0.2570242 -0.0000178 -0.0386009
 -1.4250000  0.0788000  0.2609786 -0.0000181 -0.0386006
 -1.4125000  0.0788000  0.2649330 -0.0000182 -0.0386003
 -1.4125000  0.0900000  0.2230385  0.0000146 -0.0418915
 -1.4000000  0.0788000  0.2688874 -0.0000183 -0.0386000
 -1.4000000  0.0900000  0.2263677  0.0000150 -0.0418913
 -1.4125000  0.1013000  0.1812513 -0.0000187 -0.0445959
 -1.4000000  0.1013000  0.1839569 -0.0000187 -0.0445957
 -1.4000000  0.1125000  0.1414369  0.0000147 -0.0467583
 -1.4125000  0.1125000  0.1393565  0.0000142 -0.0467585
 -1.3875000  0.1013000  0.1866626 -0.0000186 -0.0445956
 -1.3875000  0.0900000  0.2296970  0.0000156 -0.0418911
 -1.3750000  0.0900000  0.2330263  0.0000163 -0.0418910
 -1.3750000  0.1013000  0.1893683 -0.0000183 -0.0445955
 -1.3750000  0.1125000  0.1455977  0.0000162 -0.0467582
 -1.3875000  0.1125000  0.1435173  0.0000154 -0.0467582
 -1.3875000  0.0788000  0.2728419 -0.0000183 -0.0385998
 -1.3750000  0.0788000  0.2767964 -0.0000182 -0.0385997
 -1.3625000  0.0788000  0.2807510 -0.0000179 -0.0385996
 -1.3625000  0.0900000  0.2363557  0.0000172 -0.0418910
 -1.3500000  0.0788000  0.2847056 -0.0000174 -0.0385998
 -1.3500000  0.0900000  0.2396851  0.0000184 -0.0418912
 -1.3625000  0.1013000  0.1920740 -0.0000178 -0.0445955
 -1.3500000  0.1013000  0.1947797 -0.0000169 -0.0445958
 -1.3500000  0.1125000  0.1497586  0.0000189 -0.0467585
 -1.3625000  0.1125000  0.1476782  0.0000174 -0.0467583
 -1.3375000  0.1013000  0.1974855 -0.0000157 -0.0445962
 -1.3375000  0.0900000  0.2430145  0.0000199 -0.0418917
 -1.3250000  0.0900000  0.2463439  0.0000218 -0.0418924
 -1.3250000  0.1013000  0.2001911 -0.0000139 -0.0445968
 -1.3250000  0.1125000  0.1539193  0.0000233 -0.0467594
 -1.3375000  0.1125000  0.1518390  0.0000208 -0.0467588
 -1.3375000  0.0788000  0.2886603 -0.0000166 -0.0386002
 -1.3250000  0.0788000  0.2926150 -0.0000155 -0.0386009
 -1.3125000  0.0788000  0.2965698 -0.0000139 -0.0386020
 -1.3125000  0.0900000  0.2496733  0.0000243 -0.0418935
 -1.3000000  0.0788000  0.3005245 -0.0000118 -0.0386036
 -1.3000000  0.0900000  0.2530026  0.0000274 -0.0418951
 -1.3125000  0.1013000  0.2028967 -0.0000116 -0.0445979
 -1.3000000  0.1013000  0.2056020 -0.0000085 -0.0445993
 -1.3000000  0.1125000  0.1580793  0.0000304 -0.0467615
 -1.3125000  0.1125000  0.1559994  0.0000264 -0.0467602
 -1.2875000  0.1013000  0.2083072 -0.0000045 -0.0446013
 -1.2875000  0.0900000  0.2563318  0.0000313 -0.0418972
 -1.2750000  0.0900000  0.2596607  0.0000362 -0.0419002
 -1.2750000  0.1013000  0.2110119  0.0000006 -0.0446040
 -1.2750000  0.1125000  0.1622378  0.0000416 -0.0467654
 -1.2875000  0.1125000  0.1601588  0.0000354 -0.0467631
 -1.2875000  0.0788000  0.3044794 -0.0000090 -0.0386059
 -1.2750000  0.0788000  0.3084342 -0.0000054 -0.0386090
 -1.2625000  0.0788000  0.3123889 -0.0000009 -0.0386130
 -1.2625000  0.0900000  0.2629895  0.0000421 -0.0419041
 -1.2500000  0.0788000  0.3163436  0.0000047 -0.0386183
 -1.2500000  0.0900000  0.2663178  0.0000494 -0.0419092
 -1.2625000  0.1013000  0.2137162  0.0000069 -0.0446075
 -1.2500000  0.1013000  0.2164199  0.0000148 -0.0446120
 -1.2500000  0.1125000  0.1663935  0.0000585 -0.0467720
 -1.2625000  0.1125000  0.1643161  0.0000492 -0.0467683
 -1.2375000  0.1013000  0.2191227  0.0000244 -0.0446178
 -1.2375000  0.0900000  0.2696457  0.0000583 -0.0419156
 -1.2250000  0.0900000  0.2729729  0.0000689 -0.0419237
 -1.2250000  0.1013000  0.2218244  0.0000361 -0.0446250
 -1.2250000  0.1125000  0.1705447  0.0000832 -0.0467828
 -1.2375000  0.1125000  0.1684698  0.0000697 -0.0467768
 -1.2375000  0.0788000  0.3202982  0.0000116 -0.0386251
 -1.2250000  0.0788000  0.3242526  0.0000201 -0.0386336
 -1.2125000  0.0788000  0.3282068  0.0000302 -0.0386443
 -1.2125000  0.0900000  0.2762993  0.0000816 -0.0419338
 -1.2000000  0.0788000  0.3321605  0.0000423 -0.0386575
 -1.2000000  0.0900000  0.2796246  0.0000966 -0.0419463
 -1.2125000  0.1013000  0.2245248  0.0000501 -0.0446340
 -1.2000000  0.1013000  0.2272235  0.0000668 -0.0446451
 -1.2000000  0.1125000  0.1746886  0.0001183 -0.0467994
 -1.2125000  0.1125000  0.1726178  0.0000993 -0.0467902
 -1.1875000  0.1013000  0.2299201  0.0000863 -0.0446587
 -1.1875000  0.0900000  0.2829486  0.0001141 -0.0419615
 -1.1750000  0.0900000  0.2862709  0.0001344 -0.0419799
 -1.1750000  0.1013000  0.2326142  0.0001090 -0.0446750
 -1.1750000  0.1125000  0.1788217  0.0001662 -0.0468240
 -1.1875000  0.1125000  0.1767568  0.0001405 -0.0468105
 -1.1875000  0.0788000  0.3361138  0.0000566 -0.0386736
 -1.1750000  0.0788000  0.3400664  0.0000732 -0.0386932
 -1.1625000  0.0788000  0.3440182  0.0000924 -0.0387167
 -1.1625000  0.0900000  0.2895913  0.0001578 -0.0420020
 -1.1500000  0.0788000  0.3479689  0.0001143 -0.0387446
 -1.1500000  0.0900000  0.2929092  0.0001843 -0.0420282
 -1.1625000  0.1013000  0.2353052  0.0001351 -0.0446945
 -1.1500000  0.1013000  0.2379926  0.0001649 -0.0447178
 -1.1500000  0.1125000  0.1829389  0.0002291 -0.0468593
 -1.1625000  0.1125000  0.1808826  0.0001956 -0.0468401
 -1.1375000  0.1013000  0.2406757  0.0001982 -0.0447451
 -1.1375000  0.0900000  0.2962242  0.0002140 -0.0420590
 -1.1250000  0.0900000  0.2995357  0.0002469 -0.0420950
 -1.1250000  0.1013000  0.2433538  0.0002351 -0.0447770
 -1.1250000  0.1125000  0.1870342  0.0003079 -0.0469082
 -1.1375000  0.1125000  0.1849897  0.0002665 -0.0468818
 -1.1375000  0.0788000  0.3519183  0.0001390 -0.0387775
 -1.1250000  0.0788000  0.3558661  0.0001663 -0.0388159
 -1.1125000  0.0788000  0.3598120  0.0001961 -0.0388603
 -1.1125000  0.0900000  0.3028434  0.0002826 -0.0421365
 -1.1000000  0.0788000  0.3637557  0.0002279 -0.0389112
 -1.1000000  0.0900000  0.3061465  0.0003207 -0.0421841
 -1.1125000  0.1013000  0.2460262  0.0002753 -0.0448139
 -1.1000000  0.1013000  0.2486919  0.0003181 -0.0448562
 -1.1000000  0.1125000  0.1911002  0.0004008 -0.0469740
 -1.1125000  0.1125000  0.1890713  0.0003529 -0.0469388
 -1.0875000  0.1013000  0.2513504  0.0003625 -0.0449041
 -1.0875000  0.0900000  0.3094444  0.0003602 -0.0422379
 -1.0750000  0.0900000  0.3127367  0.0003999 -0.0422980
 -1.0750000  0.1013000  0.2540007  0.0004071 -0.0449577
 -1.0750000  0.1125000  0.1951294  0.0005006 -0.0470590
 -1.0875000  0.1125000  0.1931199  0.0004506 -0.0470140
 -1.0875000  0.0788000  0.3676968  0.0002610 -0.0389687
 -1.0750000  0.0788000  0.3716350  0.0002943 -0.0390329
 -1.0625000  0.0788000  0.3755699  0.0003262 -0.0391036
 -1.0625000  0.0900000  0.3160228  0.0004379 -0.0423643
 -1.0500000  0.0788000  0.3795013  0.0003547 -0.0391801
 -1.0500000  0.0900000  0.3193024  0.0004717 -0.0424361
 -1.0625000  0.1013000  0.2566423  0.0004497 -0.0450171
 -1.0500000  0.1013000  0.2592748  0.0004875 -0.0450817
 -1.0500000  0.1125000  0.1991151  0.0005913 -0.0471643
 -1.0625000  0.1125000  0.1971280  0.0005485 -0.0471092
 -1.0375000  0.1013000  0.2618978  0.0005167 -0.0451508
 -1.0375000  0.0900000  0.3225752  0.0004979 -0.0425125
 -1.0250000  0.0900000  0.3258413  0.0005122 -0.0425916
 -1.0250000  0.1013000  0.2645116  0.0005323 -0.0452229
 -1.0250000  0.1125000  0.2030544  0.0006429 -0.0472867
 -1.0375000  0.1125000  0.2010905  0.0006246 -0.0472237
 -1.0375000  0.0788000  0.3834289  0.0003770 -0.0392613
 -1.0250000  0.0788000  0.3873528  0.0003893 -0.0393452
 -1.0125000  0.0788000  0.3912728  0.0003872 -0.0394291
 -1.0125000  0.0900000  0.3291010  0.0005092 -0.0426710
 -1.0000000  0.0788000  0.3951894  0.0003651 -0.0395088
 -1.0000000  0.0900000  0.3323553  0.0004822 -0.0427469
 -1.0125000  0.1013000  0.2671169  0.0005280 -0.0452960
 -1.0000000  0.1013000  0.2697149  0.0004961 -0.0453669
 -1.0000000  0.1125000  0.2069521  0.0006053 -0.0474160
 -1.0125000  0.1125000  0.2050077  0.0006394 -0.0473516
 -0.9875000  0.1013000  0.2723080  0.0004271 -0.0454311
 -0.9875000  0.0900000  0.3356053  0.0004230 -0.0428144
 -0.9750000  0.0900000  0.3388531  0.0003222 -0.0428664
 -0.9750000  0.1013000  0.2748990  0.0003098 -0.0454826
 -0.9750000  0.1125000  0.2108270  0.0004005 -0.0475281
 -0.9875000  0.1125000  0.2088905  0.0005299 -0.0474766
 -0.9875000  0.0788000  0.3991028  0.0003163 -0.0395791
 -0.9750000  0.0788000  0.4030138  0.0002330 -0.0396327
 -0.9625000  0.0788000  0.4069230  0.0001066 -0.0396605
 -0.9625000  0.0900000  0.3421011  0.0001689 -0.0428942
 -0.9500000  0.0788000  0.4108313 -0.0000727 -0.0396507
 -0.9500000  0.0900000  0.3453523 -0.0000488 -0.0428863
 -0.9625000  0.1013000  0.2774923  0.0001314 -0.0455132
 -0.9500000  0.1013000  0.2800930 -0.0001227 -0.0455122
 -0.9500000  0.1125000  0.2147183 -0.0000827 -0.0475742
 -0.9625000  0.1125000  0.2127671  0.0002020 -0.0475638
 -0.9375000  0.1013000  0.2827075 -0.0004683 -0.0454655
 -0.9375000  0.0900000  0.3486100 -0.0003438 -0.0428281
 -0.9250000  0.0900000  0.3518777 -0.0007288 -0.0427022
 -0.9250000  0.1013000  0.2853422 -0.0009214 -0.0453553
 -0.9250000  0.1125000  0.2186916 -0.0009880 -0.0474634
 -0.9375000  0.1125000  0.2166894 -0.0004726 -0.0475465
 -0.9375000  0.0788000  0.4147390 -0.0003148 -0.0395891
 -0.9250000  0.0788000  0.4186461 -0.0006297 -0.0394582
 -0.9125000  0.0788000  0.4225491 -0.0010264 -0.0392386
 -0.9125000  0.0900000  0.3551601 -0.0012150 -0.0424864
 -0.9000000  0.0788000  0.4263807 -0.0015305 -0.0389097
 -0.9000000  0.0900000  0.3584037 -0.0018670 -0.0421927
 -0.9125000  0.1013000  0.2880023 -0.0014981 -0.0451604
 -0.9000000  0.1013000  0.2905742 -0.0022156 -0.0449034
 -0.9000000  0.1125000  0.2227343 -0.0024950 -0.0470883
 -0.9125000  0.1125000  0.2207368 -0.0016471 -0.0473031
 -0.8876000  0.1013000  0.2931567 -0.0030303 -0.0443886
 -0.8876000  0.0901000  0.3615584 -0.0025593 -0.0417022
 -0.8751000  0.0901000  0.3645506 -0.0034320 -0.0410637
 -0.8751000  0.1013000  0.2956955 -0.0040616 -0.0438574
 -0.8751000  0.1126000  0.2269178 -0.0047212 -0.0461295
 -0.8876000  0.1126000  0.2248580 -0.0035102 -0.0466128
 -0.8875000  0.0788000  0.4299643 -0.0020666 -0.0384575
 -0.8751000  0.0789000  0.4335037 -0.0027387 -0.0377983
 -0.8626000  0.0789000  0.4370130 -0.0035292 -0.0370582
 -0.8626000  0.0902000  0.3675647 -0.0043844 -0.0402170
 -0.8502000  0.0790000  0.4403304 -0.0043444 -0.0360136
 -0.8502000  0.0902000  0.3704344 -0.0054032 -0.0391637
 -0.8627000  0.1014000  0.2982296 -0.0052626 -0.0429903
 -0.8502000  0.1015000  0.3006625 -0.0065112 -0.0419478
 -0.8503000  0.1127000  0.2310290 -0.0075954 -0.0443191
 -0.8627000  0.1126000  0.2289842 -0.0060908 -0.0453052
 -0.8379000  0.1015000  0.3029362 -0.0079363 -0.0405714
 -0.8378000  0.0903000  0.3730548 -0.0065668 -0.0378309
 -0.8255000  0.1017000  0.3051188 -0.0093564 -0.0389898
 -0.8256000  0.1128000  0.2351136 -0.0110054 -0.0413581
 -0.8379000  0.1127000  0.2330012 -0.0092977 -0.0429821
 -0.8377000  0.0791000  0.4432807 -0.0052568 -0.0347337
 -0.8133000  0.1018000  0.3066682 -0.0107904 -0.0369769
 -0.8134000  0.1129000  0.2368604 -0.0127819 -0.0393375
 -0.8011000  0.1021000  0.3077445 -0.0121591 -0.0346657
 -0.8013000  0.1131000  0.2383386 -0.0144705 -0.0370287
 -0.8134000  0.1239000  0.1672301 -0.0147705 -0.0413398
 -0.8014000  0.1239000  0.1689945 -0.0167087 -0.0390410
 -0.8013000  0.1348000  0.0997735 -0.0191162 -0.0404879
 -0.8134000  0.1349000  0.0975261 -0.0168305 -0.0429969
 -0.8256000  0.1350000  0.0955096 -0.0143245 -0.0450726
 -0.8256000  0.1239000  0.1653396 -0.0126729 -0.0433376
 -0.7896000  0.1240000  0.1706424 -0.0184638 -0.0366070
 -0.7894000  0.1134000  0.2390219 -0.0159377 -0.0344639
 -0.7778000  0.1141000  0.2388813 -0.0174230 -0.0318201
 -0.7783000  0.1240000  0.1719346 -0.0198365 -0.0347197
 -0.7778000  0.1338000  0.1052521 -0.0225396 -0.0344201
 -0.7894000  0.1345000  0.1023406 -0.0211794 -0.0375655
 -0.7889000  0.1026000  0.3073962 -0.0133936 -0.0320174
 -0.7767000  0.1035000  0.3036242 -0.0148066 -0.0289215
 -0.7638000  0.1052000  0.2904957 -0.0154332 -0.0249930
 -0.7500000  0.1057000  0.2857853 -0.0165215 -0.0229023
 -0.7500000  0.1240000  0.1746179 -0.0213302 -0.0241188
 -0.7666000  0.1165000  0.2177277 -0.0183810 -0.0270550
 -0.7362000  0.1052000  0.2929871 -0.0154808 -0.0205388
 -0.7334000  0.1165000  0.2200818 -0.0183561 -0.0202163
 -0.7233000  0.1035000  0.3091924 -0.0148293 -0.0161108
 -0.7222000  0.1141000  0.2436168 -0.0174055 -0.0150818
 -0.7111000  0.1026000  0.3157198 -0.0134179 -0.0128231
 -0.7106000  0.1134000  0.2456275 -0.0159597 -0.0124003
 -0.6989000  0.1021000  0.3186985 -0.0121717 -0.0101020
 -0.6987000  0.1131000  0.2468512 -0.0144683 -0.0098083
 -0.7104000  0.1239000  0.1753853 -0.0184103 -0.0117696
 -0.6986000  0.1239000  0.1750451 -0.0166954 -0.0093309
 -0.6987000  0.1348000  0.1032969 -0.0191310 -0.0088851
 -0.7106000  0.1345000  0.1051955 -0.0211874 -0.0118037
 -0.7222000  0.1338000  0.1074881 -0.0225091 -0.0149327
 -0.7217000  0.1239000  0.1754987 -0.0197361 -0.0136403
 -0.6866000  0.1239000  0.1745810 -0.0147664 -0.0070193
 -0.6866000  0.1129000  0.2473855 -0.0127785 -0.0074699
 -0.6744000  0.1128000  0.2477054 -0.0110255 -0.0054338
 -0.6744000  0.1239000  0.1741056 -0.0126886 -0.0050275
 -0.6744000  0.1350000  0.1005455 -0.0143215 -0.0043109
 -0.6866000  0.1349000  0.1017678 -0.0168242 -0.0063709
 -0.6867000  0.1018000  0.3203211 -0.0107622 -0.0077383
 -0.6745000  0.1016000  0.3214049 -0.0093255 -0.0056814
 -0.6621000  0.1015000  0.3221122 -0.0078915 -0.0040439
 -0.6621000  0.1127000  0.2479009 -0.0092973 -0.0038040
 -0.6622000  0.0903000  0.3964013 -0.0065323 -0.0041806
 -0.6498000  0.0902000  0.3970627 -0.0054367 -0.0028242
 -0.6497000  0.1014000  0.3224049 -0.0065215 -0.0026786
 -0.6497000  0.1126000  0.2478713 -0.0075991 -0.0025068
 -0.6622000  0.0791000  0.4709669 -0.0052444 -0.0039666
 -0.6498000  0.0790000  0.4720023 -0.0043824 -0.0026264
 -0.6373000  0.1014000  0.3227128 -0.0052366 -0.0015931
 -0.6374000  0.0902000  0.3976179 -0.0043934 -0.0017009
 -0.6249000  0.0901000  0.3978744 -0.0034473 -0.0008435
 -0.6249000  0.1013000  0.3227353 -0.0040655 -0.0007627
 -0.6249000  0.1126000  0.2477208 -0.0047340 -0.0006302
 -0.6373000  0.1126000  0.2478664 -0.0060522 -0.0014630
 -0.6374000  0.0789000  0.4726337 -0.0035246 -0.0015965
 -0.6249000  0.0789000  0.4730036 -0.0027330 -0.0008054
 -0.6124000  0.0788000  0.4734409 -0.0020671 -0.0001572
 -0.6124000  0.0901000  0.3981773 -0.0025565 -0.0002439
 -0.6000000  0.0788000  0.4738283 -0.0015344  0.0003439
 -0.6000000  0.0900000  0.3983026 -0.0018480  0.0003083
 -0.6124000  0.1013000  0.3228966 -0.0030296 -0.0002297
 -0.6000000  0.1013000  0.3230342 -0.0022164  0.0003061
 -0.6000000  0.1125000  0.2476915 -0.0024939  0.0003335
 -0.6124000  0.1126000  0.2477309 -0.0035132 -0.0001531
 -0.5875000  0.1013000  0.3231688 -0.0015018  0.0005629
 -0.5875000  0.0900000  0.3984362 -0.0012131  0.0005932
 -0.5750000  0.0900000  0.3984816 -0.0007252  0.0008085
 -0.5750000  0.1013000  0.3232144 -0.0009249  0.0007576
 -0.5750000  0.1125000  0.2478095 -0.0009846  0.0007035
 -0.5875000  0.1125000  0.2477748 -0.0016437  0.0005433
 -0.5875000  0.0788000  0.4739535 -0.0010294  0.0006341
 -0.5750000  0.0788000  0.4740049 -0.0006330  0.0008559
 -0.5625000  0.0788000  0.4740520 -0.0003184  0.0009866
 -0.5625000  0.0900000  0.3985431 -0.0003400  0.0009346
 -0.5500000  0.0788000  0.4740985 -0.0000765  0.0010482
 -0.5500000  0.0900000  0.3986144 -0.0000447  0.0009927
 -0.5625000  0.1013000  0.3232849 -0.0004718  0.0008678
 -0.5500000  0.1013000  0.3233758 -0.0001264  0.0009144
 -0.5500000  0.1125000  0.2479960 -0.0000785  0.0008141
 -0.5625000  0.1125000  0.2478872 -0.0004687  0.0007865
 -0.5375000  0.1013000  0.3234804  0.0001274  0.0009154
 -0.5375000  0.0900000  0.3986922  0.0001733  0.0010006
 -0.5250000  0.0900000  0.3987732  0.0003267  0.0009727
 -0.5250000  0.1013000  0.3235924  0.0003055  0.0008848
 -0.5250000  0.1125000  0.2482648  0.0004050  0.0007680
 -0.5375000  0.1125000  0.2481249  0.0002064  0.0008037
 -0.5375000  0.0788000  0.4741445  0.0001025  0.0010578
 -0.5250000  0.0788000  0.4741895  0.0002287  0.0010300
 -0.5125000  0.0788000  0.4742327  0.0003116  0.0009764
 -0.5125000  0.0900000  0.3988544  0.0004277  0.0009207
 -0.5000000  0.0788000  0.4742735  0.0003602  0.0009061
 -0.5000000  0.0900000  0.3989332  0.0004871  0.0008532
 -0.5125000  0.1013000  0.3237066  0.0004225  0.0008333
 -0.5000000  0.1013000  0.3238188  0.0004912  0.0007691
 -0.5000000  0.1125000  0.2485498  0.0006103  0.0006560
 -0.5125000  0.1125000  0.2484083  0.0005346  0.0007165
 -0.4875000  0.1013000  0.3239260  0.0005228  0.0006982
 -0.4875000  0.0900000  0.3990079  0.0005144  0.0007773
 -0.4750000  0.0900000  0.3990771  0.0005177  0.0006979
 -0.4750000  0.1013000  0.3240259  0.0005269  0.0006251
 -0.4750000  0.1125000  0.2488120  0.0006484  0.0005267
 -0.4875000  0.1125000  0.2486853  0.0006446  0.0005916
 -0.4875000  0.0788000  0.4743112  0.0003820  0.0008264
 -0.4750000  0.0788000  0.4743453  0.0003839  0.0007425
 -0.4625000  0.0788000  0.4743757  0.0003713  0.0006586
 -0.4625000  0.0900000  0.3991399  0.0005036  0.0006187
 -0.4500000  0.0788000  0.4744023  0.0003488  0.0005774
 -0.4500000  0.0900000  0.3991960  0.0004776  0.0005424
 -0.4625000  0.1013000  0.3241173  0.0005111  0.0005530
 -0.4500000  0.1013000  0.3241995  0.0004816  0.0004839
 -0.4500000  0.1125000  0.2490325  0.0005973  0.0004042
 -0.4625000  0.1125000  0.2489280  0.0006303  0.0004637
 -0.4375000  0.1013000  0.3242723  0.0004436  0.0004193
 -0.4375000  0.0900000  0.3992454  0.0004441  0.0004705
 -0.4250000  0.0900000  0.3992882  0.0004063  0.0004043
 -0.4250000  0.1013000  0.3243359  0.0004007  0.0003599
 -0.4250000  0.1125000  0.2492066  0.0005070  0.0002990
 -0.4375000  0.1125000  0.2491253  0.0005548  0.0003492
 -0.4375000  0.0788000  0.4744251  0.0003201  0.0005008
 -0.4250000  0.0788000  0.4744444  0.0002879  0.0004301
 -0.4125000  0.0788000  0.4744604  0.0002543  0.0003659
 -0.4125000  0.0900000  0.3993248  0.0003669  0.0003441
 -0.4000000  0.0788000  0.4744735  0.0002210  0.0003084
 -0.4000000  0.0900000  0.3993557  0.0003276  0.0002903
 -0.4125000  0.1013000  0.3243907  0.0003558  0.0003063
 -0.4000000  0.1013000  0.3244375  0.0003112  0.0002584
 -0.4000000  0.1125000  0.2493372  0.0004078  0.0002139
 -0.4125000  0.1125000  0.2492770  0.0004573  0.0002540
 -0.3875000  0.1013000  0.3244770  0.0002681  0.0002161
 -0.3875000  0.0900000  0.3993816  0.0002898  0.0002428
 -0.3750000  0.0900000  0.3994028  0.0002543  0.0002012
 -0.3750000  0.1013000  0.3245098  0.0002277  0.0001792
 -0.3750000  0.1125000  0.2494310  0.0003153  0.0001482
 -0.3875000  0.1125000  0.2493882  0.0003601  0.0001788
 -0.3875000  0.0788000  0.4744841  0.0001889  0.0002575
 -0.3750000  0.0788000  0.4744924  0.0001589  0.0002131
 -0.3625000  0.0788000  0.4744988  0.0001313  0.0001747
 -0.3625000  0.0900000  0.3994201  0.0002217  0.0001652
 -0.3500000  0.0788000  0.4745036  0.0001064  0.0001418
 -0.3500000  0.0900000  0.3994341  0.0001922  0.0001344
 -0.3625000  0.1013000  0.3245369  0.0001906  0.0001473
 -0.3500000  0.1013000  0.3245590  0.0001570  0.0001199
 -0.3500000  0.1125000  0.2494955  0.0002370  0.0000992
 -0.3625000  0.1125000  0.2494664  0.0002742  0.0001218
 -0.3375000  0.1013000  0.3245769  0.0001270  0.0000967
 -0.3375000  0.0900000  0.3994451  0.0001659  0.0001082
 -0.3250000  0.0900000  0.3994537  0.0001428  0.0000861
 -0.3250000  0.1013000  0.3245910  0.0001006  0.0000771
 -0.3250000  0.1125000  0.2495381  0.0001745  0.0000639
 -0.3375000  0.1125000  0.2495191  0.0002038  0.0000800
 -0.3375000  0.0788000  0.4745071  0.0000843  0.0001138
 -0.3250000  0.0788000  0.4745095  0.0000648  0.0000904
 -0.3125000  0.0788000  0.4745111  0.0000479  0.0000708
 -0.3125000  0.0900000  0.3994602  0.0001227  0.0000677
 -0.3000000  0.0788000  0.4745121  0.0000334  0.0000547
 -0.3000000  0.0900000  0.3994651  0.0001054  0.0000525
 -0.3125000  0.1013000  0.3246021  0.0000776  0.0000608
 -0.3000000  0.1013000  0.3246107  0.0000579  0.0000473
 -0.3000000  0.1125000  0.2495648  0.0001272  0.0000393
 -0.3125000  0.1125000  0.2495531  0.0001491  0.0000505
 -0.2875000  0.1013000  0.3246172  0.0000410  0.0000362
 -0.2875000  0.0900000  0.3994687  0.0000907  0.0000400
 -0.2750000  0.0900000  0.3994712  0.0000783  0.0000299
 -0.2750000  0.1013000  0.3246220  0.0000267  0.0000272
 -0.2750000  0.1125000  0.2495807  0.0000926  0.0000227
 -0.2875000  0.1125000  0.2495738  0.0001084  0.0000301
 -0.2875000  0.0788000  0.4745125  0.0000211  0.0000415
 -0.2750000  0.0788000  0.4745126  0.0000107  0.0000308
 -0.2625000  0.0788000  0.4745124  0.0000020  0.0000222
 -0.2625000  0.0900000  0.3994729  0.0000679  0.0000218
 -0.2500000  0.0788000  0.4745120 -0.0000052  0.0000155
 -0.2500000  0.0900000  0.3994740  0.0000593  0.0000154
 -0.2625000  0.1013000  0.3246255  0.0000148  0.0000199
 -0.2500000  0.1013000  0.3246279  0.0000049  0.0000142
 -0.2500000  0.1125000  0.2495893  0.0000684  0.0000120
 -0.2625000  0.1125000  0.2495857  0.0000793  0.0000168
 -0.2375000  0.1013000  0.3246294 -0.0000032  0.0000096
 -0.2375000  0.0900000  0.3994745  0.0000522  0.0000103
 -0.2250000  0.0900000  0.3994747  0.0000465  0.0000064
 -0.2250000  0.1013000  0.3246303 -0.0000098  0.0000061
 -0.2250000  0.1125000  0.2495933  0.0000519  0.0000053
 -0.2375000  0.1125000  0.2495917  0.0000593  0.0000082
 -0.2375000  0.0788000  0.4745115 -0.0000111  0.0000102
 -0.2250000  0.0788000  0.4745110 -0.0000158  0.0000061
 -0.2125000  0.0788000  0.4745104 -0.0000196  0.0000031
 -0.2125000  0.0900000  0.3994746  0.0000419  0.0000035
 -0.2000000  0.0788000  0.4745098 -0.0000227  0.0000008
 -0.2000000  0.0900000  0.3994743  0.0000382  0.0000013
 -0.2125000  0.1013000  0.3246308 -0.0000151  0.0000035
 -0.2000000  0.1013000  0.3246309 -0.0000194  0.0000015
 -0.2000000  0.1125000  0.2495946  0.0000413  0.0000014
 -0.2125000  0.1125000  0.2495942  0.0000460  0.0000031
 -0.1875000  0.1013000  0.3246307 -0.0000227 -0.0000000
 -0.1875000  0.0900000  0.3994739  0.0000354 -0.0000003
 -0.1750000  0.0900000  0.3994735  0.0000331 -0.0000014
 -0.1750000  0.1013000  0.3246303 -0.0000253 -0.0000010
 -0.1750000  0.1125000  0.2495945  0.0000346 -0.0000007
 -0.1875000  0.1125000  0.2495947  0.0000375  0.0000002
 -0.1875000  0.0788000  0.4745092 -0.0000250 -0.0000008
 -0.1750000  0.0788000  0.4745086 -0.0000269 -0.0000019
 -0.1625000  0.0788000  0.4745081 -0.0000283 -0.0000026
 -0.1625000  0.0900000  0.3994730  0.0000314 -0.0000021
 -0.1500000  0.0788000  0.4745077 -0.0000293 -0.0000030
 -0.1500000  0.0900000  0.3994724  0.0000302 -0.0000026
 -0.1625000  0.1013000  0.3246299 -0.0000273 -0.0000017
 -0.1500000  0.1013000  0.3246294 -0.0000288 -0.0000021
 -0.1500000  0.1125000  0.2495936  0.0000307 -0.0000016
 -0.1625000  0.1125000  0.2495941  0.0000324 -0.0000012
 -0.1375000  0.1013000  0.3246288 -0.0000299 -0.0000023
 -0.1375000  0.0900000  0.3994720  0.0000292 -0.0000028
 -0.1250000  0.0900000  0.3994715  0.0000286 -0.0000028
 -0.1250000  0.1013000  0.3246283 -0.0000307 -0.0000023
 -0.1250000  0.1125000  0.2495925  0.0000285 -0.0000019
 -0.1375000  0.1125000  0.2495930  0.0000294 -0.0000018
 -0.1375000  0.0788000  0.4745073 -0.0000301 -0.0000032
 -0.1250000  0.0788000  0.4745069 -0.0000306 -0.0000031
 -0.1125000  0.0788000  0.4745066 -0.0000310 -0.0000030
 -0.1125000  0.0900000  0.3994711  0.0000281 -0.0000027
 -0.1000000  0.0788000  0.4745063 -0.0000312 -0.0000028
 -0.1000000  0.0900000  0.3994707  0.0000278 -0.0000025
 -0.1125000  0.1013000  0.3246278 -0.0000312 -0.0000023
 -0.1000000  0.1013000  0.3246273 -0.0000316 -0.0000022
 -0.1000000  0.1125000  0.2495913  0.0000275 -0.0000017
 -0.1125000  0.1125000  0.2495919  0.0000279 -0.0000018
 -0.0875000  0.1013000  0.3246269 -0.0000318 -0.0000020
 -0.0875000  0.0900000  0.3994703  0.0000276 -0.0000023
 -0.0750000  0.0900000  0.3994700  0.0000275 -0.0000020
 -0.0750000  0.1013000  0.3246265 -0.0000319 -0.0000017
 -0.0750000  0.1125000  0.2495904  0.0000270 -0.0000014
 -0.0875000  0.1125000  0.2495909  0.0000272 -0.0000016
 -0.0875000  0.0788000  0.4745061 -0.0000313 -0.0000025
 -0.0750000  0.0788000  0.4745059 -0.0000314 -0.0000022
 -0.0625000  0.0788000  0.4745057 -0.0000314 -0.0000019
 -0.0625000  0.0900000  0.3994698  0.0000275 -0.0000017
 -0.0500000  0.0788000  0.4745056 -0.0000314 -0.0000015
 -0.0500000  0.0900000  0.3994696  0.0000274 -0.0000014
 -0.0625000  0.1013000  0.3246262 -0.0000320 -0.0000015
 -0.0500000  0.1013000  0.3246259 -0.0000320 -0.0000012
 -0.0500000  0.1125000  0.2495897  0.0000270 -0.0000009
 -0.0625000  0.1125000  0.2495901  0.0000270 -0.0000012
 -0.0375000  0.1013000  0.3246257 -0.0000320 -0.0000009
 -0.0375000  0.0900000  0.3994694  0.0000275 -0.0000010
 -0.0250000  0.0900000  0.3994693  0.0000275 -0.0000007
 -0.0250000  0.1013000  0.3246256 -0.0000320 -0.0000006
 -0.0250000  0.1125000  0.2495893  0.0000269 -0.0000005
 -0.0375000  0.1125000  0.2495895  0.0000269 -0.0000007
 -0.0375000  0.0788000  0.4745055 -0.0000314 -0.0000011
 -0.0250000  0.0788000  0.4745054 -0.0000314 -0.0000007
 -0.0125000  0.0788000  0.4745054 -0.0000314 -0.0000004
 -0.0125000  0.0900000  0.3994693  0.0000275 -0.0000003
  0.0000000  0.0788000  0.4745054 -0.0000314 -0.0000000
  0.0000000  0.0900000  0.3994693  0.0000275 -0.0000000
 -0.0125000  0.1013000  0.3246255 -0.0000320 -0.0000003
  0.0000000  0.1013000  0.3246255 -0.0000320 -0.0000000
  0.0000000  0.1125000  0.2495892  0.0000270 -0.0000000
 -0.0125000  0.1125000  0.2495892  0.0000269 -0.0000002
  0.0125000  0.1013000  0.3246255 -0.0000320  0.0000003
  0.0125000  0.0900000  0.3994693  0.0000275  0.0000003
  0.0250000  0.0900000  0.3994693  0.0000275  0.0000007
  0.0250000  0.1013000  0.3246256 -0.0000320  0.0000006
  0.0250000  0.1125000  0.2495893  0.0000269  0.0000005
  0.0125000  0.1125000  0.2495892  0.0000269  0.0000002
  0.0125000  0.0788000  0.4745054 -0.0000314  0.0000004
  0.0250000  0.0788000  0.4745054 -0.0000314  0.0000007
  0.0375000  0.0788000  0.4745055 -0.0000314  0.0000011
  0.0375000  0.0900000  0.3994694  0.0000275  0.0000010
  0.0500000  0.0788000  0.4745056 -0.0000314  0.0000015
  0.0500000  0.0900000  0.3994696  0.0000274  0.0000014
  0.0375000  0.1013000  0.3246257 -0.0000320  0.0000009
  0.0500000  0.1013000  0.3246259 -0.0000320  0.0000012
  0.0500000  0.1125000  0.2495897  0.0000270  0.0000009
  0.0375000  0.1125000  0.2495895  0.0000269  0.0000007
  0.0625000  0.1013000  0.3246262 -0.0000320  0.0000015
  0.0625000  0.0900000  0.3994698  0.0000275  0.0000017
  0.0750000  0.0900000  0.3994700  0.0000275  0.0000020
  0.0750000  0.1013000  0.3246265 -0.0000319  0.0000017
  0.0750000  0.1125000  0.2495904  0.0000270  0.0000014
  0.0625000  0.1125000  0.2495901  0.0000270  0.0000012
  0.0625000  0.0788000  0.4745057 -0.0000314  0.0000019
  0.0750000  0.0788000  0.4745059 -0.0000314  0.0000022
  0.0875000  0.0788000  0.4745061 -0.0000313  0.0000025
  0.0875000  0.0900000  0.3994703  0.0000276  0.0000023
  0.1000000  0.0788000  0.4745063 -0.0000312  0.0000028
  0.1000000  0.0900000  0.3994707  0.0000278  0.0000025
  0.0875000  0.1013000  0.3246269 -0.0000318  0.0000020
  0.1000000  0.1013000  0.3246273 -0.0000316  0.0000022
  0.1000000  0.1125000  0.2495913  0.0000275  0.0000017
  0.0875000  0.1125000  0.2495909  0.0000272  0.0000016
  0.1125000  0.1013000  0.3246278 -0.0000312  0.0000023
  0.1125000  0.0900000  0.3994711  0.0000281  0.0000027
  0.1250000  0.0900000  0.3994715  0.0000286  0.0000028
  0.1250000  0.1013000  0.3246283 -0.0000307  0.0000023
  0.1250000  0.1125000  0.2495925  0.0000285  0.0000019
  0.1125000  0.1125000  0.2495919  0.0000279  0.0000018
  0.1125000  0.0788000  0.4745066 -0.0000310  0.0000030
  0.1250000  0.0788000  0.4745069 -0.0000306  0.0000031
  0.1375000  0.0788000  0.4745073 -0.0000301  0.0000032
  0.1375000  0.0900000  0.3994720  0.0000292  0.0000028
  0.1500000  0.0788000  0.4745077 -0.0000293  0.0000030
  0.1500000  0.0900000  0.3994724  0.0000302  0.0000026
  0.1375000  0.1013000  0.3246288 -0.0000299  0.0000023
  0.1500000  0.1013000  0.3246294 -0.0000288  0.0000021
  0.1500000  0.1125000  0.2495936  0.0000307  0.0000016
  0.1375000  0.1125000  0.2495930  0.0000294  0.0000018
  0.1625000  0.1013000  0.3246299 -0.0000273  0.0000017
  0.1625000  0.0900000  0.3994730  0.0000314  0.0000021
  0.1750000  0.0900000  0.3994735  0.0000331  0.0000014
  0.1750000  0.1013000  0.3246303 -0.0000253  0.0000010
  0.1750000  0.1125000  0.2495945  0.0000346  0.0000007
  0.1625000  0.1125000  0.2495941  0.0000324  0.0000012
  0.1625000  0.0788000  0.4745081 -0.0000283  0.0000026
  0.1750000  0.0788000  0.4745086 -0.0000269  0.0000019
  0.1875000  0.0788000  0.4745092 -0.0000250  0.0000008
  0.1875000  0.0900000  0.3994739  0.0000354  0.0000003
  0.2000000  0.0788000  0.4745098 -0.0000227 -0.0000008
  0.2000000  0.0900000  0.3994743  0.0000382 -0.0000013
  0.1875000  0.1013000  0.3246307 -0.0000227  0.0000000
  0.2000000  0.1013000  0.3246309 -0.0000194 -0.0000015
  0.2000000  0.1125000  0.2495946  0.0000413 -0.0000014
  0.1875000  0.1125000  0.2495947  0.0000375 -0.0000002
  0.2125000  0.1013000  0.3246308 -0.0000151 -0.0000035
  0.2125000  0.0900000  0.3994746  0.0000419 -0.0000035
  0.2250000  0.0900000  0.3994747  0.0000465 -0.0000064
  0.2250000  0.1013000  0.3246303 -0.0000098 -0.0000061
  0.2250000  0.1125000  0.2495933  0.0000519 -0.0000053
  0.2125000  0.1125000  0.2495942  0.0000460 -0.0000031
  0.2125000  0.0788000  0.4745104 -0.0000196 -0.0000031
  0.2250000  0.0788000  0.4745110 -0.0000158 -0.0000061
  0.2375000  0.0788000  0.4745115 -0.0000111 -0.0000102
  0.2375000  0.0900000  0.3994745  0.0000522 -0.0000103
  0.2500000  0.0788000  0.4745120 -0.0000052 -0.0000155
  0.2500000  0.0900000  0.3994740  0.0000593 -0.0000154
  0.2375000  0.1013000  0.3246294 -0.0000032 -0.0000096
  0.2500000  0.1013000  0.3246279  0.0000049 -0.0000142
  0.2500000  0.1125000  0.2495893  0.0000684 -0.0000120
  0.2375000  0.1125000  0.2495917  0.0000593 -0.0000082
  0.2625000  0.1013000  0.3246255  0.0000148 -0.0000199
  0.2625000  0.0900000  0.3994729  0.0000679 -0.0000218
  0.2750000  0.0900000  0.3994712  0.0000783 -0.0000299
  0.2750000  0.1013000  0.3246220  0.0000267 -0.0000272
  0.2750000  0.1125000  0.2495807  0.0000926 -0.0000227
  0.2625000  0.1125000  0.2495857  0.0000793 -0.0000168
  0.2625000  0.0788000  0.4745124  0.0000020 -0.0000222
  0.2750000  0.0788000  0.4745126  0.0000107 -0.0000308
  0.2875000  0.0788000  0.4745125  0.0000211 -0.0000415
  0.2875000  0.0900000  0.3994687  0.0000907 -0.0000400
  0.3000000  0.0788000  0.4745121  0.0000334 -0.0000547
  0.3000000  0.0900000  0.3994651  0.0001054 -0.0000525
  0.2875000  0.1013000  0.3246172  0.0000410 -0.0000362
  0.3000000  0.1013000  0.3246107  0.0000579 -0.0000473
  0.3000000  0.1125000  0.2495648  0.0001272 -0.0000393
  0.2875000  0.1125000  0.2495738  0.0001084 -0.0000301
  0.3125000  0.1013000  0.3246021  0.0000776 -0.0000608
  0.3125000  0.0900000  0.3994602  0.0001227 -0.0000677
  0.3250000  0.0900000  0.3994537  0.0001428 -0.0000861
  0.3250000  0.1013000  0.3245910  0.0001006 -0.0000771
  0.3250000  0.1125000  0.2495381  0.0001745 -0.0000639
  0.3125000  0.1125000  0.2495531  0.0001491 -0.0000505
  0.3125000  0.0788000  0.4745111  0.0000479 -0.0000708
  0.3250000  0.0788000  0.4745095  0.0000648 -0.0000904
  0.3375000  0.0788000  0.4745071  0.0000843 -0.0001138
  0.3375000  0.0900000  0.3994451  0.0001659 -0.0001082
  0.3500000  0.0788000  0.4745036  0.0001064 -0.0001418
  0.3500000  0.0900000  0.3994341  0.0001922 -0.0001344
  0.3375000  0.1013000  0.3245769  0.0001270 -0.0000967
  0.3500000  0.1013000  0.3245591  0.0001570 -0.0001199
  0.3500000  0.1125000  0.2494955  0.0002370 -0.0000992
  0.3375000  0.1125000  0.2495191  0.0002038 -0.0000800
  0.3625000  0.1013000  0.3245370  0.0001906 -0.0001473
  0.3625000  0.0900000  0.3994202  0.0002217 -0.0001652
  0.3750000  0.0900000  0.3994028  0.0002543 -0.0002012
  0.3750000  0.1013000  0.3245098  0.0002277 -0.0001792
  0.3750000  0.1125000  0.2494310  0.0003153 -0.0001482
  0.3625000  0.1125000  0.2494664  0.0002742 -0.0001218
  0.3625000  0.0788000  0.4744988  0.0001313 -0.0001747
  0.3750000  0.0788000  0.4744924  0.0001589 -0.0002131
  0.3875000  0.0788000  0.4744841  0.0001889 -0.0002575
  0.3875000  0.0900000  0.3993816  0.0002898 -0.0002428
  0.4000000  0.0788000  0.4744735  0.0002210 -0.0003084
  0.4000000  0.0900000  0.3993557  0.0003276 -0.0002903
  0.3875000  0.1013000  0.3244770  0.0002681 -0.0002161
  0.4000000  0.1013000  0.3244375  0.0003112 -0.0002584
  0.4000000  0.1125000  0.2493372  0.0004078 -0.0002139
  0.3875000  0.1125000  0.2493882  0.0003601 -0.0001788
  0.4125000  0.1013000  0.3243908  0.0003558 -0.0003063
  0.4125000  0.0900000  0.3993248  0.0003669 -0.0003441
  0.4250000  0.0900000  0.3992882  0.0004063 -0.0004043
  0.4250000  0.1013000  0.3243359  0.0004007 -0.0003599
  0.4250000  0.1125000  0.2492066  0.0005070 -0.0002990
  0.4125000  0.1125000  0.2492770  0.0004573 -0.0002540
  0.4125000  0.0788000  0.4744604  0.0002543 -0.0003659
  0.4250000  0.0788000  0.4744444  0.0002879 -0.0004301
  0.4375000  0.0788000  0.4744251  0.0003201 -0.0005008
  0.4375000  0.0900000  0.3992454  0.0004441 -0.0004705
  0.4500000  0.0788000  0.4744023  0.0003488 -0.0005774
  0.4500000  0.0900000  0.3991960  0.0004776 -0.0005424
  0.4375000  0.1013000  0.3242723  0.0004436 -0.0004193
  0.4500000  0.1013000  0.3241995  0.0004817 -0.0004839
  0.4500000  0.1125000  0.2490325  0.0005973 -0.0004042
  0.4375000  0.1125000  0.2491253  0.0005548 -0.0003491
  0.4625000  0.1013000  0.3241174  0.0005111 -0.0005530
  0.4625000  0.0900000  0.3991399  0.0005036 -0.0006187
  0.4750000  0.0900000  0.3990771  0.0005177 -0.0006979
  0.4750000  0.1013000  0.3240260  0.0005269 -0.0006251
  0.4750000  0.1125000  0.2488120  0.0006484 -0.0005267
  0.4625000  0.1125000  0.2489280  0.0006303 -0.0004637
  0.4625000  0.0788000  0.4743757  0.0003713 -0.0006586
  0.4750000  0.0788000  0.4743454  0.0003839 -0.0007425
  0.4875000  0.0788000  0.4743112  0.0003821 -0.0008264
  0.4875000  0.0900000  0.3990079  0.0005145 -0.0007773
  0.5000000  0.0788000  0.4742735  0.0003602 -0.0009061
  0.5000000  0.0900000  0.3989332  0.0004872 -0.0008533
  0.4875000  0.1013000  0.3239260  0.0005229 -0.0006982
  0.5000000  0.1013000  0.3238188  0.0004912 -0.0007691
  0.5000000  0.1125000  0.2485498  0.0006104 -0.0006560
  0.4875000  0.1125000  0.2486853  0.0006447 -0.0005916
  0.5125000  0.1013000  0.3237066  0.0004225 -0.0008334
  0.5125000  0.0900000  0.3988544  0.0004278 -0.0009207
  0.5250000  0.0900000  0.3987732  0.0003268 -0.0009728
  0.5250000  0.1013000  0.3235925  0.0003055 -0.0008849
  0.5250000  0.1125000  0.2482648  0.0004050 -0.0007682
  0.5125000  0.1125000  0.2484083  0.0005347 -0.0007166
  0.5125000  0.0788000  0.4742328  0.0003117 -0.0009764
  0.5250000  0.0788000  0.4741895  0.0002287 -0.0010301
  0.5375000  0.0788000  0.4741445  0.0001025 -0.0010578
  0.5375000  0.0900000  0.3986922  0.0001733 -0.0010006
  0.5500000  0.0788000  0.4740985 -0.0000765 -0.0010481
  0.5500000  0.0900000  0.3986145 -0.0000447 -0.0009927
  0.5375000  0.1013000  0.3234805  0.0001274 -0.0009155
  0.5500000  0.1013000  0.3233759 -0.0001264 -0.0009144
  0.5500000  0.1125000  0.2479962 -0.0000786 -0.0008141
  0.5375000  0.1125000  0.2481250  0.0002063 -0.0008038
  0.5625000  0.1013000  0.3232850 -0.0004717 -0.0008677
  0.5625000  0.0900000  0.3985432 -0.0003398 -0.0009345
  0.5750000  0.0900000  0.3984818 -0.0007249 -0.0008086
  0.5750000  0.1013000  0.3232144 -0.0009245 -0.0007575
  0.5750000  0.1125000  0.2478096 -0.0009843 -0.0007033
  0.5625000  0.1125000  0.2478873 -0.0004686 -0.0007864
  0.5625000  0.0788000  0.4740520 -0.0003183 -0.0009866
  0.5750000  0.0788000  0.4740048 -0.0006327 -0.0008558
  0.5875000  0.0788000  0.4739533 -0.0010290 -0.0006359
  0.5875000  0.0900000  0.3984352 -0.0012113 -0.0005929
  0.6000000  0.0788000  0.4738268 -0.0015343 -0.0003029
  0.6000000  0.0900000  0.3983567 -0.0018682 -0.0003057
  0.5875000  0.1013000  0.3231688 -0.0015010 -0.0005623
  0.6000000  0.1013000  0.3230344 -0.0022172 -0.0003054
  0.6000000  0.1125000  0.2476922 -0.0024937 -0.0003334
  0.5875000  0.1125000  0.2477751 -0.0016435 -0.0005429
  0.6124000  0.1013000  0.3228970 -0.0030282  0.0002292
  0.6124000  0.0901000  0.3981761 -0.0025563  0.0001949
  0.6249000  0.0901000  0.3978208 -0.0034336  0.0008433
  0.6249000  0.1013000  0.3227358 -0.0040600  0.0007563
  0.6249000  0.1126000  0.2477165 -0.0047230  0.0006296
  0.6124000  0.1126000  0.2477321 -0.0035114  0.0001526
  0.6125000  0.0788000  0.4734395 -0.0020673  0.0001678
  0.6249000  0.0789000  0.4730021 -0.0027370  0.0008495
  0.6374000  0.0789000  0.4725684 -0.0035285  0.0015972
  0.6374000  0.0902000  0.3974972 -0.0043881  0.0017087
  0.6498000  0.0790000  0.4719198 -0.0043430  0.0026673
  0.6498000  0.0902000  0.3970375 -0.0054015  0.0027755
  0.6373000  0.1014000  0.3225508 -0.0052640  0.0016386
  0.6498000  0.1015000  0.3222801 -0.0065111  0.0026917
  0.6497000  0.1127000  0.2476592 -0.0075933  0.0024614
  0.6373000  0.1126000  0.2476939 -0.0060916  0.0014639
  0.6621000  0.1015000  0.3218502 -0.0079367  0.0040804
  0.6622000  0.0903000  0.3963279 -0.0065676  0.0041323
  0.6745000  0.1017000  0.3213594 -0.0093555  0.0056877
  0.6744000  0.1128000  0.2476211 -0.0110024  0.0054369
  0.6621000  0.1127000  0.2475551 -0.0092981  0.0038041
  0.6623000  0.0791000  0.4709010 -0.0052608  0.0039798
  0.6867000  0.1018000  0.3202207 -0.0107901  0.0077351
  0.6866000  0.1129000  0.2473209 -0.0127801  0.0074706
  0.6989000  0.1021000  0.3186421 -0.0121584  0.0100974
  0.6987000  0.1131000  0.2467839 -0.0144682  0.0098003
  0.6866000  0.1239000  0.1745847 -0.0147680  0.0070246
  0.6986000  0.1239000  0.1749533 -0.0167024  0.0093258
  0.6987000  0.1348000  0.1032333 -0.0191120  0.0088837
  0.6866000  0.1349000  0.1017653 -0.0168298  0.0063775
  0.6744000  0.1350000  0.1005454 -0.0143218  0.0043037
  0.6744000  0.1239000  0.1741111 -0.0126702  0.0050235
  0.7104000  0.1240000  0.1752449 -0.0184532  0.0117622
  0.7106000  0.1134000  0.2454870 -0.0159292  0.0124010
  0.7222000  0.1141000  0.2434810 -0.0174087  0.0150862
  0.7217000  0.1240000  0.1752981 -0.0198021  0.0136429
  0.7222000  0.1338000  0.1072461 -0.0225220  0.0149405
  0.7106000  0.1345000  0.1050454 -0.0211729  0.0117976
  0.7111000  0.1026000  0.3156403 -0.0133952  0.0128325
  0.7233000  0.1035000  0.3091244 -0.0148250  0.0161151
  0.7362000  0.1052000  0.2929813 -0.0154820  0.0205318
  0.7500000  0.1057000  0.2857853 -0.0165215  0.0228934
  0.7500000  0.1240000  0.1746174 -0.0213305  0.0241378
  0.7334000  0.1165000  0.2199572 -0.0183434  0.0202321
  0.7638000  0.1052000  0.2905021 -0.0154324  0.0249858
  0.7666000  0.1165000  0.2178504 -0.0183932  0.0270671
  0.7767000  0.1035000  0.3036895 -0.0148120  0.0289233
  0.7778000  0.1141000  0.2390144 -0.0174188  0.0318191
  0.7889000  0.1026000  0.3074726 -0.0134148  0.0320206
  0.7894000  0.1134000  0.2391575 -0.0159675  0.0344601
  0.8011000  0.1021000  0.3078003 -0.0121708  0.0346604
  0.8013000  0.1131000  0.2384038 -0.0144715  0.0370192
  0.7896000  0.1239000  0.1707798 -0.0184219  0.0365984
  0.8014000  0.1239000  0.1690839 -0.0167020  0.0390366
  0.8013000  0.1348000  0.0998354 -0.0191340  0.0404857
  0.7894000  0.1345000  0.1024874 -0.0211928  0.0375565
  0.7778000  0.1338000  0.1054893 -0.0225271  0.0344245
  0.7783000  0.1239000  0.1721300 -0.0197719  0.0347201
  0.8134000  0.1239000  0.1672263 -0.0147688  0.0413450
  0.8134000  0.1129000  0.2369214 -0.0127811  0.0393361
  0.8256000  0.1128000  0.2351937 -0.0110272  0.0413561
  0.8256000  0.1239000  0.1653346 -0.0126905  0.0433346
  0.8256000  0.1350000  0.0955099 -0.0143243  0.0450657
  0.8134000  0.1349000  0.0975283 -0.0168252  0.0430035
  0.8133000  0.1018000  0.3067637 -0.0107642  0.0369742
  0.8255000  0.1016000  0.3051620 -0.0093275  0.0389925
  0.8379000  0.1015000  0.3031780 -0.0078933  0.0406048
  0.8379000  0.1127000  0.2333249 -0.0092961  0.0429761
  0.8378000  0.0903000  0.3731232 -0.0065320  0.0377818
  0.8502000  0.0902000  0.3704570 -0.0054348  0.0391149
  0.8503000  0.1014000  0.3007758 -0.0065222  0.0419525
  0.8503000  0.1126000  0.2312278 -0.0075992  0.0442653
  0.8378000  0.0791000  0.4433360 -0.0052447  0.0347429
  0.8502000  0.0790000  0.4403982 -0.0043813  0.0360435
  0.8627000  0.1014000  0.2983717 -0.0052378  0.0430314
  0.8626000  0.0902000  0.3676720 -0.0043902  0.0402197
  0.8751000  0.0901000  0.3645968 -0.0034444  0.0410613
  0.8751000  0.1013000  0.2956961 -0.0040670  0.0438517
  0.8751000  0.1126000  0.2269214 -0.0047314  0.0461292
  0.8627000  0.1126000  0.2291426 -0.0060538  0.0453042
  0.8626000  0.0789000  0.4370769 -0.0035235  0.0370552
  0.8751000  0.0789000  0.4334947 -0.0027353  0.0378386
  0.8876000  0.0788000  0.4299611 -0.0020684  0.0384671
  0.8876000  0.0901000  0.3615617 -0.0025582  0.0416576
  0.9000000  0.0788000  0.4263724 -0.0015312  0.0389468
  0.9000000  0.0900000  0.3583518 -0.0018487  0.0421969
  0.8876000  0.1013000  0.2931568 -0.0030312  0.0443882
  0.9000000  0.1013000  0.2905740 -0.0022152  0.0449041
  0.9000000  0.1125000  0.2227336 -0.0024952  0.0470885
  0.8876000  0.1126000  0.2248569 -0.0035116  0.0466126
  0.9125000  0.1013000  0.2880022 -0.0014988  0.0451609
  0.9125000  0.0900000  0.3551607 -0.0012165  0.0424867
  0.9250000  0.0900000  0.3518776 -0.0007290  0.0427022
  0.9250000  0.1013000  0.2853422 -0.0009218  0.0453554
  0.9250000  0.1125000  0.2186915 -0.0009882  0.0474636
  0.9125000  0.1125000  0.2207365 -0.0016473  0.0473034
  0.9125000  0.0788000  0.4225500 -0.0010265  0.0392370
  0.9250000  0.0788000  0.4186463 -0.0006299  0.0394583
  0.9375000  0.0788000  0.4147390 -0.0003150  0.0395891
  0.9375000  0.0900000  0.3486099 -0.0003439  0.0428282
  0.9500000  0.0788000  0.4108313 -0.0000728  0.0396507
  0.9500000  0.0900000  0.3453522 -0.0000489  0.0428863
  0.9375000  0.1013000  0.2827074 -0.0004684  0.0454656
  0.9500000  0.1013000  0.2800929 -0.0001227  0.0455122
  0.9500000  0.1125000  0.2147181 -0.0000826  0.0475742
  0.9375000  0.1125000  0.2166893 -0.0004726  0.0475465
  0.9625000  0.1013000  0.2774922  0.0001314  0.0455132
  0.9625000  0.0900000  0.3421010  0.0001689  0.0428942
  0.9750000  0.0900000  0.3388531  0.0003222  0.0428664
  0.9750000  0.1013000  0.2748990  0.0003098  0.0454826
  0.9750000  0.1125000  0.2108269  0.0004004  0.0475280
  0.9625000  0.1125000  0.2127670  0.0002020  0.0475637
  0.9625000  0.0788000  0.4069230  0.0001065  0.0396605
  0.9750000  0.0788000  0.4030138  0.0002330  0.0396327
  0.9875000  0.0788000  0.3991028  0.0003162  0.0395791
  0.9875000  0.0900000  0.3356053  0.0004230  0.0428143
  1.0000000  0.0788000  0.3951893  0.0003650  0.0395088
  1.0000000  0.0900000  0.3323552  0.0004821  0.0427469
  0.9875000  0.1013000  0.2723080  0.0004270  0.0454311
  1.0000000  0.1013000  0.2697149  0.0004960  0.0453669
  1.0000000  0.1125000  0.2069521  0.0006052  0.0474160
  0.9875000  0.1125000  0.2088905  0.0005298  0.0474765
  1.0125000  0.1013000  0.2671169  0.0005279  0.0452960
  1.0125000  0.0900000  0.3291010  0.0005092  0.0426710
  1.0250000  0.0900000  0.3258413  0.0005122  0.0425916
  1.0250000  0.1013000  0.2645116  0.0005322  0.0452229
  1.0250000  0.1125000  0.2030544  0.0006429  0.0472867
  1.0125000  0.1125000  0.2050077  0.0006394  0.0473516
  1.0125000  0.0788000  0.3912728  0.0003871  0.0394291
  1.0250000  0.0788000  0.3873527  0.0003893  0.0393452
  1.0375000  0.0788000  0.3834289  0.0003769  0.0392613
  1.0375000  0.0900000  0.3225752  0.0004979  0.0425125
  1.0500000  0.0788000  0.3795013  0.0003547  0.0391801
  1.0500000  0.0900000  0.3193024  0.0004717  0.0424361
  1.0375000  0.1013000  0.2618978  0.0005167  0.0451508
  1.0500000  0.1013000  0.2592748  0.0004875  0.0450817
  1.0500000  0.1125000  0.1991151  0.0005913  0.0471643
  1.0375000  0.1125000  0.2010905  0.0006245  0.0472238
  1.0625000  0.1013000  0.2566423  0.0004497  0.0450171
  1.0625000  0.0900000  0.3160228  0.0004379  0.0423643
  1.0750000  0.0900000  0.3127367  0.0003999  0.0422980
  1.0750000  0.1013000  0.2540007  0.0004071  0.0449578
  1.0750000  0.1125000  0.1951294  0.0005006  0.0470590
  1.0625000  0.1125000  0.1971280  0.0005485  0.0471092
  1.0625000  0.0788000  0.3755699  0.0003262  0.0391036
  1.0750000  0.0788000  0.3716349  0.0002943  0.0390329
  1.0875000  0.0788000  0.3676968  0.0002610  0.0389687
  1.0875000  0.0900000  0.3094444  0.0003602  0.0422379
  1.1000000  0.0788000  0.3637557  0.0002279  0.0389112
  1.1000000  0.0900000  0.3061465  0.0003207  0.0421841
  1.0875000  0.1013000  0.2513504  0.0003625  0.0449041
  1.1000000  0.1013000  0.2486919  0.0003181  0.0448562
  1.1000000  0.1125000  0.1911002  0.0004008  0.0469740
  1.0875000  0.1125000  0.1931199  0.0004506  0.0470140
  1.1125000  0.1013000  0.2460262  0.0002753  0.0448139
  1.1125000  0.0900000  0.3028434  0.0002826  0.0421365
  1.1250000  0.0900000  0.2995357  0.0002469  0.0420950
  1.1250000  0.1013000  0.2433538  0.0002351  0.0447770
  1.1250000  0.1125000  0.1870342  0.0003079  0.0469082
  1.1125000  0.1125000  0.1890713  0.0003529  0.0469388
  1.1125000  0.0788000  0.3598120  0.0001961  0.0388603
  1.1250000  0.0788000  0.3558661  0.0001663  0.0388159
  1.1375000  0.0788000  0.3519183  0.0001390  0.0387775
  1.1375000  0.0900000  0.2962242  0.0002140  0.0420590
  1.1500000  0.0788000  0.3479689  0.0001143  0.0387446
  1.1500000  0.0900000  0.2929092  0.0001843  0.0420282
  1.1375000  0.1013000  0.2406757  0.0001982  0.0447451
  1.1500000  0.1013000  0.2379926  0.0001649  0.0447178
  1.1500000  0.1125000  0.1829389  0.0002291  0.0468593
  1.1375000  0.1125000  0.1849897  0.0002665  0.0468818
  1.1625000  0.1013000  0.2353052  0.0001351  0.0446945
  1.1625000  0.0900000  0.2895913  0.0001578  0.0420020
  1.1750000  0.0900000  0.2862709  0.0001345  0.0419799
  1.1750000  0.1013000  0.2326142  0.0001090  0.0446750
  1.1750000  0.1125000  0.1788217  0.0001662  0.0468240
  1.1625000  0.1125000  0.1808826  0.0001956  0.0468401
  1.1625000  0.0788000  0.3440182  0.0000924  0.0387167
  1.1750000  0.0788000  0.3400664  0.0000732  0.0386932
  1.1875000  0.0788000  0.3361138  0.0000566  0.0386736
  1.1875000  0.0900000  0.2829486  0.0001141  0.0419615
  1.2000000  0.0788000  0.3321605  0.0000423  0.0386575
  1.2000000  0.0900000  0.2796246  0.0000966  0.0419463
  1.1875000  0.1013000  0.2299201  0.0000863  0.0446587
  1.2000000  0.1013000  0.2272235  0.0000668  0.0446451
  1.2000000  0.1125000  0.1746886  0.0001183  0.0467994
  1.1875000  0.1125000  0.1767568  0.0001405  0.0468105
  1.2125000  0.1013000  0.2245248  0.0000501  0.0446340
  1.2125000  0.0900000  0.2762993  0.0000816  0.0419338
  1.2250000  0.0900000  0.2729729  0.0000689  0.0419237
  1.2250000  0.1013000  0.2218244  0.0000361  0.0446250
  1.2250000  0.1125000  0.1705447  0.0000832  0.0467828
  1.2125000  0.1125000  0.1726178  0.0000993  0.0467902
  1.2125000  0.0788000  0.3282068  0.0000302  0.0386443
  1.2250000  0.0788000  0.3242526  0.0000201  0.0386336
  1.2375000  0.0788000  0.3202982  0.0000116  0.0386251
  1.2375000  0.0900000  0.2696457  0.0000583  0.0419156
  1.2500000  0.0788000  0.3163436  0.0000047  0.0386183
  1.2500000  0.0900000  0.2663178  0.0000494  0.0419092
  1.2375000  0.1013000  0.2191227  0.0000244  0.0446178
  1.2500000  0.1013000  0.2164199  0.0000148  0.0446120
  1.2500000  0.1125000  0.1663935  0.0000585  0.0467720
  1.2375000  0.1125000  0.1684698  0.0000697  0.0467768
  1.2625000  0.1013000  0.2137162  0.0000069  0.0446075
  1.2625000  0.0900000  0.2629895  0.0000421  0.0419041
  1.2750000  0.0900000  0.2596607  0.0000362  0.0419002
  1.2750000  0.1013000  0.2110119  0.0000006  0.0446040
  1.2750000  0.1125000  0.1622378  0.0000416  0.0467654
  1.2625000  0.1125000  0.1643161  0.0000492  0.0467683
  1.2625000  0.0788000  0.3123889 -0.0000009  0.0386130
  1.2750000  0.0788000  0.3084342 -0.0000054  0.0386090
  1.2875000  0.0788000  0.3044794 -0.0000090  0.0386059
  1.2875000  0.0900000  0.2563318  0.0000313  0.0418972
  1.3000000  0.0788000  0.3005245 -0.0000118  0.0386036
  1.3000000  0.0900000  0.2530026  0.0000274  0.0418951
  1.2875000  0.1013000  0.2083072 -0.0000045  0.0446013
  1.3000000  0.1013000  0.2056020 -0.0000085  0.0445993
  1.3000000  0.1125000  0.1580793  0.0000304  0.0467615
  1.2875000  0.1125000  0.1601588  0.0000354  0.0467631
  1.3125000  0.1013000  0.2028967 -0.0000116  0.0445979
  1.3125000  0.0900000  0.2496733  0.0000243  0.0418935
  1.3250000  0.0900000  0.2463439  0.0000218  0.0418924
  1.3250000  0.1013000  0.2001911 -0.0000139  0.0445968
  1.3250000  0.1125000  0.1539193  0.0000233  0.0467594
  1.3125000  0.1125000  0.1559994  0.0000264  0.0467602
  1.3125000  0.0788000  0.2965698 -0.0000139  0.0386020
  1.3250000  0.0788000  0.2926150 -0.0000155  0.0386009
  1.3375000  0.0788000  0.2886603 -0.0000166  0.0386002
  1.3375000  0.0900000  0.2430145  0.0000199  0.0418917
  1.3500000  0.0788000  0.2847056 -0.0000174  0.0385998
  1.3500000  0.0900000  0.2396851  0.0000184  0.0418912
  1.3375000  0.1013000  0.1974855 -0.0000157  0.0445962
  1.3500000  0.1013000  0.1947797 -0.0000169  0.0445958
  1.3500000  0.1125000  0.1497586  0.0000189  0.0467585
  1.3375000  0.1125000  0.1518390  0.0000208  0.0467588
  1.3625000  0.1013000  0.1920740 -0.0000178  0.0445955
  1.3625000  0.0900000  0.2363557  0.0000172  0.0418910
  1.3750000  0.0900000  0.2330263  0.0000163  0.0418910
  1.3750000  0.1013000  0.1893683 -0.0000183  0.0445955
  1.3750000  0.1125000  0.1455977  0.0000162  0.0467582
  1.3625000  0.1125000  0.1476782  0.0000174  0.0467583
  1.3625000  0.0788000  0.2807510 -0.0000179  0.0385996
  1.3750000  0.0788000  0.2767964 -0.0000182  0.0385997
  1.3875000  0.0788000  0.2728419 -0.0000183  0.0385998
  1.3875000  0.0900000  0.2296970  0.0000156  0.0418911
  1.4000000  0.0788000  0.2688874 -0.0000183  0.0386000
  1.4000000  0.0900000  0.2263677  0.0000150  0.0418913
  1.3875000  0.1013000  0.1866626 -0.0000186  0.0445956
  1.4000000  0.1013000  0.1839569 -0.0000187  0.0445957
  1.4000000  0.1125000  0.1414369  0.0000147  0.0467583
  1.3875000  0.1125000  0.1435173  0.0000154  0.0467582
  1.4125000  0.1013000  0.1812513 -0.0000187  0.0445959
  1.4125000  0.0900000  0.2230385  0.0000146  0.0418915
  1.4250000  0.0900000  0.2197093  0.0000142  0.0418918
  1.4250000  0.1013000  0.1785457 -0.0000186  0.0445961
  1.4250000  0.1125000  0.1372762  0.0000138  0.0467587
  1.4125000  0.1125000  0.1393565  0.0000142  0.0467585
  1.4125000  0.0788000  0.2649330 -0.0000182  0.0386003
  1.4250000  0.0788000  0.2609786 -0.0000181  0.0386006
  1.4375000  0.0788000  0.2570242 -0.0000178  0.0386009
  1.4375000  0.0900000  0.2163801  0.0000139  0.0418921
  1.4500000  0.0788000  0.2530699 -0.0000176  0.0386013
  1.4500000  0.0900000  0.2130510  0.0000137  0.0418924
  1.4375000  0.1013000  0.1758402 -0.0000184  0.0445964
  1.4500000  0.1013000  0.1731347 -0.0000182  0.0445967
  1.4500000  0.1125000  0.1331157  0.0000132  0.0467591
  1.4375000  0.1125000  0.1351959  0.0000134  0.0467589
  1.4625000  0.1013000  0.1704293 -0.0000179  0.0445970
  1.4625000  0.0900000  0.2097220  0.0000134  0.0418927
  1.4750000  0.0900000  0.2063930  0.0000132  0.0418931
  1.4750000  0.1013000  0.1677240 -0.0000177  0.0445972
  1.4750000  0.1125000  0.1289555  0.0000127  0.0467596
  1.4625000  0.1125000  0.1310356  0.0000129  0.0467593
  1.4625000  0.0788000  0.2491156 -0.0000173  0.0386017
  1.4750000  0.0788000  0.2451613 -0.0000171  0.0386020
  1.4875000  0.0788000  0.2412071 -0.0000168  0.0386024
  1.4875000  0.0900000  0.2030640  0.0000129  0.0418934
  1.5000000  0.0788000  0.2372528 -0.0000166  0.0386028
  1.5000000  0.0900000  0.1997351  0.0000127  0.0418938
  1.4875000  0.1013000  0.1650187 -0.0000174  0.0445975
  1.5000000  0.1013000  0.1623135 -0.0000172  0.0445978
  1.5000000  0.1125000  0.1247956  0.0000122  0.0467600
  1.4875000  0.1125000  0.1268755  0.0000124  0.0467598
  1.5125000  0.1013000  0.1596083 -0.0000169  0.0445981
  1.5125000  0.0900000  0.1964062  0.0000125  0.0418941
  1.5250000  0.0900000  0.1930774  0.0000122  0.0418944
  1.5250000  0.1013000  0.1569032 -0.0000167  0.0445984
  1.5250000  0.1125000  0.1206359  0.0000117  0.0467605
  1.5125000  0.1125000  0.1227157  0.0000119  0.0467603
  1.5125000  0.0788000  0.2332986 -0.0000163  0.0386032
  1.5250000  0.0788000  0.2293445 -0.0000161  0.0386035
  1.5375000  0.0788000  0.2253903 -0.0000159  0.0386039
  1.5375000  0.0900000  0.1897486  0.0000119  0.0418948
  1.5500000  0.0788000  0.2214362 -0.0000156  0.0386043
  1.5500000  0.0900000  0.1864198  0.0000117  0.0418951
  1.5375000  0.1013000  0.1541981 -0.0000165  0.0445987
  1.5500000  0.1013000  0.1514931 -0.0000162  0.0445990
  1.5500000  0.1125000  0.1164765  0.0000112  0.0467610
  1.5375000  0.1125000  0.1185562  0.0000114  0.0467608
  1.5625000  0.1013000  0.1487882 -0.0000159  0.0445993
  1.5625000  0.0900000  0.1830911  0.0000115  0.0418954
  1.5750000  0.0900000  0.1797625  0.0000113  0.0418958
  1.5750000  0.1013000  0.1460833 -0.0000156  0.0445995
  1.5750000  0.1125000  0.1123174  0.0000108  0.0467614
  1.5625000  0.1125000  0.1143970  0.0000110  0.0467612
  1.5625000  0.0788000  0.2174821 -0.0000154  0.0386046
  1.5750000  0.0788000  0.2135281 -0.0000151  0.0386050
  1.5875000  0.0788000  0.2095741 -0.0000148  0.0386053
  1.5875000  0.0900000  0.1764339  0.0000111  0.0418960
  1.6000000  0.0788000  0.2056201 -0.0000144  0.0386056
  1.6000000  0.0900000  0.1731053  0.0000111  0.0418963
  1.5875000  0.1013000  0.1433785 -0.0000152  0.0445998
  1.6000000  0.1013000  0.1406737 -0.0000148  0.0446000
  1.6000000  0.1125000  0.1081586  0.0000108  0.0467617
  1.5875000  0.1125000  0.1102380  0.0000107  0.0467616
  1.6125000  0.1013000  0.1379690 -0.0000142  0.0446001
  1.6125000  0.0900000  0.1697768  0.0000111  0.0418964
  1.6250000  0.0900000  0.1664483  0.0000113  0.0418965
  1.6250000  0.1013000  0.1352643 -0.0000134  0.0446002
  1.6250000  0.1125000  0.1039999  0.0000113  0.0467619
  1.6125000  0.1125000  0.1060792  0.0000109  0.0467618
  1.6125000  0.0788000  0.2016662 -0.0000139  0.0386058
  1.6250000  0.0788000  0.1977123 -0.0000133  0.0386059
  1.6375000  0.0788000  0.1937584 -0.0000125  0.0386059
  1.6375000  0.0900000  0.1631199  0.0000117  0.0418965
  1.6500000  0.0788000  0.1898046 -0.0000115  0.0386057
  1.6500000  0.0900000  0.1597915  0.0000124  0.0418963
  1.6375000  0.1013000  0.1325597 -0.0000123  0.0446001
  1.6500000  0.1013000  0.1298550 -0.0000110  0.0445999
  1.6500000  0.1125000  0.0998412  0.0000130  0.0467616
  1.6375000  0.1125000  0.1019206  0.0000120  0.0467618
  1.6625000  0.1013000  0.1271503 -0.0000093  0.0445995
  1.6625000  0.0900000  0.1564631  0.0000134  0.0418959
  1.6750000  0.0900000  0.1531347  0.0000149  0.0418951
  1.6750000  0.1013000  0.1244456 -0.0000071  0.0445988
  1.6750000  0.1125000  0.0956824  0.0000164  0.0467607
  1.6625000  0.1125000  0.0977619  0.0000144  0.0467612
  1.6625000  0.0788000  0.1858509 -0.0000103  0.0386053
  1.6750000  0.0788000  0.1818972 -0.0000086  0.0386046
  1.6875000  0.0788000  0.1779436 -0.0000066  0.0386035
  1.6875000  0.0900000  0.1498063  0.0000168  0.0418940
  1.7000000  0.0788000  0.1739900 -0.0000040  0.0386019
  1.7000000  0.0900000  0.1464778  0.0000195  0.0418924
  1.6875000  0.1013000  0.1217408 -0.0000042  0.0445978
  1.7000000  0.1013000  0.1190358 -0.0000006  0.0445963
  1.7000000  0.1125000  0.0915228  0.0000225  0.0467585
  1.6875000  0.1125000  0.0936027  0.0000190  0.0467598
  1.7125000  0.1013000  0.1163305  0.0000039  0.0445943
  1.7125000  0.0900000  0.1431492  0.0000229  0.0418902
  1.7250000  0.0900000  0.1398205  0.0000272  0.0418873
  1.7250000  0.1013000  0.1136249  0.0000094  0.0445916
  1.7250000  0.1125000  0.0873618  0.0000327  0.0467546
  1.7125000  0.1125000  0.0894425  0.0000270  0.0467568
  1.7125000  0.0788000  0.1700364 -0.0000007  0.0385997
  1.7250000  0.0788000  0.1660829  0.0000034  0.0385966
  1.7375000  0.0788000  0.1621293  0.0000084  0.0385925
  1.7375000  0.0900000  0.1364915  0.0000327  0.0418833
  1.7500000  0.0788000  0.1581756  0.0000145  0.0385872
  1.7500000  0.0900000  0.1331621  0.0000396  0.0418783
  1.7375000  0.1013000  0.1109189  0.0000163  0.0445880
  1.7500000  0.1013000  0.1082122  0.0000247  0.0445835
  1.7500000  0.1125000  0.0831980  0.0000487  0.0467478
  1.7375000  0.1125000  0.0852803  0.0000398  0.0467516
  1.7625000  0.1013000  0.1055046  0.0000349  0.0445777
  1.7625000  0.0900000  0.1298322  0.0000480  0.0418718
  1.7750000  0.0900000  0.1265017  0.0000582  0.0418636
  1.7750000  0.1013000  0.1027960  0.0000472  0.0445704
  1.7750000  0.1125000  0.0790297  0.0000726  0.0467370
  1.7625000  0.1125000  0.0811146  0.0000595  0.0467430
  1.7625000  0.0788000  0.1542219  0.0000220  0.0385804
  1.7750000  0.0788000  0.1502680  0.0000310  0.0385718
  1.7875000  0.0788000  0.1463138  0.0000418  0.0385611
  1.7875000  0.0900000  0.1231703  0.0000706  0.0418534
  1.8000000  0.0788000  0.1423592  0.0000547  0.0385478
  1.8000000  0.0900000  0.1198379  0.0000853  0.0418409
  1.7875000  0.1013000  0.1000860  0.0000618  0.0445613
  1.8000000  0.1013000  0.0973743  0.0000792  0.0445502
  1.8000000  0.1125000  0.0748540  0.0001071  0.0467204
  1.7875000  0.1125000  0.0769430  0.0000883  0.0467296
  1.8125000  0.1013000  0.0946605  0.0000997  0.0445367
  1.8125000  0.0900000  0.1165040  0.0001028  0.0418256
  1.8250000  0.0900000  0.1131684  0.0001234  0.0418071
  1.8250000  0.1013000  0.0919440  0.0001236  0.0445203
  1.8250000  0.1125000  0.0706671  0.0001550  0.0466961
  1.8125000  0.1125000  0.0727623  0.0001292  0.0467094
  1.8125000  0.0788000  0.1384041  0.0000698  0.0385315
  1.8250000  0.0788000  0.1344482  0.0000876  0.0385117
  1.8375000  0.0788000  0.1304914  0.0001083  0.0384879
  1.8375000  0.0900000  0.1098306  0.0001472  0.0417849
  1.8500000  0.0788000  0.1265332  0.0001321  0.0384595
  1.8500000  0.0900000  0.1064901  0.0001748  0.0417585
  1.8375000  0.1013000  0.0892242  0.0001512  0.0445009
  1.8500000  0.1013000  0.0865004  0.0001830  0.0444778
  1.8500000  0.1125000  0.0664636  0.0002191  0.0466616
  1.8375000  0.1125000  0.0685678  0.0001849  0.0466803
  1.8625000  0.1013000  0.0837719  0.0002190  0.0444508
  1.8625000  0.0900000  0.1031462  0.0002063  0.0417275
  1.8750000  0.0900000  0.0997982  0.0002418  0.0416913
  1.8750000  0.1013000  0.0810376  0.0002594  0.0444195
  1.8750000  0.1125000  0.0622362  0.0003015  0.0466148
  1.8625000  0.1125000  0.0643534  0.0002580  0.0466399
  1.8625000  0.0788000  0.1225734  0.0001594  0.0384259
  1.8750000  0.0788000  0.1186115  0.0001902  0.0383866
  1.8875000  0.0788000  0.1146468  0.0002248  0.0383410
  1.8875000  0.0900000  0.0964452  0.0002815  0.0416495
  1.9000000  0.0788000  0.1106786  0.0002631  0.0382885
  1.9000000  0.0900000  0.0930861  0.0003253  0.0416018
  1.8875000  0.1013000  0.0782965  0.0003043  0.0443835
  1.9000000  0.1013000  0.0755472  0.0003535  0.0443426
  1.9000000  0.1125000  0.0579755  0.0004023  0.0465541
  1.8875000  0.1125000  0.0601107  0.0003498  0.0465862
  1.9125000  0.1013000  0.0727885  0.0004066  0.0442969
  1.9125000  0.0900000  0.0897199  0.0003728  0.0415478
  1.9250000  0.0900000  0.0863449  0.0004235  0.0414877
  1.9250000  0.1013000  0.0700186  0.0004625  0.0442463
  1.9250000  0.1125000  0.0536698  0.0005175  0.0464795
  1.9125000  0.1125000  0.0558291  0.0004586  0.0465184
  1.9125000  0.0788000  0.1067059  0.0003049  0.0382287
  1.9250000  0.0788000  0.1027278  0.0003500  0.0381615
  1.9375000  0.0788000  0.0987427  0.0003974  0.0380869
  1.9375000  0.0900000  0.0829596  0.0004764  0.0414216
  1.9500000  0.0788000  0.0947489  0.0004463  0.0380052
  1.9500000  0.0900000  0.0795620  0.0005299  0.0413504
  1.9375000  0.1013000  0.0672359  0.0005202  0.0441915
  1.9500000  0.1013000  0.0644382  0.0005775  0.0441334
  1.9500000  0.1125000  0.0493054  0.0006360  0.0463950
  1.9375000  0.1125000  0.0514959  0.0005775  0.0464380
  1.9625000  0.1013000  0.0616236  0.0006317  0.0440733
  1.9625000  0.0900000  0.0761500  0.0005818  0.0412752
  1.9750000  0.0900000  0.0727210  0.0006288  0.0411982
  1.9750000  0.1013000  0.0587898  0.0006787  0.0440137
  1.9750000  0.1125000  0.0448674  0.0007338  0.0463110
  1.9625000  0.1125000  0.0470965  0.0006897  0.0463519
  1.9625000  0.0788000  0.0907445  0.0004948  0.0379176
  1.9750000  0.0788000  0.0867269  0.0005407  0.0378257
  1.9875000  0.0788000  0.0826930  0.0005805  0.0377323
  1.9875000  0.0900000  0.0692723  0.0006667  0.0411225
  2.0000000  0.0788000  0.0786392  0.0006096  0.0376413
  2.0000000  0.0900000  0.0658008  0.0006893  0.0410525
  1.9875000  0.1013000  0.0559344  0.0007131  0.0439576
  2.0000000  0.1013000  0.0530555  0.0007277  0.0439097
  2.0000000  0.1125000  0.0403426  0.0007660  0.0462493
  1.9875000  0.1125000  0.0426165  0.0007621  0.0462754
  2.0125000  0.1013000  0.0501510  0.0007125  0.0438758
  2.0125000  0.0900000  0.0623033  0.0006886  0.0409944
  2.0250000  0.0900000  0.0587765  0.0006533  0.0409566
  2.0250000  0.1013000  0.0472198  0.0006546  0.0438640
  2.0250000  0.1125000  0.0357255  0.0006523  0.0462484
  2.0125000  0.1125000  0.0380453  0.0007343  0.0462379
  2.0125000  0.0788000  0.0745613  0.0006216  0.0375586
  2.0250000  0.0788000  0.0704543  0.0006078  0.0374924
  2.0375000  0.0788000  0.0663125  0.0005562  0.0374537
  2.0375000  0.0900000  0.0552175  0.0005688  0.0409502
  2.0500000  0.0788000  0.0621301  0.0004503  0.0374575
  2.0500000  0.0900000  0.0516244  0.0004146  0.0409898
  2.0375000  0.1013000  0.0442619  0.0005365  0.0438845
  2.0500000  0.1013000  0.0412792  0.0003351  0.0439501
  2.0500000  0.1125000  0.0310320  0.0002544  0.0463701
  2.0375000  0.1125000  0.0333859  0.0005007  0.0462890
  2.0625000  0.1013000  0.0382771  0.0000198  0.0440767
  2.0625000  0.0900000  0.0479969  0.0001636  0.0410941
  2.0750000  0.0900000  0.0443383 -0.0002215  0.0412865
  2.0750000  0.1013000  0.0352660 -0.0004502  0.0442826
  2.0750000  0.1125000  0.0263267 -0.0006620  0.0467009
  2.0625000  0.1125000  0.0286736 -0.0001191  0.0465032
  2.0625000  0.0788000  0.0579012  0.0002672  0.0375239
  2.0750000  0.0788000  0.0536210 -0.0000249  0.0376791
  2.0875000  0.0788000  0.0492877 -0.0004708  0.0379575
  2.0875000  0.0900000  0.0406585 -0.0007921  0.0415953
  2.1000000  0.0788000  0.0449035 -0.0011370  0.0384055
  2.1000000  0.0900000  0.0369854 -0.0016208  0.0420442
  2.0875000  0.1013000  0.0322640 -0.0011291  0.0445888
  2.1000000  0.1013000  0.0293018 -0.0020847  0.0450134
  2.1000000  0.1125000  0.0217770 -0.0024840  0.0473247
  2.0875000  0.1125000  0.0240162 -0.0014280  0.0469745
  2.1124000  0.1013000  0.0264139 -0.0034115  0.0455984
  2.1124000  0.0901000  0.0333330 -0.0027894  0.0426958
  2.1249000  0.0901000  0.0297683 -0.0044500  0.0435619
  2.1249000  0.1013000  0.0237041 -0.0052277  0.0462933
  2.1249000  0.1126000  0.0177395 -0.0058154  0.0482730
  2.1124000  0.1126000  0.0196588 -0.0039156  0.0477764
  2.1125000  0.0788000  0.0404760 -0.0021079  0.0390858
  2.1249000  0.0789000  0.0360553 -0.0035231  0.0400486
  2.1374000  0.0789000  0.0317681 -0.0055693  0.0413238
  2.1374000  0.0902000  0.0264139 -0.0067680  0.0446678
  2.1498000  0.0790000  0.0277032 -0.0085182  0.0429938
  2.1498000  0.0902000  0.0234208 -0.0099472  0.0459655
  2.1373000  0.1014000  0.0212405 -0.0076930  0.0471312
  2.1498000  0.1015000  0.0191835 -0.0109485  0.0480100
  2.1497000  0.1127000  0.0148505 -0.0115060  0.0492696
  2.1373000  0.1126000  0.0160958 -0.0083084  0.0488075
  2.1621000  0.1015000  0.0176921 -0.0151792  0.0487859
  2.1622000  0.0903000  0.0210030 -0.0142816  0.0473596
  2.1745000  0.1017000  0.0169334 -0.0204930  0.0492182
  2.1744000  0.1128000  0.0139756 -0.0202925  0.0492739
  2.1621000  0.1127000  0.0141084 -0.0154926  0.0494953
  2.1623000  0.0791000  0.0241335 -0.0127353  0.0450030
  2.1867000  0.1018000  0.0169960 -0.0268784  0.0489050
  2.1866000  0.1129000  0.0144445 -0.0257990  0.0483031
  2.1989000  0.1021000  0.0178444 -0.0340461  0.0473818
  2.1987000  0.1131000  0.0154169 -0.0317020  0.0462911
  2.1866000  0.1239000  0.0113979 -0.0242851  0.0474878
  2.1986000  0.1239000  0.0125055 -0.0291667  0.0451822
  2.1987000  0.1348000  0.0092575 -0.0265716  0.0439935
  2.1866000  0.1349000  0.0079736 -0.0225096  0.0464747
  2.1744000  0.1350000  0.0068896 -0.0184883  0.0482056
  2.1744000  0.1239000  0.0106066 -0.0195781  0.0489096
  2.2104000  0.1240000  0.0137148 -0.0337985  0.0419162
  2.2106000  0.1134000  0.0166407 -0.0374957  0.0430274
  2.2222000  0.1141000  0.0176596 -0.0424733  0.0385500
  2.2217000  0.1240000  0.0147112 -0.0376283  0.0380386
  2.2222000  0.1338000  0.0118104 -0.0336346  0.0367826
  2.2106000  0.1345000  0.0105706 -0.0303844  0.0407314
  2.2111000  0.1026000  0.0191846 -0.0413770  0.0441976
  2.2233000  0.1035000  0.0204171 -0.0477737  0.0388632
  2.2362000  0.1052000  0.0206919 -0.0514126  0.0310538
  2.2500000  0.1057000  0.0201580 -0.0519149  0.0230012
  2.2500000  0.1240000  0.0152794 -0.0423695  0.0241970
  2.2334000  0.1165000  0.0173364 -0.0457624  0.0316538
  2.2638000  0.1052000  0.0182512 -0.0514144  0.0146865
  2.2666000  0.1165000  0.0151757 -0.0458667  0.0158067
  2.2767000  0.1035000  0.0150130 -0.0478483  0.0064076
  2.2778000  0.1141000  0.0131889 -0.0426094  0.0085477
  2.2889000  0.1026000  0.0110803 -0.0415052  0.0009012
  2.2894000  0.1134000  0.0103503 -0.0376586  0.0040306
  2.3011000  0.1021000  0.0071346 -0.0342134 -0.0023523
  2.3013000  0.1131000  0.0072032 -0.0318850  0.0007486
  2.2896000  0.1239000  0.0093187 -0.0339616  0.0065962
  2.3014000  0.1239000  0.0068182 -0.0293616  0.0033389
  2.3013000  0.1348000  0.0060901 -0.0267777  0.0054685
  2.2894000  0.1345000  0.0080889 -0.0305627  0.0087166
  2.2778000  0.1338000  0.0099761 -0.0337768  0.0126545
  2.2783000  0.1239000  0.0114966 -0.0377752  0.0104560
  2.3134000  0.1239000  0.0043838 -0.0245142  0.0010427
  2.3134000  0.1129000  0.0042814 -0.0260161 -0.0012651
  2.3256000  0.1128000  0.0018384 -0.0205420 -0.0022309
  2.3256000  0.1239000  0.0022537 -0.0198366 -0.0003724
  2.3256000  0.1350000  0.0023051 -0.0187536  0.0012696
  2.3134000  0.1349000  0.0041005 -0.0227436  0.0029940
  2.3133000  0.1018000  0.0036834 -0.0270790 -0.0039092
  2.3255000  0.1017000  0.0009939 -0.0207227 -0.0042313
  2.3379000  0.1016000 -0.0008586 -0.0154302 -0.0038029
  2.3379000  0.1127000  0.0000033 -0.0157615 -0.0024458
  2.3378000  0.0904000 -0.0020119 -0.0145059 -0.0050118
  2.3379000  0.1239000  0.0005565 -0.0156048 -0.0010845
  2.3379000  0.1350000  0.0008180 -0.0150467  0.0001867
  2.3133000  0.1460000  0.0035300 -0.0207944  0.0045925
  2.3011000  0.1458000  0.0051021 -0.0241770  0.0071749
  2.3255000  0.1462000  0.0020748 -0.0173970  0.0026594
  2.3254000  0.1574000  0.0016380 -0.0158578  0.0037860
  2.3131000  0.1572000  0.0027541 -0.0187231  0.0058523
  2.3379000  0.1462000  0.0008327 -0.0141848  0.0013048
  2.3378000  0.1575000  0.0006559 -0.0130921  0.0022354
  2.3377000  0.1688000  0.0003420 -0.0118360  0.0029582
  2.3253000  0.1687000  0.0010533 -0.0141914  0.0046323
  2.3129000  0.1686000  0.0018363 -0.0165951  0.0067715
  2.2889000  0.1453000  0.0066856 -0.0273685  0.0104359
  2.2767000  0.1444000  0.0082784 -0.0302785  0.0144741
  2.2695000  0.1240000  0.0133314 -0.0406841  0.0150439
  2.2666000  0.1314000  0.0127665 -0.0368105  0.0180230
  2.2638000  0.1428000  0.0099456 -0.0330971  0.0195476
  2.2500000  0.1422000  0.0104172 -0.0348187  0.0248252
  2.2362000  0.1428000  0.0102456 -0.0330685  0.0301995
  2.2334000  0.1315000  0.0138400 -0.0367472  0.0312697
  2.2233000  0.1444000  0.0087559 -0.0301694  0.0353664
  2.2305000  0.1240000  0.0154385 -0.0404674  0.0334736
  2.2111000  0.1453000  0.0072502 -0.0272070  0.0394196
  2.1989000  0.1458000  0.0057509 -0.0239703  0.0426822
  2.1867000  0.1460000  0.0042614 -0.0205598  0.0452657
  2.1745000  0.1462000  0.0028963 -0.0171328  0.0471987
  2.1621000  0.1462000  0.0017285 -0.0138969  0.0485548
  2.1497000  0.1463000  0.0008290 -0.0109602  0.0494484
  2.1497000  0.1351000  0.0056781 -0.0114463  0.0499066
  2.1621000  0.1350000  0.0061009 -0.0147568  0.0492974
  2.1373000  0.1463000  0.0001885 -0.0084077  0.0499830
  2.1373000  0.1351000  0.0055975 -0.0086426  0.0501665
  2.1374000  0.1576000 -0.0053198 -0.0079603  0.0492943
  2.1249000  0.1576000 -0.0062665 -0.0060078  0.0497732
  2.1249000  0.1463000 -0.0001951 -0.0062532  0.0502659
  2.1249000  0.1351000  0.0058302 -0.0063235  0.0502073
  2.1374000  0.1690000 -0.0109242 -0.0073486  0.0481195
  2.1249000  0.1690000 -0.0123924 -0.0056139  0.0487566
  2.1124000  0.1464000 -0.0003497 -0.0044885  0.0503882
  2.1124000  0.1577000 -0.0070236 -0.0043742  0.0500614
  2.1000000  0.1577000 -0.0076474 -0.0030412  0.0501998
  2.1000000  0.1464000 -0.0003348 -0.0030743  0.0503907
  2.1000000  0.1351000  0.0069959 -0.0029926  0.0499908
  2.1124000  0.1351000  0.0063124 -0.0044571  0.0501366
  2.1124000  0.1690000 -0.0137314 -0.0041283  0.0491778
  2.1000000  0.1690000 -0.0149672 -0.0029043  0.0494355
  2.0875000  0.1691000 -0.0160671 -0.0019185  0.0495901
  2.0875000  0.1577000 -0.0081287 -0.0019753  0.0502632
  2.0750000  0.1691000 -0.0171060 -0.0011473  0.0496621
  2.0750000  0.1577000 -0.0085167 -0.0011518  0.0502656
  2.0625000  0.1691000 -0.0180716 -0.0005435  0.0496805
  2.0500000  0.1691000 -0.0189993 -0.0001008  0.0496654
  2.0500000  0.1577000 -0.0090966 -0.0000597  0.0501902
  2.0625000  0.1577000 -0.0088296 -0.0005214  0.0502355
  2.0375000  0.1691000 -0.0198929  0.0002235  0.0496309
  2.0375000  0.1577000 -0.0093355  0.0002695  0.0501374
  2.0250000  0.1691000 -0.0207735  0.0004403  0.0495845
  2.0250000  0.1577000 -0.0095616  0.0004926  0.0500844
  2.0125000  0.1691000 -0.0216488  0.0005852  0.0495333
  2.0000000  0.1691000 -0.0225281  0.0006652  0.0494819
  2.0000000  0.1577000 -0.0100145  0.0007128  0.0499894
  2.0125000  0.1577000 -0.0097853  0.0006342  0.0500342
  1.9875000  0.1691000 -0.0234148  0.0006998  0.0494322
  1.9875000  0.1577000 -0.0102540  0.0007435  0.0499499
  1.9750000  0.1691000 -0.0243151  0.0006970  0.0493835
  1.9750000  0.1577000 -0.0105076  0.0007397  0.0499150
  1.9625000  0.1691000 -0.0252281  0.0006784  0.0493396
  1.9500000  0.1691000 -0.0261563  0.0006388  0.0493011
  1.9500000  0.1577000 -0.0110640  0.0006719  0.0498606
  1.9625000  0.1577000 -0.0107774  0.0007139  0.0498850
  1.9375000  0.1691000 -0.0270985  0.0005900  0.0492666
  1.9375000  0.1577000 -0.0113665  0.0006190  0.0498400
  1.9250000  0.1691000 -0.0280571  0.0005311  0.0492340
  1.9250000  0.1577000 -0.0116852  0.0005606  0.0498218
  1.9125000  0.1691000 -0.0290281  0.0004800  0.0492063
  1.9000000  0.1691000 -0.0300125  0.0004236  0.0491835
  1.9000000  0.1577000 -0.0123672  0.0004455  0.0497949
  1.9125000  0.1577000 -0.0120193  0.0005029  0.0498065
  1.8875000  0.1691000 -0.0310071  0.0003704  0.0491639
  1.8875000  0.1577000 -0.0127269  0.0003894  0.0497852
  1.8750000  0.1691000 -0.0320143  0.0003151  0.0491446
  1.8750000  0.1577000 -0.0130978  0.0003363  0.0497761
  1.8625000  0.1691000 -0.0330289  0.0002751  0.0491291
  1.8500000  0.1691000 -0.0340523  0.0002328  0.0491175
  1.8500000  0.1577000 -0.0138688  0.0002483  0.0497633
  1.8625000  0.1577000 -0.0134790  0.0002903  0.0497684
  1.8375000  0.1691000 -0.0350811  0.0001961  0.0491079
  1.8375000  0.1577000 -0.0142651  0.0002094  0.0497592
  1.8250000  0.1691000 -0.0361182  0.0001575  0.0490971
  1.8250000  0.1577000 -0.0146678  0.0001746  0.0497545
  1.8125000  0.1691000 -0.0371583  0.0001359  0.0490890
  1.8000000  0.1691000 -0.0382036  0.0001106  0.0490841
  1.8000000  0.1577000 -0.0154895  0.0001229  0.0497487
  1.8125000  0.1577000 -0.0150764  0.0001470  0.0497505
  1.7875000  0.1691000 -0.0392507  0.0000901  0.0490803
  1.7875000  0.1577000 -0.0159054  0.0001007  0.0497473
  1.7750000  0.1691000 -0.0403032  0.0000657  0.0490743
  1.7750000  0.1577000 -0.0163244  0.0000811  0.0497448
  1.7625000  0.1691000 -0.0413559  0.0000583  0.0490702
  1.7500000  0.1691000 -0.0424117  0.0000451  0.0490691
  1.7500000  0.1577000 -0.0171708  0.0000563  0.0497424
  1.7625000  0.1577000 -0.0167466  0.0000677  0.0497426
  1.7375000  0.1691000 -0.0434671  0.0000354  0.0490684
  1.7375000  0.1577000 -0.0175956  0.0000450  0.0497424
  1.7250000  0.1691000 -0.0445265  0.0000196  0.0490647
  1.7250000  0.1577000 -0.0180219  0.0000350  0.0497408
  1.7125000  0.1691000 -0.0455844  0.0000211  0.0490625
  1.7000000  0.1691000 -0.0466445  0.0000149  0.0490632
  1.7000000  0.1577000 -0.0188786  0.0000260  0.0497400
  1.7125000  0.1577000 -0.0184498  0.0000302  0.0497394
  1.6875000  0.1691000 -0.0477031  0.0000111  0.0490641
  1.6875000  0.1577000 -0.0193068  0.0000208  0.0497407
  1.6750000  0.1691000 -0.0487650 -0.0000004  0.0490613
  1.6750000  0.1577000 -0.0197357  0.0000157  0.0497395
  1.6625000  0.1691000 -0.0498246  0.0000060  0.0490600
  1.6500000  0.1691000 -0.0508861  0.0000031  0.0490615
  1.6500000  0.1577000 -0.0205958  0.0000148  0.0497394
  1.6625000  0.1577000 -0.0201656  0.0000153  0.0497383
  1.6375000  0.1691000 -0.0519455  0.0000022  0.0490631
  1.6375000  0.1577000 -0.0210250  0.0000124  0.0497403
  1.6250000  0.1691000 -0.0530081 -0.0000078  0.0490607
  1.6250000  0.1577000 -0.0214544  0.0000094  0.0497392
  1.6125000  0.1691000 -0.0540679  0.0000012  0.0490595
  1.6000000  0.1691000 -0.0551296 -0.0000004  0.0490614
  1.6000000  0.1577000 -0.0223152  0.0000122  0.0497393
  1.6125000  0.1577000 -0.0218847  0.0000111  0.0497381
  1.5875000  0.1691000 -0.0561889 -0.0000001  0.0490633
  1.5875000  0.1577000 -0.0227443  0.0000107  0.0497404
  1.5750000  0.1691000 -0.0572515 -0.0000101  0.0490609
  1.5750000  0.1577000 -0.0231736  0.0000084  0.0497393
  1.5625000  0.1691000 -0.0583110  0.0000002  0.0490597
  1.5500000  0.1691000 -0.0593725 -0.0000009  0.0490618
  1.5500000  0.1577000 -0.0240341  0.0000126  0.0497395
  1.5625000  0.1577000 -0.0236038  0.0000109  0.0497382
  1.5375000  0.1691000 -0.0604314 -0.0000003  0.0490639
  1.5375000  0.1577000 -0.0244628  0.0000113  0.0497407
  1.5250000  0.1691000 -0.0614939 -0.0000108  0.0490614
  1.5250000  0.1577000 -0.0248918  0.0000091  0.0497395
  1.5125000  0.1691000 -0.0625530  0.0000004  0.0490600
  1.5000000  0.1691000 -0.0636143 -0.0000008  0.0490623
  1.5000000  0.1577000 -0.0257517  0.0000136  0.0497397
  1.5125000  0.1577000 -0.0253217  0.0000119  0.0497383
  1.4875000  0.1691000 -0.0646728 -0.0000001  0.0490646
  1.4875000  0.1577000 -0.0261801  0.0000123  0.0497410
  1.4750000  0.1691000 -0.0657350 -0.0000113  0.0490619
  1.4750000  0.1577000 -0.0266087  0.0000099  0.0497397
  1.4625000  0.1691000 -0.0667937  0.0000006  0.0490604
  1.4500000  0.1691000 -0.0678548 -0.0000007  0.0490628
  1.4500000  0.1577000 -0.0274680  0.0000148  0.0497399
  1.4625000  0.1577000 -0.0270382  0.0000129  0.0497384
  1.4375000  0.1691000 -0.0689129  0.0000002  0.0490652
  1.4375000  0.1577000 -0.0278960  0.0000134  0.0497413
  1.4250000  0.1691000 -0.0699749 -0.0000117  0.0490624
  1.4250000  0.1577000 -0.0283242  0.0000109  0.0497399
  1.4125000  0.1691000 -0.0710332  0.0000011  0.0490607
  1.4000000  0.1691000 -0.0720940  0.0000001  0.0490632
  1.4000000  0.1577000 -0.0291830  0.0000166  0.0497401
  1.4125000  0.1577000 -0.0287535  0.0000142  0.0497385
  1.3875000  0.1691000 -0.0731518  0.0000015  0.0490657
  1.3875000  0.1577000 -0.0296107  0.0000155  0.0497415
  1.3750000  0.1691000 -0.0742138 -0.0000105  0.0490626
  1.3750000  0.1577000 -0.0300388  0.0000135  0.0497400
  1.3625000  0.1691000 -0.0752718  0.0000039  0.0490606
  1.3500000  0.1691000 -0.0763328  0.0000039  0.0490631
  1.3500000  0.1577000 -0.0308976  0.0000214  0.0497400
  1.3625000  0.1577000 -0.0304680  0.0000179  0.0497384
  1.3375000  0.1691000 -0.0773906  0.0000067  0.0490654
  1.3375000  0.1577000 -0.0313254  0.0000218  0.0497414
  1.3250000  0.1691000 -0.0784530 -0.0000042  0.0490618
  1.3250000  0.1577000 -0.0317537  0.0000215  0.0497397
  1.3125000  0.1691000 -0.0795114  0.0000132  0.0490593
  1.3000000  0.1691000 -0.0805734  0.0000159  0.0490614
  1.3000000  0.1577000 -0.0326142  0.0000348  0.0497392
  1.3125000  0.1577000 -0.0321836  0.0000283  0.0497378
  1.2875000  0.1691000 -0.0816324  0.0000222  0.0490631
  1.2875000  0.1577000 -0.0330434  0.0000386  0.0497404
  1.2750000  0.1691000 -0.0826966  0.0000146  0.0490584
  1.2750000  0.1577000 -0.0334736  0.0000423  0.0497382
  1.2625000  0.1691000 -0.0837574  0.0000377  0.0490546
  1.2500000  0.1691000 -0.0848226  0.0000463  0.0490554
  1.2500000  0.1577000 -0.0343402  0.0000672  0.0497367
  1.2625000  0.1577000 -0.0339062  0.0000545  0.0497358
  1.2375000  0.1691000 -0.0858857  0.0000596  0.0490556
  1.2375000  0.1577000 -0.0347738  0.0000780  0.0497373
  1.2250000  0.1691000 -0.0869554  0.0000595  0.0490488
  1.2250000  0.1577000 -0.0352098  0.0000900  0.0497342
  1.2125000  0.1691000 -0.0880228  0.0000929  0.0490424
  1.2000000  0.1691000 -0.0890966  0.0001122  0.0490405
  1.2000000  0.1577000 -0.0360927  0.0001360  0.0497306
  1.2125000  0.1577000 -0.0356496  0.0001121  0.0497307
  1.1875000  0.1691000 -0.0901700  0.0001380  0.0490375
  1.1875000  0.1577000 -0.0365374  0.0001594  0.0497300
  1.1750000  0.1691000 -0.0912527  0.0001510  0.0490267
  1.1750000  0.1577000 -0.0369869  0.0001854  0.0497254
  1.1625000  0.1691000 -0.0923356  0.0002004  0.0490159
  1.1500000  0.1691000 -0.0934282  0.0002364  0.0490094
  1.1500000  0.1577000 -0.0379061  0.0002643  0.0497186
  1.1625000  0.1577000 -0.0374431  0.0002232  0.0497203
  1.1375000  0.1691000 -0.0945240  0.0002802  0.0490013
  1.1375000  0.1577000 -0.0383742  0.0003056  0.0497164
  1.1250000  0.1691000 -0.0956334  0.0003112  0.0489847
  1.1250000  0.1577000 -0.0388514  0.0003503  0.0497101
  1.1125000  0.1691000 -0.0967474  0.0003805  0.0489679
  1.1000000  0.1691000 -0.0978764  0.0004352  0.0489557
  1.1000000  0.1577000 -0.0398406  0.0004669  0.0497009
  1.1125000  0.1577000 -0.0393401  0.0004073  0.0497035
  1.0875000  0.1691000 -0.0990141  0.0004962  0.0489422
  1.0875000  0.1577000 -0.0403517  0.0005247  0.0496986
  1.0750000  0.1691000 -0.1001715  0.0005408  0.0489208
  1.0750000  0.1577000 -0.0408778  0.0005825  0.0496929
  1.0625000  0.1691000 -0.1013396  0.0006203  0.0489007
  1.0500000  0.1691000 -0.1025294  0.0006770  0.0488877
  1.0500000  0.1577000 -0.0419824  0.0007069  0.0496907
  1.0625000  0.1577000 -0.0414213  0.0006475  0.0496886
  1.0375000  0.1691000 -0.1037337  0.0007296  0.0488768
  1.0375000  0.1577000 -0.0425594  0.0007528  0.0496959
  1.0250000  0.1691000 -0.1049636  0.0007501  0.0488625
  1.0250000  0.1577000 -0.0431556  0.0007825  0.0497016
  1.0125000  0.1691000 -0.1062085  0.0007868  0.0488559
  1.0000000  0.1691000 -0.1074776  0.0007729  0.0488651
  1.0000000  0.1577000 -0.0444067  0.0007800  0.0497376
  1.0125000  0.1577000 -0.0437723  0.0007983  0.0497133
  0.9875000  0.1691000 -0.1087606  0.0007194  0.0488871
  0.9875000  0.1577000 -0.0450536  0.0007110  0.0497719
  0.9750000  0.1691000 -0.1100644  0.0005869  0.0489183
  0.9750000  0.1577000 -0.0457111  0.0005782  0.0498143
  0.9625000  0.1691000 -0.1113710  0.0004121  0.0489725
  0.9500000  0.1691000 -0.1126804  0.0001097  0.0490564
  0.9500000  0.1577000 -0.0470296  0.0000571  0.0499455
  0.9625000  0.1577000 -0.0463731  0.0003714  0.0498703
  0.9375000  0.1691000 -0.1139163 -0.0003266  0.0491780
  0.9375000  0.1577000 -0.0476581 -0.0004004  0.0500402
  0.9250000  0.1691000 -0.1151622 -0.0009872  0.0493156
  0.9250000  0.1577000 -0.0482489 -0.0010567  0.0501292
  0.9125000  0.1691000 -0.1162242 -0.0017687  0.0494885
  0.9000000  0.1690000 -0.1173118 -0.0028797  0.0497382
  0.9000000  0.1577000 -0.0490542 -0.0030431  0.0503706
  0.9125000  0.1577000 -0.0487099 -0.0018803  0.0502321
  0.8876000  0.1690000 -0.1180016 -0.0043478  0.0498888
  0.8876000  0.1577000 -0.0491137 -0.0044638  0.0503239
  0.8751000  0.1690000 -0.1186187 -0.0063103  0.0500351
  0.8751000  0.1576000 -0.0491321 -0.0062405  0.0503122
  0.8626000  0.1690000 -0.1189848 -0.0086209  0.0501235
  0.8502000  0.1689000 -0.1187975 -0.0115174  0.0499603
  0.8502000  0.1576000 -0.0480155 -0.0111227  0.0496051
  0.8626000  0.1576000 -0.0487749 -0.0084346  0.0501053
  0.8378000  0.1688000 -0.1179860 -0.0149689  0.0494221
  0.8378000  0.1575000 -0.0469504 -0.0141875  0.0487856
  0.8253000  0.1687000 -0.1167000 -0.0189217  0.0484416
  0.8254000  0.1574000 -0.0453615 -0.0175234  0.0475426
  0.8129000  0.1686000 -0.1146336 -0.0232190  0.0466133
  0.8131000  0.1572000 -0.0431175 -0.0211000  0.0455329
  0.8133000  0.1460000  0.0275660 -0.0189719  0.0443428
  0.8255000  0.1462000  0.0253925 -0.0159820  0.0464416
  0.8011000  0.1458000  0.0304219 -0.0218364  0.0416386
  0.7889000  0.1453000  0.0342982 -0.0243786  0.0382318
  0.7767000  0.1444000  0.0412754 -0.0260254  0.0339650
  0.8379000  0.1462000  0.0234871 -0.0131090  0.0479264
  0.8379000  0.1350000  0.0935603 -0.0118985  0.0466299
  0.8503000  0.1351000  0.0920154 -0.0096294  0.0477852
  0.8503000  0.1463000  0.0221442 -0.0104440  0.0489752
  0.8379000  0.1239000  0.1634784 -0.0106399  0.0449872
  0.8503000  0.1238000  0.1616067 -0.0086301  0.0462264
  0.8627000  0.1463000  0.0209535 -0.0080488  0.0496506
  0.8627000  0.1351000  0.0905098 -0.0075644  0.0486208
  0.8751000  0.1351000  0.0891854 -0.0057597  0.0492485
  0.8751000  0.1463000  0.0200783 -0.0060409  0.0500590
  0.8627000  0.1238000  0.1598149 -0.0068094  0.0471868
  0.8751000  0.1238000  0.1580277 -0.0052525  0.0479385
  0.8876000  0.1238000  0.1564205 -0.0038683  0.0483381
  0.8876000  0.1351000  0.0880093 -0.0041978  0.0495406
  0.9000000  0.1238000  0.1549147 -0.0027588  0.0487330
  0.9000000  0.1351000  0.0869643 -0.0029594  0.0498417
  0.9125000  0.1238000  0.1534902 -0.0018356  0.0488863
  0.9250000  0.1238000  0.1520702 -0.0010986  0.0489973
  0.9250000  0.1351000  0.0853065 -0.0011391  0.0499623
  0.9125000  0.1351000  0.0860943 -0.0019371  0.0499173
  0.9375000  0.1238000  0.1507046 -0.0005304  0.0490423
  0.9375000  0.1351000  0.0845854 -0.0005320  0.0499632
  0.9500000  0.1238000  0.1493778 -0.0001043  0.0490446
  0.9500000  0.1351000  0.0839071 -0.0000807  0.0499360
  0.9625000  0.1238000  0.1480756  0.0002042  0.0490191
  0.9750000  0.1238000  0.1467866  0.0004174  0.0489766
  0.9750000  0.1351000  0.0826185  0.0004624  0.0498436
  0.9625000  0.1351000  0.0832560  0.0002420  0.0498931
  0.9875000  0.1238000  0.1455017  0.0005553  0.0489248
  0.9875000  0.1351000  0.0819841  0.0006034  0.0497923
  1.0000000  0.1238000  0.1442143  0.0006347  0.0488686
  1.0000000  0.1351000  0.0813456  0.0006829  0.0497417
  1.0125000  0.1238000  0.1429195  0.0006695  0.0488119
  1.0250000  0.1238000  0.1416141  0.0006717  0.0487569
  1.0250000  0.1351000  0.0800378  0.0007143  0.0496511
  1.0125000  0.1351000  0.0806980  0.0007155  0.0496942
  1.0375000  0.1238000  0.1402960  0.0006507  0.0487050
  1.0375000  0.1351000  0.0793627  0.0006899  0.0496123
  1.0500000  0.1238000  0.1389643  0.0006140  0.0486570
  1.0500000  0.1351000  0.0786720  0.0006495  0.0495776
  1.0625000  0.1238000  0.1376189  0.0005673  0.0486134
  1.0750000  0.1238000  0.1362600  0.0005153  0.0485743
  1.0750000  0.1351000  0.0772448  0.0005429  0.0495208
  1.0625000  0.1351000  0.0779660  0.0005988  0.0495470
  1.0875000  0.1238000  0.1348884  0.0004613  0.0485396
  1.0875000  0.1351000  0.0765092  0.0004857  0.0494980
  1.1000000  0.1238000  0.1335048  0.0004078  0.0485091
  1.1000000  0.1351000  0.0757604  0.0004291  0.0494781
  1.1125000  0.1238000  0.1321106  0.0003563  0.0484824
  1.1250000  0.1238000  0.1307067  0.0003080  0.0484595
  1.1250000  0.1351000  0.0742288  0.0003234  0.0494469
  1.1125000  0.1351000  0.0749999  0.0003745  0.0494611
  1.1375000  0.1238000  0.1292942  0.0002637  0.0484398
  1.1375000  0.1351000  0.0734481  0.0002770  0.0494349
  1.1500000  0.1238000  0.1278744  0.0002237  0.0484229
  1.1500000  0.1351000  0.0726591  0.0002351  0.0494245
  1.1625000  0.1238000  0.1264482  0.0001879  0.0484087
  1.1750000  0.1238000  0.1250165  0.0001564  0.0483968
  1.1750000  0.1351000  0.0710616  0.0001641  0.0494087
  1.1625000  0.1351000  0.0718634  0.0001973  0.0494157
  1.1875000  0.1238000  0.1235801  0.0001290  0.0483869
  1.1875000  0.1351000  0.0702546  0.0001355  0.0494029
  1.2000000  0.1238000  0.1221399  0.0001055  0.0483786
  1.2000000  0.1351000  0.0694432  0.0001110  0.0493979
  1.2125000  0.1238000  0.1206966  0.0000853  0.0483718
  1.2250000  0.1238000  0.1192506  0.0000681  0.0483664
  1.2250000  0.1351000  0.0678110  0.0000715  0.0493907
  1.2125000  0.1351000  0.0686286  0.0000896  0.0493938
  1.2375000  0.1238000  0.1178024  0.0000539  0.0483620
  1.2375000  0.1351000  0.0669909  0.0000567  0.0493882
  1.2500000  0.1238000  0.1163525  0.0000421  0.0483585
  1.2500000  0.1351000  0.0661689  0.0000445  0.0493860
  1.2625000  0.1238000  0.1149013  0.0000323  0.0483557
  1.2750000  0.1238000  0.1134491  0.0000243  0.0483536
  1.2750000  0.1351000  0.0645210  0.0000255  0.0493831
  1.2625000  0.1351000  0.0653455  0.0000340  0.0493843
  1.2875000  0.1238000  0.1119960  0.0000179  0.0483519
  1.2875000  0.1351000  0.0636954  0.0000189  0.0493823
  1.3000000  0.1238000  0.1105422  0.0000128  0.0483507
  1.3000000  0.1351000  0.0628690  0.0000137  0.0493815
  1.3125000  0.1238000  0.1090881  0.0000087  0.0483497
  1.3250000  0.1238000  0.1076336  0.0000055  0.0483491
  1.3250000  0.1351000  0.0612153  0.0000058  0.0493805
  1.3125000  0.1351000  0.0620424  0.0000093  0.0493808
  1.3375000  0.1238000  0.1061788  0.0000031  0.0483487
  1.3375000  0.1351000  0.0603878  0.0000034  0.0493804
  1.3500000  0.1238000  0.1047239  0.0000014  0.0483484
  1.3500000  0.1351000  0.0595602  0.0000017  0.0493801
  1.3625000  0.1238000  0.1032690 -0.0000000  0.0483482
  1.3750000  0.1238000  0.1018140 -0.0000011  0.0483482
  1.3750000  0.1351000  0.0579049 -0.0000012  0.0493800
  1.3625000  0.1351000  0.0587326  0.0000000  0.0493799
  1.3875000  0.1238000  0.1003590 -0.0000017  0.0483483
  1.3875000  0.1351000  0.0570771 -0.0000017  0.0493802
  1.4000000  0.1238000  0.0989040 -0.0000021  0.0483483
  1.4000000  0.1351000  0.0562493 -0.0000021  0.0493801
  1.4125000  0.1238000  0.0974491 -0.0000025  0.0483484
  1.4250000  0.1238000  0.0959942 -0.0000027  0.0483485
  1.4250000  0.1351000  0.0545941 -0.0000029  0.0493802
  1.4125000  0.1351000  0.0554217 -0.0000026  0.0493800
  1.4375000  0.1238000  0.0945394 -0.0000028  0.0483487
  1.4375000  0.1351000  0.0537665 -0.0000029  0.0493804
  1.4500000  0.1238000  0.0930846 -0.0000028  0.0483489
  1.4500000  0.1351000  0.0529389 -0.0000027  0.0493804
  1.4625000  0.1238000  0.0916300 -0.0000028  0.0483490
  1.4750000  0.1238000  0.0901754 -0.0000029  0.0483492
  1.4750000  0.1351000  0.0512844 -0.0000031  0.0493806
  1.4625000  0.1351000  0.0521116 -0.0000029  0.0493804
  1.4875000  0.1238000  0.0887209 -0.0000028  0.0483494
  1.4875000  0.1351000  0.0504570 -0.0000029  0.0493808
  1.5000000  0.1238000  0.0872664 -0.0000028  0.0483495
  1.5000000  0.1351000  0.0496298 -0.0000028  0.0493808
  1.5125000  0.1238000  0.0858121 -0.0000028  0.0483497
  1.5250000  0.1238000  0.0843578 -0.0000029  0.0483499
  1.5250000  0.1351000  0.0479759 -0.0000031  0.0493810
  1.5125000  0.1351000  0.0488028 -0.0000029  0.0493808
  1.5375000  0.1238000  0.0829036 -0.0000028  0.0483501
  1.5375000  0.1351000  0.0471489 -0.0000029  0.0493812
  1.5500000  0.1238000  0.0814494 -0.0000028  0.0483502
  1.5500000  0.1351000  0.0463220 -0.0000028  0.0493812
  1.5625000  0.1238000  0.0799954 -0.0000027  0.0483504
  1.5750000  0.1238000  0.0785414 -0.0000027  0.0483505
  1.5750000  0.1351000  0.0446687 -0.0000029  0.0493813
  1.5625000  0.1351000  0.0454953 -0.0000029  0.0493812
  1.5875000  0.1238000  0.0770875 -0.0000025  0.0483507
  1.5875000  0.1351000  0.0438420 -0.0000026  0.0493815
  1.6000000  0.1238000  0.0756336 -0.0000021  0.0483508
  1.6000000  0.1351000  0.0430154 -0.0000021  0.0493815
  1.6125000  0.1238000  0.0741798 -0.0000017  0.0483508
  1.6250000  0.1238000  0.0727260 -0.0000010  0.0483508
  1.6250000  0.1351000  0.0413625 -0.0000011  0.0493815
  1.6125000  0.1351000  0.0421889 -0.0000017  0.0493814
  1.6375000  0.1238000  0.0712722 -0.0000000  0.0483508
  1.6375000  0.1351000  0.0405359  0.0000000  0.0493816
  1.6500000  0.1238000  0.0698183  0.0000014  0.0483506
  1.6500000  0.1351000  0.0397093  0.0000016  0.0493814
  1.6625000  0.1238000  0.0683644  0.0000032  0.0483503
  1.6750000  0.1238000  0.0669104  0.0000056  0.0483499
  1.6750000  0.1351000  0.0380559  0.0000058  0.0493809
  1.6625000  0.1351000  0.0388827  0.0000034  0.0493811
  1.6875000  0.1238000  0.0654561  0.0000087  0.0483492
  1.6875000  0.1351000  0.0372287  0.0000093  0.0493806
  1.7000000  0.1238000  0.0640014  0.0000128  0.0483483
  1.7000000  0.1351000  0.0364012  0.0000137  0.0493800
  1.7125000  0.1238000  0.0625464  0.0000179  0.0483470
  1.7250000  0.1238000  0.0610907  0.0000243  0.0483453
  1.7250000  0.1351000  0.0347446  0.0000256  0.0493782
  1.7125000  0.1351000  0.0355733  0.0000190  0.0493791
  1.7375000  0.1238000  0.0596342  0.0000323  0.0483432
  1.7375000  0.1351000  0.0339150  0.0000341  0.0493770
  1.7500000  0.1238000  0.0581766  0.0000422  0.0483404
  1.7500000  0.1351000  0.0330841  0.0000445  0.0493753
  1.7625000  0.1238000  0.0567177  0.0000541  0.0483368
  1.7750000  0.1238000  0.0552570  0.0000684  0.0483324
  1.7750000  0.1351000  0.0314176  0.0000718  0.0493706
  1.7625000  0.1351000  0.0322518  0.0000569  0.0493731
  1.7875000  0.1238000  0.0537942  0.0000856  0.0483269
  1.7875000  0.1351000  0.0305810  0.0000899  0.0493675
  1.8000000  0.1238000  0.0523287  0.0001060  0.0483202
  1.8000000  0.1351000  0.0297414  0.0001113  0.0493635
  1.8125000  0.1238000  0.0508600  0.0001299  0.0483122
  1.8250000  0.1238000  0.0493873  0.0001578  0.0483025
  1.8250000  0.1351000  0.0280509  0.0001652  0.0493533
  1.8125000  0.1351000  0.0288983  0.0001362  0.0493588
  1.8375000  0.1238000  0.0479098  0.0001900  0.0482911
  1.8375000  0.1351000  0.0271982  0.0001987  0.0493469
  1.8500000  0.1238000  0.0464266  0.0002268  0.0482777
  1.8500000  0.1351000  0.0263394  0.0002370  0.0493392
  1.8625000  0.1238000  0.0449367  0.0002683  0.0482622
  1.8750000  0.1238000  0.0434387  0.0003146  0.0482444
  1.8750000  0.1351000  0.0245987  0.0003278  0.0493209
  1.8625000  0.1351000  0.0254733  0.0002799  0.0493306
  1.8875000  0.1238000  0.0419315  0.0003658  0.0482244
  1.8875000  0.1351000  0.0237142  0.0003804  0.0493102
  1.9000000  0.1238000  0.0404135  0.0004212  0.0482021
  1.9000000  0.1351000  0.0228183  0.0004372  0.0492985
  1.9125000  0.1238000  0.0388832  0.0004801  0.0481777
  1.9250000  0.1238000  0.0373390  0.0005412  0.0481517
  1.9250000  0.1351000  0.0209866  0.0005588  0.0492739
  1.9125000  0.1351000  0.0219097  0.0004971  0.0492863
  1.9375000  0.1238000  0.0357790  0.0006026  0.0481248
  1.9375000  0.1351000  0.0200474  0.0006201  0.0492620
  1.9500000  0.1238000  0.0342017  0.0006615  0.0480978
  1.9500000  0.1351000  0.0190908  0.0006779  0.0492515
  1.9625000  0.1238000  0.0326055  0.0007140  0.0480723
  1.9750000  0.1238000  0.0309891  0.0007547  0.0480503
  1.9750000  0.1351000  0.0171208  0.0007639  0.0492400
  1.9625000  0.1351000  0.0181155  0.0007277  0.0492436
  1.9875000  0.1238000  0.0293515  0.0007765  0.0480345
  1.9875000  0.1351000  0.0161062  0.0007789  0.0492428
  2.0000000  0.1238000  0.0276927  0.0007701  0.0480284
  2.0000000  0.1351000  0.0150728  0.0007626  0.0492545
  2.0125000  0.1238000  0.0260136  0.0007232  0.0480364
  2.0250000  0.1238000  0.0243169  0.0006199  0.0480637
  2.0250000  0.1351000  0.0129595  0.0005808  0.0493174
  2.0125000  0.1351000  0.0140225  0.0007020  0.0492782
  2.0375000  0.1238000  0.0226075  0.0004398  0.0481167
  2.0375000  0.1351000  0.0118902  0.0003782  0.0493756
  2.0500000  0.1238000  0.0208938  0.0001569  0.0482021
  2.0500000  0.1351000  0.0108249  0.0000683  0.0494562
  2.0625000  0.1238000  0.0191888 -0.0002618  0.0483271
  2.0750000  0.1238000  0.0175116 -0.0008576  0.0484973
  2.0750000  0.1351000  0.0087707 -0.0010090  0.0496908
  2.0625000  0.1351000  0.0097783 -0.0003811  0.0495613
  2.0875000  0.1238000  0.0158894 -0.0016820  0.0487161
  2.0875000  0.1351000  0.0078305 -0.0018624  0.0498396
  2.1000000  0.1238000  0.0143602 -0.0027912  0.0489754
  2.1124000  0.1238000  0.0129682 -0.0042638  0.0492821
  2.1249000  0.1238000  0.0117922 -0.0061802  0.0495662
  2.1373000  0.1238000  0.0108888 -0.0086176  0.0497978
  2.1497000  0.1239000  0.0103540 -0.0116488  0.0498695
  2.0875000  0.1464000 -0.0001649 -0.0019613  0.0503500
  2.0750000  0.1464000  0.0001081 -0.0011091  0.0502778
  2.0625000  0.1464000  0.0004522 -0.0004709  0.0501967
  2.0500000  0.1464000  0.0008412 -0.0000068  0.0501193
  2.0375000  0.1464000  0.0012555  0.0003185  0.0500507
  2.0250000  0.1464000  0.0016795  0.0005356  0.0499929
  2.0125000  0.1464000  0.0021024  0.0006697  0.0499465
  2.0000000  0.1464000  0.0025167  0.0007410  0.0499107
  1.9875000  0.1464000  0.0029176  0.0007655  0.0498839
  1.9750000  0.1464000  0.0033021  0.0007568  0.0498641
  1.9625000  0.1464000  0.0036685  0.0007255  0.0498503
  1.9500000  0.1464000  0.0040166  0.0006792  0.0498414
  1.9375000  0.1464000  0.0043471  0.0006234  0.0498360
  1.9250000  0.1464000  0.0046606  0.0005632  0.0498327
  1.9125000  0.1464000  0.0049582  0.0005025  0.0498312
  1.9000000  0.1464000  0.0052414  0.0004430  0.0498312
  1.8875000  0.1464000  0.0055119  0.0003859  0.0498321
  1.8750000  0.1464000  0.0057710  0.0003327  0.0498330
  1.8625000  0.1464000  0.0060198  0.0002847  0.0498341
  1.8500000  0.1464000  0.0062599  0.0002415  0.0498358
  1.8375000  0.1464000  0.0064928  0.0002025  0.0498374
  1.8250000  0.1464000  0.0067194  0.0001682  0.0498384
  1.8125000  0.1464000  0.0069403  0.0001390  0.0498394
  1.8000000  0.1464000  0.0071567  0.0001139  0.0498407
  1.7875000  0.1464000  0.0073698  0.0000919  0.0498418
  1.7750000  0.1464000  0.0075797  0.0000732  0.0498423
  1.7625000  0.1464000  0.0077869  0.0000582  0.0498427
  1.7500000  0.1464000  0.0079921  0.0000458  0.0498435
  1.7375000  0.1464000  0.0081961  0.0000349  0.0498442
  1.7250000  0.1464000  0.0083988  0.0000259  0.0498442
  1.7125000  0.1464000  0.0086001  0.0000195  0.0498442
  1.7000000  0.1464000  0.0088008  0.0000144  0.0498447
  1.6875000  0.1464000  0.0090012  0.0000096  0.0498452
  1.6750000  0.1464000  0.0092013  0.0000057  0.0498449
  1.6625000  0.1464000  0.0094007  0.0000036  0.0498447
  1.6500000  0.1464000  0.0095999  0.0000020  0.0498451
  1.6375000  0.1464000  0.0097994  0.0000001  0.0498455
  1.6250000  0.1464000  0.0099988 -0.0000015  0.0498451
  1.6125000  0.1464000  0.0101978 -0.0000017  0.0498448
  1.6000000  0.1464000  0.0103968 -0.0000017  0.0498451
  1.5875000  0.1464000  0.0105963 -0.0000026  0.0498455
  1.5750000  0.1464000  0.0107958 -0.0000034  0.0498451
  1.5625000  0.1464000  0.0109950 -0.0000029  0.0498447
  1.5500000  0.1464000  0.0111943 -0.0000024  0.0498451
  1.5375000  0.1464000  0.0113940 -0.0000030  0.0498454
  1.5250000  0.1464000  0.0115939 -0.0000036  0.0498450
  1.5125000  0.1464000  0.0117934 -0.0000030  0.0498446
  1.5000000  0.1464000  0.0119929 -0.0000024  0.0498450
  1.4875000  0.1464000  0.0121931 -0.0000030  0.0498454
  1.4750000  0.1464000  0.0123933 -0.0000036  0.0498449
  1.4625000  0.1464000  0.0125931 -0.0000030  0.0498444
  1.4500000  0.1464000  0.0127930 -0.0000024  0.0498449
  1.4375000  0.1464000  0.0129934 -0.0000029  0.0498453
  1.4250000  0.1464000  0.0131940 -0.0000035  0.0498448
  1.4125000  0.1464000  0.0133941 -0.0000026  0.0498443
  1.4000000  0.1464000  0.0135942 -0.0000016  0.0498448
  1.3875000  0.1464000  0.0137950 -0.0000017  0.0498452
  1.3750000  0.1464000  0.0139957 -0.0000017  0.0498447
  1.3625000  0.1464000  0.0141959  0.0000001  0.0498443
  1.3500000  0.1464000  0.0143960  0.0000022  0.0498448
  1.3375000  0.1464000  0.0145966  0.0000035  0.0498453
  1.3250000  0.1464000  0.0147969  0.0000053  0.0498449
  1.3125000  0.1464000  0.0149965  0.0000096  0.0498444
  1.3000000  0.1464000  0.0151956  0.0000146  0.0498451
  1.2875000  0.1464000  0.0153948  0.0000194  0.0498458
  1.2750000  0.1464000  0.0155932  0.0000255  0.0498455
  1.2625000  0.1464000  0.0157901  0.0000349  0.0498452
  1.2500000  0.1464000  0.0159857  0.0000461  0.0498462
  1.2375000  0.1464000  0.0161804  0.0000580  0.0498472
  1.2250000  0.1464000  0.0163730  0.0000725  0.0498473
  1.2125000  0.1464000  0.0165626  0.0000917  0.0498475
  1.2000000  0.1464000  0.0167491  0.0001141  0.0498491
  1.1875000  0.1464000  0.0169326  0.0001386  0.0498510
  1.1750000  0.1464000  0.0171116  0.0001672  0.0498520
  1.1625000  0.1464000  0.0172847  0.0002019  0.0498535
  1.1500000  0.1464000  0.0174514  0.0002412  0.0498566
  1.1375000  0.1464000  0.0176114  0.0002837  0.0498605
  1.1250000  0.1464000  0.0177628  0.0003307  0.0498639
  1.1125000  0.1464000  0.0179037  0.0003841  0.0498683
  1.1000000  0.1464000  0.0180332  0.0004412  0.0498753
  1.0875000  0.1464000  0.0181508  0.0004993  0.0498839
  1.0750000  0.1464000  0.0182544  0.0005583  0.0498933
  1.0625000  0.1464000  0.0183419  0.0006180  0.0499052
  1.0500000  0.1464000  0.0184130  0.0006727  0.0499216
  1.0375000  0.1464000  0.0184678  0.0007163  0.0499418
  1.0250000  0.1464000  0.0185052  0.0007443  0.0499654
  1.0125000  0.1464000  0.0185252  0.0007508  0.0499944
  1.0000000  0.1464000  0.0185301  0.0007235  0.0500309
  0.9875000  0.1464000  0.0185241  0.0006476  0.0500743
  0.9750000  0.1464000  0.0185115  0.0005087  0.0501231
  0.9625000  0.1464000  0.0184988  0.0002897  0.0501778
  0.9500000  0.1464000  0.0184976 -0.0000352  0.0502382
  0.9375000  0.1464000  0.0185250 -0.0004995  0.0502982
  0.9250000  0.1464000  0.0185957 -0.0011320  0.0503435
  0.9125000  0.1464000  0.0187363 -0.0019596  0.0503728
  0.9000000  0.1464000  0.0189722 -0.0030619  0.0503949
  0.8876000  0.1464000  0.0194914 -0.0043975  0.0502090
  2.1621000  0.1239000  0.0102431 -0.0153214  0.0496306
  0.7695000  0.1240000  0.1732116 -0.0207519  0.0300603
  0.7666000  0.1314000  0.1293844 -0.0235845  0.0285707
  0.7638000  0.1428000  0.0573186 -0.0273132  0.0283182
  0.7500000  0.1422000  0.0636588 -0.0269201  0.0248092
  0.7362000  0.1428000  0.0576226 -0.0273478  0.0213805
  0.7334000  0.1315000  0.1304425 -0.0236271  0.0206141
  0.7233000  0.1444000  0.0418295 -0.0260269  0.0158495
  0.7305000  0.1240000  0.1752291 -0.0206407  0.0183309
  0.7111000  0.1453000  0.0350203 -0.0243691  0.0115949
  0.6989000  0.1458000  0.0312878 -0.0218299  0.0081956
  0.6867000  0.1460000  0.0286153 -0.0189778  0.0055016
  0.6745000  0.1462000  0.0266759 -0.0159835  0.0033952
  0.6621000  0.1462000  0.0249445 -0.0131168  0.0019206
  0.6497000  0.1463000  0.0237944 -0.0104232  0.0008657
  0.6497000  0.1351000  0.0985919 -0.0095927  0.0015937
  0.6621000  0.1350000  0.0993319 -0.0119067  0.0027527
  0.6373000  0.1463000  0.0227842 -0.0080514  0.0001852
  0.6373000  0.1351000  0.0979158 -0.0075726  0.0007513
  0.6374000  0.1576000 -0.0525933 -0.0084293 -0.0003648
  0.6249000  0.1576000 -0.0533897 -0.0062407 -0.0005690
  0.6249000  0.1463000  0.0220987 -0.0060422 -0.0002148
  0.6249000  0.1351000  0.0974769 -0.0057643  0.0001322
  0.6374000  0.1690000 -0.1284832 -0.0086163 -0.0010562
  0.6249000  0.1690000 -0.1291723 -0.0063151 -0.0009647
  0.6124000  0.1464000  0.0217036 -0.0043981 -0.0003578
  0.6124000  0.1577000 -0.0538025 -0.0044651 -0.0005762
  0.6000000  0.1577000 -0.0541929 -0.0030450 -0.0006332
  0.6000000  0.1464000  0.0213699 -0.0030638 -0.0005539
  0.6000000  0.1351000  0.0968925 -0.0029602 -0.0004646
  0.6124000  0.1351000  0.0971156 -0.0041969 -0.0001554
  0.6124000  0.1690000 -0.1296211 -0.0043456 -0.0008201
  0.6000000  0.1690000 -0.1300161 -0.0028780 -0.0006759
  0.5875000  0.1691000 -0.1299821 -0.0017679 -0.0004239
  0.5875000  0.1577000 -0.0542833 -0.0018763 -0.0004912
  0.5750000  0.1691000 -0.1299970 -0.0009912 -0.0002522
  0.5750000  0.1577000 -0.0542589 -0.0010542 -0.0003889
  0.5625000  0.1691000 -0.1298131 -0.0003199 -0.0001118
  0.5500000  0.1691000 -0.1296472  0.0000942  0.0000064
  0.5500000  0.1577000 -0.0538973  0.0000573 -0.0002055
  0.5625000  0.1577000 -0.0540968 -0.0003956 -0.0002989
  0.5375000  0.1691000 -0.1293947  0.0004192  0.0000867
  0.5375000  0.1577000 -0.0536701  0.0003760 -0.0001322
  0.5250000  0.1691000 -0.1291504  0.0005866  0.0001451
  0.5250000  0.1577000 -0.0534380  0.0005838 -0.0000746
  0.5125000  0.1691000 -0.1289052  0.0007204  0.0001751
  0.5000000  0.1691000 -0.1286831  0.0007734  0.0001972
  0.5000000  0.1577000 -0.0529915  0.0007856  0.0000023
  0.5125000  0.1577000 -0.0532091  0.0007162 -0.0000321
  0.4875000  0.1691000 -0.1284736  0.0007875  0.0002070
  0.4875000  0.1577000 -0.0527860  0.0008036  0.0000268
  0.4750000  0.1691000 -0.1282900  0.0007471  0.0001991
  0.4750000  0.1577000 -0.0525985  0.0007871  0.0000381
  0.4625000  0.1691000 -0.1281201  0.0007311  0.0001846
  0.4500000  0.1691000 -0.1279762  0.0006779  0.0001747
  0.4500000  0.1577000 -0.0522843  0.0007136  0.0000489
  0.4625000  0.1577000 -0.0524317  0.0007586  0.0000432
  0.4375000  0.1691000 -0.1278458  0.0006213  0.0001625
  0.4375000  0.1577000 -0.0521520  0.0006538  0.0000515
  0.4250000  0.1691000 -0.1277390  0.0005373  0.0001408
  0.4250000  0.1577000 -0.0520375  0.0005879  0.0000467
  0.4125000  0.1691000 -0.1276414  0.0004979  0.0001191
  0.4000000  0.1691000 -0.1275643  0.0004362  0.0001067
  0.4000000  0.1577000 -0.0518593  0.0004747  0.0000388
  0.4125000  0.1577000 -0.0519409  0.0005316  0.0000405
  0.3875000  0.1691000 -0.1274945  0.0003817  0.0000954
  0.3875000  0.1577000 -0.0517876  0.0004146  0.0000368
  0.3750000  0.1691000 -0.1274419  0.0003071  0.0000769
  0.3750000  0.1577000 -0.0517279  0.0003566  0.0000296
  0.3625000  0.1691000 -0.1273923  0.0002820  0.0000599
  0.3500000  0.1691000 -0.1273572  0.0002375  0.0000530
  0.3500000  0.1577000 -0.0516417  0.0002731  0.0000211
  0.3625000  0.1577000 -0.0516802  0.0003134  0.0000225
  0.3375000  0.1691000 -0.1273237  0.0002018  0.0000475
  0.3375000  0.1577000 -0.0516076  0.0002315  0.0000201
  0.3250000  0.1691000 -0.1273024  0.0001463  0.0000349
  0.3250000  0.1577000 -0.0515802  0.0001924  0.0000142
  0.3125000  0.1691000 -0.1272794  0.0001400  0.0000235
  0.3000000  0.1691000 -0.1272666  0.0001135  0.0000218
  0.3000000  0.1577000 -0.0515453  0.0001460  0.0000091
  0.3125000  0.1577000 -0.0515603  0.0001682  0.0000088
  0.2875000  0.1691000 -0.1272520  0.0000944  0.0000212
  0.2875000  0.1577000 -0.0515309  0.0001213  0.0000097
  0.2750000  0.1691000 -0.1272462  0.0000543  0.0000128
  0.2750000  0.1577000 -0.0515200  0.0000979  0.0000054
  0.2625000  0.1691000 -0.1272360  0.0000619  0.0000053
  0.2500000  0.1691000 -0.1272338  0.0000477  0.0000069
  0.2500000  0.1577000 -0.0515098  0.0000783  0.0000030
  0.2625000  0.1577000 -0.0515136  0.0000878  0.0000014
  0.2375000  0.1691000 -0.1272276  0.0000395  0.0000091
  0.2375000  0.1577000 -0.0515044  0.0000647  0.0000047
  0.2250000  0.1691000 -0.1272286  0.0000089  0.0000032
  0.2250000  0.1577000 -0.0515007  0.0000510  0.0000014
  0.2125000  0.1691000 -0.1272237  0.0000246 -0.0000024
  0.2000000  0.1691000 -0.1272256  0.0000174  0.0000010
  0.2000000  0.1577000 -0.0515007  0.0000470  0.0000005
  0.2125000  0.1577000 -0.0515001  0.0000493 -0.0000018
  0.1875000  0.1691000 -0.1272226  0.0000151  0.0000045
  0.1875000  0.1577000 -0.0514987  0.0000395  0.0000028
  0.1750000  0.1691000 -0.1272260 -0.0000105 -0.0000002
  0.1750000  0.1577000 -0.0514977  0.0000310 -0.0000001
  0.1625000  0.1691000 -0.1272230  0.0000093 -0.0000049
  0.1500000  0.1691000 -0.1272262  0.0000055 -0.0000008
  0.1500000  0.1577000 -0.0515010  0.0000347 -0.0000003
  0.1625000  0.1577000 -0.0514990  0.0000336 -0.0000028
  0.1375000  0.1691000 -0.1272240  0.0000060  0.0000034
  0.1375000  0.1577000 -0.0515000  0.0000301  0.0000023
  0.1250000  0.1691000 -0.1272280 -0.0000174 -0.0000010
  0.1250000  0.1577000 -0.0514996  0.0000239 -0.0000004
  0.1125000  0.1691000 -0.1272252  0.0000043 -0.0000052
  0.1000000  0.1691000 -0.1272285  0.0000019 -0.0000009
  0.1000000  0.1577000 -0.0515034  0.0000309 -0.0000004
  0.1125000  0.1577000 -0.0515013  0.0000283 -0.0000030
  0.0875000  0.1691000 -0.1272264  0.0000035  0.0000035
  0.0875000  0.1577000 -0.0515024  0.0000275  0.0000023
  0.0750000  0.1691000 -0.1272303 -0.0000191 -0.0000007
  0.0750000  0.1577000 -0.0515019  0.0000221 -0.0000003
  0.0625000  0.1691000 -0.1272273  0.0000032 -0.0000049
  0.0500000  0.1691000 -0.1272304  0.0000012 -0.0000005
  0.0500000  0.1577000 -0.0515053  0.0000302 -0.0000002
  0.0625000  0.1577000 -0.0515034  0.0000272 -0.0000029
  0.0375000  0.1691000 -0.1272280  0.0000031  0.0000039
  0.0375000  0.1577000 -0.0515041  0.0000271  0.0000025
  0.0250000  0.1691000 -0.1272315 -0.0000192 -0.0000003
  0.0250000  0.1577000 -0.0515032  0.0000219 -0.0000001
  0.0125000  0.1691000 -0.1272283  0.0000031 -0.0000044
  0.0000000  0.1691000 -0.1272310  0.0000012  0.0000000
  0.0000000  0.1577000 -0.0515060  0.0000302  0.0000000
  0.0125000  0.1577000 -0.0515044  0.0000271 -0.0000027
 -0.0125000  0.1691000 -0.1272283  0.0000031  0.0000044
 -0.0125000  0.1577000 -0.0515044  0.0000271  0.0000027
 -0.0250000  0.1691000 -0.1272315 -0.0000192  0.0000003
 -0.0250000  0.1577000 -0.0515032  0.0000219  0.0000001
 -0.0375000  0.1691000 -0.1272280  0.0000031 -0.0000039
 -0.0500000  0.1691000 -0.1272304  0.0000012  0.0000005
 -0.0500000  0.1577000 -0.0515053  0.0000302  0.0000002
 -0.0375000  0.1577000 -0.0515041  0.0000271 -0.0000025
 -0.0625000  0.1691000 -0.1272273  0.0000032  0.0000049
 -0.0625000  0.1577000 -0.0515034  0.0000272  0.0000029
 -0.0750000  0.1691000 -0.1272303 -0.0000191  0.0000007
 -0.0750000  0.1577000 -0.0515019  0.0000221  0.0000003
 -0.0875000  0.1691000 -0.1272264  0.0000035 -0.0000035
 -0.1000000  0.1691000 -0.1272285  0.0000019  0.0000009
 -0.1000000  0.1577000 -0.0515034  0.0000309  0.0000004
 -0.0875000  0.1577000 -0.0515024  0.0000275 -0.0000023
 -0.1125000  0.1691000 -0.1272252  0.0000043  0.0000052
 -0.1125000  0.1577000 -0.0515013  0.0000283  0.0000030
 -0.1250000  0.1691000 -0.1272280 -0.0000174  0.0000010
 -0.1250000  0.1577000 -0.0514996  0.0000239  0.0000004
 -0.1375000  0.1691000 -0.1272240  0.0000060 -0.0000034
 -0.1500000  0.1691000 -0.1272262  0.0000055  0.0000008
 -0.1500000  0.1577000 -0.0515010  0.0000347  0.0000003
 -0.1375000  0.1577000 -0.0515000  0.0000301 -0.0000023
 -0.1625000  0.1691000 -0.1272230  0.0000093  0.0000049
 -0.1625000  0.1577000 -0.0514990  0.0000336  0.0000028
 -0.1750000  0.1691000 -0.1272260 -0.0000105  0.0000002
 -0.1750000  0.1577000 -0.0514977  0.0000310  0.0000001
 -0.1875000  0.1691000 -0.1272226  0.0000151 -0.0000045
 -0.2000000  0.1691000 -0.1272256  0.0000174 -0.0000010
 -0.2000000  0.1577000 -0.0515007  0.0000470 -0.0000005
 -0.1875000  0.1577000 -0.0514987  0.0000395 -0.0000028
 -0.2125000  0.1691000 -0.1272237  0.0000246  0.0000024
 -0.2125000  0.1577000 -0.0515001  0.0000493  0.0000018
 -0.2250000  0.1691000 -0.1272286  0.0000089 -0.0000032
 -0.2250000  0.1577000 -0.0515007  0.0000510 -0.0000014
 -0.2375000  0.1691000 -0.1272276  0.0000395 -0.0000091
 -0.2500000  0.1691000 -0.1272338  0.0000477 -0.0000069
 -0.2500000  0.1577000 -0.0515098  0.0000783 -0.0000030
 -0.2375000  0.1577000 -0.0515044  0.0000647 -0.0000047
 -0.2625000  0.1691000 -0.1272360  0.0000619 -0.0000053
 -0.2625000  0.1577000 -0.0515136  0.0000878 -0.0000014
 -0.2750000  0.1691000 -0.1272462  0.0000543 -0.0000128
 -0.2750000  0.1577000 -0.0515200  0.0000979 -0.0000054
 -0.2875000  0.1691000 -0.1272520  0.0000944 -0.0000212
 -0.3000000  0.1691000 -0.1272666  0.0001135 -0.0000218
 -0.3000000  0.1577000 -0.0515453  0.0001460 -0.0000091
 -0.2875000  0.1577000 -0.0515309  0.0001213 -0.0000097
 -0.3125000  0.1691000 -0.1272794  0.0001400 -0.0000235
 -0.3125000  0.1577000 -0.0515603  0.0001682 -0.0000088
 -0.3250000  0.1691000 -0.1273024  0.0001463 -0.0000349
 -0.3250000  0.1577000 -0.0515802  0.0001924 -0.0000142
 -0.3375000  0.1691000 -0.1273237  0.0002018 -0.0000475
 -0.3500000  0.1691000 -0.1273572  0.0002375 -0.0000530
 -0.3500000  0.1577000 -0.0516417  0.0002731 -0.0000211
 -0.3375000  0.1577000 -0.0516076  0.0002315 -0.0000201
 -0.3625000  0.1691000 -0.1273923  0.0002820 -0.0000599
 -0.3625000  0.1577000 -0.0516802  0.0003134 -0.0000225
 -0.3750000  0.1691000 -0.1274419  0.0003071 -0.0000769
 -0.3750000  0.1577000 -0.0517279  0.0003566 -0.0000296
 -0.3875000  0.1691000 -0.1274945  0.0003817 -0.0000954
 -0.4000000  0.1691000 -0.1275643  0.0004362 -0.0001067
 -0.4000000  0.1577000 -0.0518593  0.0004747 -0.0000388
 -0.3875000  0.1577000 -0.0517876  0.0004146 -0.0000368
 -0.4125000  0.1691000 -0.1276414  0.0004979 -0.0001191
 -0.4125000  0.1577000 -0.0519409  0.0005316 -0.0000405
 -0.4250000  0.1691000 -0.1277390  0.0005373 -0.0001408
 -0.4250000  0.1577000 -0.0520375  0.0005879 -0.0000467
 -0.4375000  0.1691000 -0.1278458  0.0006213 -0.0001625
 -0.4500000  0.1691000 -0.1279762  0.0006779 -0.0001747
 -0.4500000  0.1577000 -0.0522843  0.0007136 -0.0000490
 -0.4375000  0.1577000 -0.0521520  0.0006538 -0.0000515
 -0.4625000  0.1691000 -0.1281201  0.0007311 -0.0001847
 -0.4625000  0.1577000 -0.0524317  0.0007586 -0.0000432
 -0.4750000  0.1691000 -0.1282900  0.0007472 -0.0001991
 -0.4750000  0.1577000 -0.0525986  0.0007872 -0.0000381
 -0.4875000  0.1691000 -0.1284737  0.0007876 -0.0002071
 -0.5000000  0.1691000 -0.1286834  0.0007736 -0.0001972
 -0.5000000  0.1577000 -0.0529917  0.0007856 -0.0000021
 -0.4875000  0.1577000 -0.0527861  0.0008037 -0.0000268
 -0.5125000  0.1691000 -0.1289061  0.0007207 -0.0001745
 -0.5125000  0.1577000 -0.0532091  0.0007158  0.0000327
 -0.5250000  0.1691000 -0.1291498  0.0005844 -0.0001434
 -0.5250000  0.1577000 -0.0534372  0.0005819  0.0000746
 -0.5375000  0.1691000 -0.1293952  0.0004125 -0.0000903
 -0.5500000  0.1691000 -0.1296446  0.0001097 -0.0000064
 -0.5500000  0.1577000 -0.0538978  0.0000616  0.0002054
 -0.5375000  0.1577000 -0.0536700  0.0003756  0.0001302
 -0.5625000  0.1691000 -0.1298134 -0.0003266  0.0001153
 -0.5625000  0.1577000 -0.0540967 -0.0003960  0.0003009
 -0.5750000  0.1691000 -0.1299965 -0.0009930  0.0002504
 -0.5750000  0.1577000 -0.0542581 -0.0010560  0.0003889
 -0.5875000  0.1691000 -0.1299832 -0.0017668  0.0004236
 -0.6000000  0.1690000 -0.1300167 -0.0028771  0.0006767
 -0.6000000  0.1577000 -0.0541931 -0.0030446  0.0006338
 -0.5875000  0.1577000 -0.0542832 -0.0018764  0.0004910
 -0.6124000  0.1690000 -0.1296218 -0.0043447  0.0008206
 -0.6124000  0.1577000 -0.0538032 -0.0044639  0.0005774
 -0.6249000  0.1690000 -0.1291734 -0.0063144  0.0009647
 -0.6249000  0.1576000 -0.0533908 -0.0062385  0.0005690
 -0.6374000  0.1690000 -0.1284818 -0.0086201  0.0010563
 -0.6498000  0.1689000 -0.1272231 -0.0115170  0.0008871
 -0.6498000  0.1576000 -0.0513876 -0.0111242 -0.0001439
 -0.6374000  0.1576000 -0.0525923 -0.0084316  0.0003613
 -0.6622000  0.1688000 -0.1253286 -0.0149683  0.0003387
 -0.6622000  0.1575000 -0.0498829 -0.0141895 -0.0009654
 -0.6747000  0.1687000 -0.1229710 -0.0189204 -0.0006467
 -0.6746000  0.1574000 -0.0478494 -0.0175221 -0.0022059
 -0.6871000  0.1686000 -0.1198234 -0.0232178 -0.0024904
 -0.6869000  0.1572000 -0.0451539 -0.0210987 -0.0042219
 -0.6867000  0.1460000  0.0286766 -0.0189731 -0.0054986
 -0.6745000  0.1462000  0.0266783 -0.0159819 -0.0033989
 -0.6989000  0.1458000  0.0313717 -0.0218370 -0.0082000
 -0.7111000  0.1453000  0.0350896 -0.0243781 -0.0115999
 -0.7233000  0.1444000  0.0419055 -0.0260323 -0.0158452
 -0.6621000  0.1462000  0.0249452 -0.0131095 -0.0019148
 -0.6621000  0.1350000  0.0993964 -0.0118976 -0.0027482
 -0.6497000  0.1351000  0.0986719 -0.0096308 -0.0015946
 -0.6497000  0.1463000  0.0237924 -0.0104442 -0.0008669
 -0.6621000  0.1239000  0.1736882 -0.0106399 -0.0033704
 -0.6497000  0.1238000  0.1732563 -0.0086282 -0.0021297
 -0.6373000  0.1463000  0.0227850 -0.0080451 -0.0001922
 -0.6373000  0.1351000  0.0979815 -0.0075667 -0.0007594
 -0.6249000  0.1351000  0.0974781 -0.0057623 -0.0001272
 -0.6249000  0.1463000  0.0220974 -0.0060381  0.0002165
 -0.6373000  0.1238000  0.1729105 -0.0068063 -0.0011696
 -0.6249000  0.1238000  0.1725707 -0.0052517 -0.0004139
 -0.6124000  0.1238000  0.1724112 -0.0038654 -0.0000209
 -0.6124000  0.1351000  0.0971171 -0.0041980  0.0001562
 -0.6000000  0.1238000  0.1723669 -0.0027576  0.0003860
 -0.6000000  0.1351000  0.0968930 -0.0029608  0.0004647
 -0.5875000  0.1238000  0.1723964 -0.0018355  0.0005364
 -0.5750000  0.1238000  0.1724312 -0.0010985  0.0006477
 -0.5750000  0.1351000  0.0968855 -0.0011390  0.0005812
 -0.5875000  0.1351000  0.0968463 -0.0019373  0.0005362
 -0.5625000  0.1238000  0.1725201 -0.0005302  0.0006926
 -0.5625000  0.1351000  0.0969918 -0.0005320  0.0005822
 -0.5500000  0.1238000  0.1726478 -0.0001041  0.0006950
 -0.5500000  0.1351000  0.0971407 -0.0000805  0.0005551
 -0.5375000  0.1238000  0.1728001  0.0002043  0.0006695
 -0.5250000  0.1238000  0.1729656  0.0004175  0.0006271
 -0.5250000  0.1351000  0.0975065  0.0004624  0.0004628
 -0.5375000  0.1351000  0.0973167  0.0002421  0.0005122
 -0.5125000  0.1238000  0.1731351  0.0005554  0.0005752
 -0.5125000  0.1351000  0.0976992  0.0006035  0.0004115
 -0.5000000  0.1238000  0.1733021  0.0006348  0.0005191
 -0.5000000  0.1351000  0.0978878  0.0006830  0.0003610
 -0.4875000  0.1238000  0.1734618  0.0006696  0.0004624
 -0.4750000  0.1238000  0.1736108  0.0006717  0.0004074
 -0.4750000  0.1351000  0.0982344  0.0007144  0.0002703
 -0.4875000  0.1351000  0.0980674  0.0007156  0.0003134
 -0.4625000  0.1238000  0.1737471  0.0006508  0.0003555
 -0.4625000  0.1351000  0.0983863  0.0006900  0.0002316
 -0.4500000  0.1238000  0.1738699  0.0006141  0.0003075
 -0.4500000  0.1351000  0.0985228  0.0006497  0.0001968
 -0.4375000  0.1238000  0.1739789  0.0005674  0.0002639
 -0.4250000  0.1238000  0.1740745  0.0005153  0.0002248
 -0.4250000  0.1351000  0.0987499  0.0005429  0.0001400
 -0.4375000  0.1351000  0.0986439  0.0005989  0.0001662
 -0.4125000  0.1238000  0.1741572  0.0004614  0.0001901
 -0.4125000  0.1351000  0.0988414  0.0004857  0.0001173
 -0.4000000  0.1238000  0.1742280  0.0004079  0.0001595
 -0.4000000  0.1351000  0.0989198  0.0004292  0.0000974
 -0.3875000  0.1238000  0.1742882  0.0003563  0.0001329
 -0.3750000  0.1238000  0.1743388  0.0003080  0.0001099
 -0.3750000  0.1351000  0.0990425  0.0003233  0.0000661
 -0.3875000  0.1351000  0.0989864  0.0003745  0.0000803
 -0.3625000  0.1238000  0.1743807  0.0002637  0.0000902
 -0.3625000  0.1351000  0.0990888  0.0002770  0.0000542
 -0.3500000  0.1238000  0.1744152  0.0002237  0.0000734
 -0.3500000  0.1351000  0.0991270  0.0002352  0.0000437
 -0.3375000  0.1238000  0.1744434  0.0001879  0.0000591
 -0.3250000  0.1238000  0.1744662  0.0001564  0.0000472
 -0.3250000  0.1351000  0.0991838  0.0001640  0.0000279
 -0.3375000  0.1351000  0.0991584  0.0001973  0.0000349
 -0.3125000  0.1238000  0.1744842  0.0001290  0.0000373
 -0.3125000  0.1351000  0.0992038  0.0001355  0.0000222
 -0.3000000  0.1238000  0.1744984  0.0001055  0.0000291
 -0.3000000  0.1351000  0.0992196  0.0001111  0.0000171
 -0.2875000  0.1238000  0.1745095  0.0000852  0.0000223
 -0.2750000  0.1238000  0.1745179  0.0000681  0.0000169
 -0.2750000  0.1351000  0.0992417  0.0000714  0.0000099
 -0.2875000  0.1351000  0.0992321  0.0000896  0.0000129
 -0.2625000  0.1238000  0.1745241  0.0000539  0.0000125
 -0.2625000  0.1351000  0.0992487  0.0000567  0.0000075
 -0.2500000  0.1238000  0.1745286  0.0000421  0.0000089
 -0.2500000  0.1351000  0.0992537  0.0000446  0.0000052
 -0.2375000  0.1238000  0.1745318  0.0000323  0.0000061
 -0.2250000  0.1238000  0.1745340  0.0000242  0.0000040
 -0.2250000  0.1351000  0.0992602  0.0000253  0.0000024
 -0.2375000  0.1351000  0.0992576  0.0000340  0.0000034
 -0.2125000  0.1238000  0.1745353  0.0000179  0.0000024
 -0.2125000  0.1351000  0.0992616  0.0000189  0.0000016
 -0.2000000  0.1238000  0.1745359  0.0000128  0.0000011
 -0.2000000  0.1351000  0.0992624  0.0000138  0.0000007
 -0.1875000  0.1238000  0.1745362  0.0000087  0.0000002
 -0.1750000  0.1238000  0.1745361  0.0000055 -0.0000004
 -0.1750000  0.1351000  0.0992630  0.0000056 -0.0000002
 -0.1875000  0.1351000  0.0992629  0.0000092 -0.0000001
 -0.1625000  0.1238000  0.1745358  0.0000031 -0.0000008
 -0.1625000  0.1351000  0.0992626  0.0000034 -0.0000003
 -0.1500000  0.1238000  0.1745353  0.0000014 -0.0000011
 -0.1500000  0.1351000  0.0992620  0.0000017 -0.0000006
 -0.1375000  0.1238000  0.1745347 -0.0000001 -0.0000013
 -0.1250000  0.1238000  0.1745342 -0.0000011 -0.0000013
 -0.1250000  0.1351000  0.0992611 -0.0000014 -0.0000008
 -0.1375000  0.1351000  0.0992616 -0.0000000 -0.0000010
 -0.1125000  0.1238000  0.1745335 -0.0000017 -0.0000012
 -0.1125000  0.1351000  0.0992603 -0.0000018 -0.0000005
 -0.1000000  0.1238000  0.1745329 -0.0000021 -0.0000012
 -0.1000000  0.1351000  0.0992596 -0.0000020 -0.0000007
 -0.0875000  0.1238000  0.1745324 -0.0000025 -0.0000012
 -0.0750000  0.1238000  0.1745320 -0.0000028 -0.0000010
 -0.0750000  0.1351000  0.0992588 -0.0000031 -0.0000006
 -0.0875000  0.1351000  0.0992592 -0.0000026 -0.0000009
 -0.0625000  0.1238000  0.1745315 -0.0000028 -0.0000008
 -0.0625000  0.1351000  0.0992582 -0.0000029 -0.0000003
 -0.0500000  0.1238000  0.1745312 -0.0000028 -0.0000007
 -0.0500000  0.1351000  0.0992577 -0.0000027 -0.0000004
 -0.0375000  0.1238000  0.1745309 -0.0000029 -0.0000006
 -0.0250000  0.1238000  0.1745308 -0.0000029 -0.0000003
 -0.0250000  0.1351000  0.0992575 -0.0000033 -0.0000002
 -0.0375000  0.1351000  0.0992576 -0.0000030 -0.0000005
 -0.0125000  0.1238000  0.1745306 -0.0000028 -0.0000001
 -0.0125000  0.1351000  0.0992573 -0.0000030  0.0000001
  0.0000000  0.1238000  0.1745306 -0.0000028 -0.0000000
  0.0000000  0.1351000  0.0992571 -0.0000027 -0.0000000
  0.0125000  0.1238000  0.1745306 -0.0000028  0.0000001
  0.0250000  0.1238000  0.1745308 -0.0000029  0.0000003
  0.0250000  0.1351000  0.0992575 -0.0000033  0.0000002
  0.0125000  0.1351000  0.0992573 -0.0000030 -0.0000001
  0.0375000  0.1238000  0.1745309 -0.0000029  0.0000006
  0.0375000  0.1351000  0.0992576 -0.0000030  0.0000005
  0.0500000  0.1238000  0.1745312 -0.0000028  0.0000007
  0.0500000  0.1351000  0.0992577 -0.0000027  0.0000004
  0.0625000  0.1238000  0.1745315 -0.0000028  0.0000008
  0.0750000  0.1238000  0.1745320 -0.0000028  0.0000010
  0.0750000  0.1351000  0.0992588 -0.0000031  0.0000006
  0.0625000  0.1351000  0.0992582 -0.0000029  0.0000003
  0.0875000  0.1238000  0.1745324 -0.0000025  0.0000012
  0.0875000  0.1351000  0.0992592 -0.0000026  0.0000009
  0.1000000  0.1238000  0.1745329 -0.0000021  0.0000012
  0.1000000  0.1351000  0.0992596 -0.0000020  0.0000007
  0.1125000  0.1238000  0.1745335 -0.0000017  0.0000012
  0.1250000  0.1238000  0.1745342 -0.0000011  0.0000013
  0.1250000  0.1351000  0.0992611 -0.0000014  0.0000008
  0.1125000  0.1351000  0.0992603 -0.0000018  0.0000005
  0.1375000  0.1238000  0.1745347 -0.0000001  0.0000013
  0.1375000  0.1351000  0.0992616 -0.0000000  0.0000010
  0.1500000  0.1238000  0.1745353  0.0000014  0.0000011
  0.1500000  0.1351000  0.0992620  0.0000017  0.0000006
  0.1625000  0.1238000  0.1745358  0.0000031  0.0000008
  0.1750000  0.1238000  0.1745361  0.0000055  0.0000004
  0.1750000  0.1351000  0.0992630  0.0000056  0.0000002
  0.1625000  0.1351000  0.0992626  0.0000034  0.0000003
  0.1875000  0.1238000  0.1745362  0.0000087 -0.0000002
  0.1875000  0.1351000  0.0992629  0.0000092  0.0000001
  0.2000000  0.1238000  0.1745359  0.0000128 -0.0000011
  0.2000000  0.1351000  0.0992624  0.0000138 -0.0000007
  0.2125000  0.1238000  0.1745353  0.0000179 -0.0000024
  0.2250000  0.1238000  0.1745340  0.0000242 -0.0000040
  0.2250000  0.1351000  0.0992602  0.0000253 -0.0000024
  0.2125000  0.1351000  0.0992616  0.0000189 -0.0000016
  0.2375000  0.1238000  0.1745318  0.0000323 -0.0000061
  0.2375000  0.1351000  0.0992576  0.0000340 -0.0000034
  0.2500000  0.1238000  0.1745286  0.0000421 -0.0000089
  0.2500000  0.1351000  0.0992537  0.0000446 -0.0000052
  0.2625000  0.1238000  0.1745241  0.0000539 -0.0000125
  0.2750000  0.1238000  0.1745179  0.0000681 -0.0000169
  0.2750000  0.1351000  0.0992417  0.0000714 -0.0000099
  0.2625000  0.1351000  0.0992487  0.0000567 -0.0000075
  0.2875000  0.1238000  0.1745095  0.0000852 -0.0000223
  0.2875000  0.1351000  0.0992321  0.0000896 -0.0000129
  0.3000000  0.1238000  0.1744984  0.0001055 -0.0000291
  0.3000000  0.1351000  0.0992196  0.0001111 -0.0000171
  0.3125000  0.1238000  0.1744842  0.0001290 -0.0000373
  0.3250000  0.1238000  0.1744662  0.0001563 -0.0000472
  0.3250000  0.1351000  0.0991838  0.0001640 -0.0000279
  0.3125000  0.1351000  0.0992038  0.0001355 -0.0000222
  0.3375000  0.1238000  0.1744434  0.0001879 -0.0000591
  0.3375000  0.1351000  0.0991584  0.0001973 -0.0000349
  0.3500000  0.1238000  0.1744152  0.0002237 -0.0000734
  0.3500000  0.1351000  0.0991270  0.0002352 -0.0000437
  0.3625000  0.1238000  0.1743807  0.0002637 -0.0000903
  0.3750000  0.1238000  0.1743388  0.0003080 -0.0001099
  0.3750000  0.1351000  0.0990425  0.0003233 -0.0000661
  0.3625000  0.1351000  0.0990888  0.0002770 -0.0000542
  0.3875000  0.1238000  0.1742882  0.0003563 -0.0001329
  0.3875000  0.1351000  0.0989864  0.0003745 -0.0000803
  0.4000000  0.1238000  0.1742281  0.0004079 -0.0001596
  0.4000000  0.1351000  0.0989198  0.0004292 -0.0000974
  0.4125000  0.1238000  0.1741572  0.0004614 -0.0001901
  0.4250000  0.1238000  0.1740745  0.0005153 -0.0002248
  0.4250000  0.1351000  0.0987500  0.0005428 -0.0001400
  0.4125000  0.1351000  0.0988414  0.0004857 -0.0001173
  0.4375000  0.1238000  0.1739789  0.0005674 -0.0002639
  0.4375000  0.1351000  0.0986440  0.0005989 -0.0001662
  0.4500000  0.1238000  0.1738699  0.0006141 -0.0003075
  0.4500000  0.1351000  0.0985228  0.0006497 -0.0001968
  0.4625000  0.1238000  0.1737472  0.0006508 -0.0003555
  0.4750000  0.1238000  0.1736108  0.0006718 -0.0004074
  0.4750000  0.1351000  0.0982344  0.0007144 -0.0002703
  0.4625000  0.1351000  0.0983864  0.0006900 -0.0002316
  0.4875000  0.1238000  0.1734618  0.0006697 -0.0004623
  0.4875000  0.1351000  0.0980675  0.0007157 -0.0003134
  0.5000000  0.1238000  0.1733021  0.0006349 -0.0005191
  0.5000000  0.1351000  0.0978878  0.0006832 -0.0003609
  0.5125000  0.1238000  0.1731351  0.0005556 -0.0005753
  0.5250000  0.1238000  0.1729655  0.0004176 -0.0006273
  0.5250000  0.1351000  0.0975064  0.0004627 -0.0004631
  0.5125000  0.1351000  0.0976991  0.0006038 -0.0004116
  0.5375000  0.1238000  0.1728002  0.0002042 -0.0006697
  0.5375000  0.1351000  0.0973168  0.0002419 -0.0005125
  0.5500000  0.1238000  0.1726479 -0.0001043 -0.0006951
  0.5500000  0.1351000  0.0971409 -0.0000810 -0.0005551
  0.5625000  0.1238000  0.1725202 -0.0005302 -0.0006925
  0.5750000  0.1238000  0.1724313 -0.0010983 -0.0006475
  0.5750000  0.1351000  0.0968854 -0.0011387 -0.0005809
  0.5625000  0.1351000  0.0969919 -0.0005321 -0.0005820
  0.5875000  0.1238000  0.1723966 -0.0018352 -0.0005363
  0.5875000  0.1351000  0.0968460 -0.0019369 -0.0005361
  0.6000000  0.1238000  0.1723672 -0.0027570 -0.0003862
  0.6124000  0.1238000  0.1724110 -0.0038635  0.0000207
  0.6249000  0.1238000  0.1725692 -0.0052453  0.0004187
  0.6373000  0.1238000  0.1727460 -0.0068324  0.0011632
  0.6497000  0.1239000  0.1731322 -0.0086280  0.0021296
  0.5875000  0.1464000  0.0213332 -0.0019584 -0.0005275
  0.5750000  0.1464000  0.0213927 -0.0011317 -0.0004974
  0.5625000  0.1464000  0.0215223 -0.0004998 -0.0004525
  0.5500000  0.1464000  0.0216949 -0.0000362 -0.0003931
  0.5375000  0.1464000  0.0218959  0.0002894 -0.0003333
  0.5250000  0.1464000  0.0221081  0.0005092 -0.0002785
  0.5125000  0.1464000  0.0223207  0.0006482 -0.0002293
  0.5000000  0.1464000  0.0225267  0.0007239 -0.0001858
  0.4875000  0.1464000  0.0227218  0.0007509 -0.0001492
  0.4750000  0.1464000  0.0229017  0.0007441 -0.0001204
  0.4625000  0.1464000  0.0230641  0.0007164 -0.0000971
  0.4500000  0.1464000  0.0232091  0.0006730 -0.0000767
  0.4375000  0.1464000  0.0233379  0.0006180 -0.0000601
  0.4250000  0.1464000  0.0234503  0.0005581 -0.0000484
  0.4125000  0.1464000  0.0235465  0.0004994 -0.0000392
  0.4000000  0.1464000  0.0236286  0.0004415 -0.0000304
  0.3875000  0.1464000  0.0236991  0.0003841 -0.0000232
  0.3750000  0.1464000  0.0237582  0.0003304 -0.0000189
  0.3625000  0.1464000  0.0238065  0.0002837 -0.0000157
  0.3500000  0.1464000  0.0238462  0.0002415 -0.0000117
  0.3375000  0.1464000  0.0238795  0.0002019 -0.0000083
  0.3250000  0.1464000  0.0239064  0.0001668 -0.0000071
  0.3125000  0.1464000  0.0239271  0.0001386 -0.0000063
  0.3000000  0.1464000  0.0239433  0.0001144 -0.0000042
  0.2875000  0.1464000  0.0239568  0.0000917 -0.0000023
  0.2750000  0.1464000  0.0239672  0.0000721 -0.0000023
  0.2625000  0.1464000  0.0239742  0.0000580 -0.0000025
  0.2500000  0.1464000  0.0239792  0.0000464 -0.0000012
  0.2375000  0.1464000  0.0239836  0.0000348  0.0000000
  0.2250000  0.1464000  0.0239868  0.0000250 -0.0000005
  0.2125000  0.1464000  0.0239880  0.0000194 -0.0000011
  0.2000000  0.1464000  0.0239885  0.0000150 -0.0000001
  0.1875000  0.1464000  0.0239894  0.0000095  0.0000008
  0.1750000  0.1464000  0.0239899  0.0000048  0.0000001
  0.1625000  0.1464000  0.0239892  0.0000035 -0.0000007
  0.1500000  0.1464000  0.0239882  0.0000027  0.0000002
  0.1375000  0.1464000  0.0239882  0.0000001  0.0000010
  0.1250000  0.1464000  0.0239880 -0.0000023  0.0000002
  0.1125000  0.1464000  0.0239869 -0.0000017 -0.0000006
  0.1000000  0.1464000  0.0239858 -0.0000012  0.0000002
  0.0875000  0.1464000  0.0239857 -0.0000026  0.0000010
  0.0750000  0.1464000  0.0239857 -0.0000041  0.0000001
  0.0625000  0.1464000  0.0239848 -0.0000029 -0.0000007
  0.0500000  0.1464000  0.0239839 -0.0000019  0.0000001
  0.0375000  0.1464000  0.0239841 -0.0000030  0.0000009
  0.0250000  0.1464000  0.0239843 -0.0000043  0.0000000
  0.0125000  0.1464000  0.0239838 -0.0000030 -0.0000008
  0.0000000  0.1464000  0.0239832 -0.0000019  0.0000000
 -0.0125000  0.1464000  0.0239838 -0.0000030  0.0000008
 -0.0250000  0.1464000  0.0239843 -0.0000043 -0.0000000
 -0.0375000  0.1464000  0.0239841 -0.0000030 -0.0000009
 -0.0500000  0.1464000  0.0239839 -0.0000019 -0.0000001
 -0.0625000  0.1464000  0.0239848 -0.0000029  0.0000007
 -0.0750000  0.1464000  0.0239857 -0.0000041 -0.0000001
 -0.0875000  0.1464000  0.0239857 -0.0000026 -0.0000010
 -0.1000000  0.1464000  0.0239858 -0.0000012 -0.0000002
 -0.1125000  0.1464000  0.0239869 -0.0000017  0.0000006
 -0.1250000  0.1464000  0.0239880 -0.0000023 -0.0000002
 -0.1375000  0.1464000  0.0239882  0.0000001 -0.0000010
 -0.1500000  0.1464000  0.0239882  0.0000027 -0.0000002
 -0.1625000  0.1464000  0.0239892  0.0000035  0.0000007
 -0.1750000  0.1464000  0.0239899  0.0000048 -0.0000001
 -0.1875000  0.1464000  0.0239894  0.0000095 -0.0000008
 -0.2000000  0.1464000  0.0239885  0.0000150  0.0000001
 -0.2125000  0.1464000  0.0239880  0.0000194  0.0000011
 -0.2250000  0.1464000  0.0239868  0.0000250  0.0000005
 -0.2375000  0.1464000  0.0239836  0.0000348 -0.0000000
 -0.2500000  0.1464000  0.0239792  0.0000464  0.0000012
 -0.2625000  0.1464000  0.0239742  0.0000580  0.0000025
 -0.2750000  0.1464000  0.0239672  0.0000721  0.0000023
 -0.2875000  0.1464000  0.0239568  0.0000917  0.0000023
 -0.3000000  0.1464000  0.0239433  0.0001144  0.0000042
 -0.3125000  0.1464000  0.0239271  0.0001386  0.0000063
 -0.3250000  0.1464000  0.0239064  0.0001668  0.0000071
 -0.3375000  0.1464000  0.0238795  0.0002019  0.0000083
 -0.3500000  0.1464000  0.0238462  0.0002415  0.0000117
 -0.3625000  0.1464000  0.0238065  0.0002837  0.0000157
 -0.3750000  0.1464000  0.0237582  0.0003304  0.0000189
 -0.3875000  0.1464000  0.0236991  0.0003841  0.0000232
 -0.4000000  0.1464000  0.0236286  0.0004415  0.0000303
 -0.4125000  0.1464000  0.0235465  0.0004994  0.0000392
 -0.4250000  0.1464000  0.0234503  0.0005581  0.0000484
 -0.4375000  0.1464000  0.0233379  0.0006180  0.0000601
 -0.4500000  0.1464000  0.0232090  0.0006730  0.0000767
 -0.4625000  0.1464000  0.0230640  0.0007164  0.0000971
 -0.4750000  0.1464000  0.0229017  0.0007441  0.0001204
 -0.4875000  0.1464000  0.0227217  0.0007509  0.0001493
 -0.5000000  0.1464000  0.0225267  0.0007237  0.0001860
 -0.5125000  0.1464000  0.0223209  0.0006476  0.0002295
 -0.5250000  0.1464000  0.0221085  0.0005085  0.0002781
 -0.5375000  0.1464000  0.0218958  0.0002897  0.0003325
 -0.5500000  0.1464000  0.0216946 -0.0000349  0.0003931
 -0.5625000  0.1464000  0.0215223 -0.0004995  0.0004532
 -0.5750000  0.1464000  0.0213931 -0.0011324  0.0004978
 -0.5875000  0.1464000  0.0213336 -0.0019590  0.0005276
 -0.6000000  0.1464000  0.0213704 -0.0030641  0.0005543
 -0.6124000  0.1464000  0.0217044 -0.0043978  0.0003594
  0.6621000  0.1239000  0.1735247 -0.0106739  0.0033717
 -0.7305000  0.1240000  0.1754227 -0.0206065 -0.0183243
 -0.7334000  0.1314000  0.1305373 -0.0235837 -0.0206294
 -0.7362000  0.1428000  0.0576875 -0.0273527 -0.0213894
 -0.7500000  0.1422000  0.0636594 -0.0269200 -0.0248003
 -0.7638000  0.1428000  0.0572542 -0.0273085 -0.0283282
 -0.7666000  0.1315000  0.1292903 -0.0236270 -0.0285870
 -0.7767000  0.1444000  0.0412004 -0.0260204 -0.0339614
 -0.7695000  0.1240000  0.1730198 -0.0207861 -0.0300561
 -0.7889000  0.1453000  0.0342307 -0.0243697 -0.0382366
 -0.8011000  0.1458000  0.0303407 -0.0218297 -0.0416428
 -0.8133000  0.1460000  0.0275073 -0.0189767 -0.0443400
 -0.8255000  0.1462000  0.0253903 -0.0159836 -0.0464452
 -0.8379000  0.1462000  0.0234866 -0.0131161 -0.0479209
 -0.8503000  0.1463000  0.0221461 -0.0104244 -0.0489760
 -0.8503000  0.1351000  0.0919406 -0.0095941 -0.0477880
 -0.8379000  0.1350000  0.0935006 -0.0119071 -0.0466266
 -0.8627000  0.1463000  0.0209525 -0.0080545 -0.0496572
 -0.8627000  0.1351000  0.0904480 -0.0075700 -0.0486292
 -0.8626000  0.1576000 -0.0487758 -0.0084325 -0.0501085
 -0.8751000  0.1576000 -0.0491312 -0.0062425 -0.0503122
 -0.8751000  0.1463000  0.0200795 -0.0060447 -0.0500576
 -0.8751000  0.1351000  0.0891845 -0.0057616 -0.0492441
 -0.8626000  0.1690000 -0.1189861 -0.0086175 -0.0501235
 -0.8751000  0.1690000 -0.1186177 -0.0063109 -0.0500351
 -0.8876000  0.1464000  0.0194908 -0.0043978 -0.0502076
 -0.8876000  0.1577000 -0.0491132 -0.0044648 -0.0503229
 -0.9000000  0.1577000 -0.0490540 -0.0030435 -0.0503701
 -0.9000000  0.1464000  0.0189718 -0.0030617 -0.0503945
 -0.9000000  0.1351000  0.0869639 -0.0029588 -0.0498417
 -0.8876000  0.1351000  0.0880080 -0.0041969 -0.0495399
 -0.8876000  0.1690000 -0.1180010 -0.0043486 -0.0498883
 -0.9000000  0.1690000 -0.1173112 -0.0028806 -0.0497375
 -0.9125000  0.1691000 -0.1162231 -0.0017697 -0.0494888
 -0.9125000  0.1577000 -0.0487099 -0.0018802 -0.0502324
 -0.9250000  0.1691000 -0.1151627 -0.0009856 -0.0493173
 -0.9250000  0.1577000 -0.0482496 -0.0010552 -0.0501292
 -0.9375000  0.1691000 -0.1139163 -0.0003205 -0.0491751
 -0.9500000  0.1691000 -0.1126826  0.0000963 -0.0490559
 -0.9500000  0.1577000 -0.0470292  0.0000534 -0.0499456
 -0.9375000  0.1577000 -0.0476582 -0.0004001 -0.0500384
 -0.9625000  0.1691000 -0.1113702  0.0004176 -0.0489758
 -0.9625000  0.1577000 -0.0463731  0.0003718 -0.0498720
 -0.9750000  0.1691000 -0.1100649  0.0005888 -0.0489170
 -0.9750000  0.1577000 -0.0457117  0.0005798 -0.0498143
 -0.9875000  0.1691000 -0.1087599  0.0007192 -0.0488866
 -1.0000000  0.1691000 -0.1074774  0.0007727 -0.0488651
 -1.0000000  0.1577000 -0.0444065  0.0007800 -0.0497374
 -0.9875000  0.1577000 -0.0450536  0.0007114 -0.0497715
 -1.0125000  0.1691000 -0.1062084  0.0007867 -0.0488560
 -1.0125000  0.1577000 -0.0437721  0.0007983 -0.0497133
 -1.0250000  0.1691000 -0.1049636  0.0007501 -0.0488626
 -1.0250000  0.1577000 -0.0431556  0.0007825 -0.0497016
 -1.0375000  0.1691000 -0.1037337  0.0007295 -0.0488768
 -1.0500000  0.1691000 -0.1025294  0.0006770 -0.0488877
 -1.0500000  0.1577000 -0.0419824  0.0007069 -0.0496907
 -1.0375000  0.1577000 -0.0425594  0.0007527 -0.0496960
 -1.0625000  0.1691000 -0.1013396  0.0006203 -0.0489007
 -1.0625000  0.1577000 -0.0414213  0.0006475 -0.0496887
 -1.0750000  0.1691000 -0.1001715  0.0005408 -0.0489208
 -1.0750000  0.1577000 -0.0408778  0.0005825 -0.0496930
 -1.0875000  0.1691000 -0.0990141  0.0004962 -0.0489422
 -1.1000000  0.1691000 -0.0978764  0.0004352 -0.0489557
 -1.1000000  0.1577000 -0.0398406  0.0004669 -0.0497009
 -1.0875000  0.1577000 -0.0403517  0.0005247 -0.0496986
 -1.1125000  0.1691000 -0.0967474  0.0003805 -0.0489679
 -1.1125000  0.1577000 -0.0393401  0.0004073 -0.0497035
 -1.1250000  0.1691000 -0.0956334  0.0003112 -0.0489847
 -1.1250000  0.1577000 -0.0388514  0.0003503 -0.0497101
 -1.1375000  0.1691000 -0.0945240  0.0002802 -0.0490013
 -1.1500000  0.1691000 -0.0934282  0.0002364 -0.0490094
 -1.1500000  0.1577000 -0.0379061  0.0002643 -0.0497186
 -1.1375000  0.1577000 -0.0383742  0.0003056 -0.0497164
 -1.1625000  0.1691000 -0.0923356  0.0002004 -0.0490159
 -1.1625000  0.1577000 -0.0374431  0.0002232 -0.0497203
 -1.1750000  0.1691000 -0.0912527  0.0001510 -0.0490267
 -1.1750000  0.1577000 -0.0369869  0.0001854 -0.0497254
 -1.1875000  0.1691000 -0.0901700  0.0001380 -0.0490375
 -1.2000000  0.1691000 -0.0890966  0.0001122 -0.0490405
 -1.2000000  0.1577000 -0.0360927  0.0001360 -0.0497306
 -1.1875000  0.1577000 -0.0365374  0.0001594 -0.0497300
 -1.2125000  0.1691000 -0.0880228  0.0000929 -0.0490424
 -1.2125000  0.1577000 -0.0356496  0.0001121 -0.0497307
 -1.2250000  0.1691000 -0.0869554  0.0000595 -0.0490488
 -1.2250000  0.1577000 -0.0352098  0.0000900 -0.0497342
 -1.2375000  0.1691000 -0.0858857  0.0000596 -0.0490556
 -1.2500000  0.1691000 -0.0848226  0.0000463 -0.0490554
 -1.2500000  0.1577000 -0.0343402  0.0000672 -0.0497367
 -1.2375000  0.1577000 -0.0347738  0.0000780 -0.0497373
 -1.2625000  0.1691000 -0.0837574  0.0000377 -0.0490546
 -1.2625000  0.1577000 -0.0339062  0.0000545 -0.0497358
 -1.2750000  0.1691000 -0.0826966  0.0000146 -0.0490584
 -1.2750000  0.1577000 -0.0334736  0.0000423 -0.0497382
 -1.2875000  0.1691000 -0.0816324  0.0000222 -0.0490631
 -1.3000000  0.1691000 -0.0805734  0.0000159 -0.0490614
 -1.3000000  0.1577000 -0.0326142  0.0000348 -0.0497392
 -1.2875000  0.1577000 -0.0330434  0.0000386 -0.0497404
 -1.3125000  0.1691000 -0.0795114  0.0000132 -0.0490593
 -1.3125000  0.1577000 -0.0321836  0.0000283 -0.0497378
 -1.3250000  0.1691000 -0.0784530 -0.0000042 -0.0490618
 -1.3250000  0.1577000 -0.0317537  0.0000215 -0.0497397
 -1.3375000  0.1691000 -0.0773906  0.0000067 -0.0490654
 -1.3500000  0.1691000 -0.0763328  0.0000039 -0.0490631
 -1.3500000  0.1577000 -0.0308976  0.0000214 -0.0497400
 -1.3375000  0.1577000 -0.0313254  0.0000218 -0.0497414
 -1.3625000  0.1691000 -0.0752718  0.0000039 -0.0490606
 -1.3625000  0.1577000 -0.0304680  0.0000179 -0.0497384
 -1.3750000  0.1691000 -0.0742138 -0.0000105 -0.0490626
 -1.3750000  0.1577000 -0.0300388  0.0000135 -0.0497400
 -1.3875000  0.1691000 -0.0731518  0.0000015 -0.0490657
 -1.4000000  0.1691000 -0.0720940  0.0000001 -0.0490632
 -1.4000000  0.1577000 -0.0291830  0.0000166 -0.0497401
 -1.3875000  0.1577000 -0.0296107  0.0000155 -0.0497415
 -1.4125000  0.1691000 -0.0710332  0.0000011 -0.0490607
 -1.4125000  0.1577000 -0.0287535  0.0000142 -0.0497385
 -1.4250000  0.1691000 -0.0699749 -0.0000117 -0.0490624
 -1.4250000  0.1577000 -0.0283242  0.0000109 -0.0497399
 -1.4375000  0.1691000 -0.0689129  0.0000002 -0.0490652
 -1.4500000  0.1691000 -0.0678548 -0.0000007 -0.0490628
 -1.4500000  0.1577000 -0.0274680  0.0000148 -0.0497399
 -1.4375000  0.1577000 -0.0278960  0.0000134 -0.0497413
 -1.4625000  0.1691000 -0.0667937  0.0000006 -0.0490604
 -1.4625000  0.1577000 -0.0270382  0.0000129 -0.0497384
 -1.4750000  0.1691000 -0.0657350 -0.0000113 -0.0490619
 -1.4750000  0.1577000 -0.0266087  0.0000099 -0.0497397
 -1.4875000  0.1691000 -0.0646728 -0.0000001 -0.0490646
 -1.5000000  0.1691000 -0.0636143 -0.0000008 -0.0490623
 -1.5000000  0.1577000 -0.0257517  0.0000136 -0.0497397
 -1.4875000  0.1577000 -0.0261801  0.0000123 -0.0497410
 -1.5125000  0.1691000 -0.0625530  0.0000004 -0.0490600
 -1.5125000  0.1577000 -0.0253217  0.0000119 -0.0497383
 -1.5250000  0.1691000 -0.0614939 -0.0000108 -0.0490614
 -1.5250000  0.1577000 -0.0248918  0.0000091 -0.0497395
 -1.5375000  0.1691000 -0.0604314 -0.0000003 -0.0490639
 -1.5500000  0.1691000 -0.0593725 -0.0000009 -0.0490618
 -1.5500000  0.1577000 -0.0240341  0.0000126 -0.0497395
 -1.5375000  0.1577000 -0.0244628  0.0000113 -0.0497407
 -1.5625000  0.1691000 -0.0583110  0.0000002 -0.0490597
 -1.5625000  0.1577000 -0.0236038  0.0000109 -0.0497382
 -1.5750000  0.1691000 -0.0572515 -0.0000101 -0.0490609
 -1.5750000  0.1577000 -0.0231736  0.0000084 -0.0497393
 -1.5875000  0.1691000 -0.0561889 -0.0000001 -0.0490633
 -1.6000000  0.1691000 -0.0551296 -0.0000004 -0.0490614
 -1.6000000  0.1577000 -0.0223152  0.0000122 -0.0497393
 -1.5875000  0.1577000 -0.0227443  0.0000107 -0.0497404
 -1.6125000  0.1691000 -0.0540679  0.0000012 -0.0490595
 -1.6125000  0.1577000 -0.0218847  0.0000111 -0.0497381
 -1.6250000  0.1691000 -0.0530081 -0.0000078 -0.0490607
 -1.6250000  0.1577000 -0.0214544  0.0000094 -0.0497392
 -1.6375000  0.1691000 -0.0519455  0.0000022 -0.0490631
 -1.6500000  0.1691000 -0.0508861  0.0000031 -0.0490615
 -1.6500000  0.1577000 -0.0205958  0.0000148 -0.0497394
 -1.6375000  0.1577000 -0.0210250  0.0000124 -0.0497403
 -1.6625000  0.1691000 -0.0498246  0.0000060 -0.0490600
 -1.6625000  0.1577000 -0.0201656  0.0000153 -0.0497383
 -1.6750000  0.1691000 -0.0487650 -0.0000004 -0.0490613
 -1.6750000  0.1577000 -0.0197357  0.0000157 -0.0497395
 -1.6875000  0.1691000 -0.0477031  0.0000111 -0.0490641
 -1.7000000  0.1691000 -0.0466445  0.0000149 -0.0490632
 -1.7000000  0.1577000 -0.0188786  0.0000260 -0.0497400
 -1.6875000  0.1577000 -0.0193068  0.0000208 -0.0497407
 -1.7125000  0.1691000 -0.0455844  0.0000211 -0.0490625
 -1.7125000  0.1577000 -0.0184498  0.0000302 -0.0497394
 -1.7250000  0.1691000 -0.0445265  0.0000196 -0.0490647
 -1.7250000  0.1577000 -0.0180219  0.0000350 -0.0497408
 -1.7375000  0.1691000 -0.0434671  0.0000354 -0.0490684
 -1.7500000  0.1691000 -0.0424117  0.0000451 -0.0490691
 -1.7500000  0.1577000 -0.0171708  0.0000563 -0.0497424
 -1.7375000  0.1577000 -0.0175956  0.0000450 -0.0497424
 -1.7625000  0.1691000 -0.0413559  0.0000583 -0.0490702
 -1.7625000  0.1577000 -0.0167466  0.0000677 -0.0497426
 -1.7750000  0.1691000 -0.0403032  0.0000657 -0.0490743
 -1.7750000  0.1577000 -0.0163244  0.0000811 -0.0497448
 -1.7875000  0.1691000 -0.0392507  0.0000901 -0.0490803
 -1.8000000  0.1691000 -0.0382036  0.0001106 -0.0490841
 -1.8000000  0.1577000 -0.0154895  0.0001229 -0.0497487
 -1.7875000  0.1577000 -0.0159054  0.0001007 -0.0497473
 -1.8125000  0.1691000 -0.0371583  0.0001359 -0.0490890
 -1.8125000  0.1577000 -0.0150764  0.0001470 -0.0497505
 -1.8250000  0.1691000 -0.0361182  0.0001576 -0.0490971
 -1.8250000  0.1577000 -0.0146678  0.0001746 -0.0497545
 -1.8375000  0.1691000 -0.0350811  0.0001961 -0.0491079
 -1.8500000  0.1691000 -0.0340523  0.0002328 -0.0491175
 -1.8500000  0.1577000 -0.0138688  0.0002483 -0.0497633
 -1.8375000  0.1577000 -0.0142651  0.0002094 -0.0497592
 -1.8625000  0.1691000 -0.0330289  0.0002751 -0.0491291
 -1.8625000  0.1577000 -0.0134790  0.0002903 -0.0497684
 -1.8750000  0.1691000 -0.0320143  0.0003151 -0.0491446
 -1.8750000  0.1577000 -0.0130978  0.0003363 -0.0497761
 -1.8875000  0.1691000 -0.0310071  0.0003704 -0.0491639
 -1.9000000  0.1691000 -0.0300125  0.0004236 -0.0491835
 -1.9000000  0.1577000 -0.0123672  0.0004455 -0.0497949
 -1.8875000  0.1577000 -0.0127269  0.0003894 -0.0497852
 -1.9125000  0.1691000 -0.0290281  0.0004800 -0.0492063
 -1.9125000  0.1577000 -0.0120193  0.0005029 -0.0498065
 -1.9250000  0.1691000 -0.0280571  0.0005311 -0.0492340
 -1.9250000  0.1577000 -0.0116852  0.0005606 -0.0498218
 -1.9375000  0.1691000 -0.0270985  0.0005900 -0.0492667
 -1.9500000  0.1691000 -0.0261563  0.0006388 -0.0493011
 -1.9500000  0.1577000 -0.0110640  0.0006719 -0.0498606
 -1.9375000  0.1577000 -0.0113665  0.0006190 -0.0498400
 -1.9625000  0.1691000 -0.0252281  0.0006784 -0.0493397
 -1.9625000  0.1577000 -0.0107775  0.0007139 -0.0498850
 -1.9750000  0.1691000 -0.0243151  0.0006970 -0.0493835
 -1.9750000  0.1577000 -0.0105076  0.0007397 -0.0499150
 -1.9875000  0.1691000 -0.0234148  0.0006999 -0.0494322
 -2.0000000  0.1691000 -0.0225281  0.0006652 -0.0494820
 -2.0000000  0.1577000 -0.0100146  0.0007128 -0.0499893
 -1.9875000  0.1577000 -0.0102540  0.0007435 -0.0499499
 -2.0125000  0.1691000 -0.0216490  0.0005852 -0.0495332
 -2.0125000  0.1577000 -0.0097853  0.0006341 -0.0500340
 -2.0250000  0.1691000 -0.0207734  0.0004401 -0.0495842
 -2.0250000  0.1577000 -0.0095615  0.0004922 -0.0500844
 -2.0375000  0.1691000 -0.0198926  0.0002224 -0.0496312
 -2.0500000  0.1691000 -0.0189990 -0.0000988 -0.0496658
 -2.0500000  0.1577000 -0.0090967 -0.0000591 -0.0501902
 -2.0375000  0.1577000 -0.0093355  0.0002695 -0.0501377
 -2.0625000  0.1691000 -0.0180719 -0.0005440 -0.0496799
 -2.0625000  0.1577000 -0.0088296 -0.0005214 -0.0502353
 -2.0750000  0.1691000 -0.0171060 -0.0011476 -0.0496622
 -2.0750000  0.1577000 -0.0085166 -0.0011520 -0.0502655
 -2.0875000  0.1691000 -0.0160672 -0.0019185 -0.0495901
 -2.1000000  0.1690000 -0.0149673 -0.0029042 -0.0494354
 -2.1000000  0.1577000 -0.0076474 -0.0030411 -0.0501997
 -2.0875000  0.1577000 -0.0081287 -0.0019753 -0.0502632
 -2.1124000  0.1690000 -0.0137315 -0.0041282 -0.0491778
 -2.1124000  0.1577000 -0.0070236 -0.0043741 -0.0500612
 -2.1249000  0.1690000 -0.0123925 -0.0056138 -0.0487565
 -2.1249000  0.1576000 -0.0062666 -0.0060076 -0.0497731
 -2.1374000  0.1690000 -0.0109241 -0.0073489 -0.0481194
 -2.1498000  0.1689000 -0.0092962 -0.0093462 -0.0472168
 -2.1498000  0.1576000 -0.0041680 -0.0102404 -0.0485497
 -2.1374000  0.1576000 -0.0053197 -0.0079605 -0.0492945
 -2.1622000  0.1688000 -0.0075191 -0.0115641 -0.0459733
 -2.1622000  0.1575000 -0.0028260 -0.0128092 -0.0474456
 -2.1747000  0.1687000 -0.0056511 -0.0139351 -0.0443173
 -2.1746000  0.1574000 -0.0013078 -0.0155923 -0.0459004
 -2.1871000  0.1686000 -0.0037034 -0.0163689 -0.0422019
 -2.1869000  0.1572000  0.0003458 -0.0184889 -0.0438461
 -2.1867000  0.1460000  0.0042629 -0.0205600 -0.0452685
 -2.1745000  0.1462000  0.0028964 -0.0171327 -0.0471990
 -2.1989000  0.1458000  0.0057544 -0.0239789 -0.0426844
 -2.2111000  0.1453000  0.0072550 -0.0272120 -0.0394184
 -2.2233000  0.1444000  0.0087603 -0.0301759 -0.0353635
 -2.1621000  0.1462000  0.0017285 -0.0138965 -0.0485545
 -2.1621000  0.1350000  0.0061036 -0.0147544 -0.0492978
 -2.1497000  0.1351000  0.0056829 -0.0114495 -0.0499053
 -2.1497000  0.1463000  0.0008289 -0.0109615 -0.0494485
 -2.1621000  0.1239000  0.0102520 -0.0153168 -0.0496325
 -2.1497000  0.1238000  0.0103611 -0.0116488 -0.0498663
 -2.1373000  0.1463000  0.0001885 -0.0084073 -0.0499834
 -2.1373000  0.1351000  0.0056025 -0.0086444 -0.0501667
 -2.1249000  0.1351000  0.0058304 -0.0063233 -0.0502068
 -2.1249000  0.1463000 -0.0001951 -0.0062530 -0.0502657
 -2.1373000  0.1238000  0.0108993 -0.0086178 -0.0497992
 -2.1249000  0.1238000  0.0117926 -0.0061808 -0.0495658
 -2.1124000  0.1238000  0.0129684 -0.0042641 -0.0492822
 -2.1124000  0.1351000  0.0063126 -0.0044573 -0.0501365
 -2.1000000  0.1238000  0.0143602 -0.0027913 -0.0489755
 -2.1000000  0.1351000  0.0069960 -0.0029927 -0.0499909
 -2.0875000  0.1238000  0.0158894 -0.0016820 -0.0487161
 -2.0750000  0.1238000  0.0175116 -0.0008576 -0.0484972
 -2.0750000  0.1351000  0.0087707 -0.0010090 -0.0496908
 -2.0875000  0.1351000  0.0078305 -0.0018625 -0.0498396
 -2.0625000  0.1238000  0.0191888 -0.0002618 -0.0483270
 -2.0625000  0.1351000  0.0097783 -0.0003811 -0.0495613
 -2.0500000  0.1238000  0.0208938  0.0001569 -0.0482021
 -2.0500000  0.1351000  0.0108249  0.0000684 -0.0494562
 -2.0375000  0.1238000  0.0226075  0.0004398 -0.0481167
 -2.0250000  0.1238000  0.0243169  0.0006198 -0.0480637
 -2.0250000  0.1351000  0.0129595  0.0005807 -0.0493174
 -2.0375000  0.1351000  0.0118902  0.0003782 -0.0493757
 -2.0125000  0.1238000  0.0260136  0.0007232 -0.0480364
 -2.0125000  0.1351000  0.0140225  0.0007019 -0.0492782
 -2.0000000  0.1238000  0.0276927  0.0007701 -0.0480284
 -2.0000000  0.1351000  0.0150728  0.0007625 -0.0492545
 -1.9875000  0.1238000  0.0293515  0.0007765 -0.0480345
 -1.9750000  0.1238000  0.0309891  0.0007547 -0.0480503
 -1.9750000  0.1351000  0.0171207  0.0007639 -0.0492400
 -1.9875000  0.1351000  0.0161062  0.0007789 -0.0492428
 -1.9625000  0.1238000  0.0326055  0.0007140 -0.0480723
 -1.9625000  0.1351000  0.0181155  0.0007277 -0.0492436
 -1.9500000  0.1238000  0.0342017  0.0006615 -0.0480978
 -1.9500000  0.1351000  0.0190908  0.0006779 -0.0492515
 -1.9375000  0.1238000  0.0357790  0.0006026 -0.0481248
 -1.9250000  0.1238000  0.0373390  0.0005412 -0.0481517
 -1.9250000  0.1351000  0.0209866  0.0005588 -0.0492739
 -1.9375000  0.1351000  0.0200474  0.0006201 -0.0492620
 -1.9125000  0.1238000  0.0388832  0.0004801 -0.0481777
 -1.9125000  0.1351000  0.0219097  0.0004971 -0.0492863
 -1.9000000  0.1238000  0.0404135  0.0004212 -0.0482021
 -1.9000000  0.1351000  0.0228183  0.0004372 -0.0492985
 -1.8875000  0.1238000  0.0419315  0.0003658 -0.0482244
 -1.8750000  0.1238000  0.0434387  0.0003147 -0.0482444
 -1.8750000  0.1351000  0.0245987  0.0003278 -0.0493209
 -1.8875000  0.1351000  0.0237142  0.0003804 -0.0493102
 -1.8625000  0.1238000  0.0449367  0.0002683 -0.0482622
 -1.8625000  0.1351000  0.0254733  0.0002799 -0.0493306
 -1.8500000  0.1238000  0.0464266  0.0002268 -0.0482777
 -1.8500000  0.1351000  0.0263394  0.0002370 -0.0493392
 -1.8375000  0.1238000  0.0479098  0.0001900 -0.0482911
 -1.8250000  0.1238000  0.0493873  0.0001578 -0.0483025
 -1.8250000  0.1351000  0.0280509  0.0001652 -0.0493533
 -1.8375000  0.1351000  0.0271982  0.0001987 -0.0493469
 -1.8125000  0.1238000  0.0508600  0.0001299 -0.0483122
 -1.8125000  0.1351000  0.0288983  0.0001362 -0.0493588
 -1.8000000  0.1238000  0.0523287  0.0001060 -0.0483202
 -1.8000000  0.1351000  0.0297414  0.0001113 -0.0493635
 -1.7875000  0.1238000  0.0537942  0.0000856 -0.0483269
 -1.7750000  0.1238000  0.0552570  0.0000684 -0.0483324
 -1.7750000  0.1351000  0.0314176  0.0000718 -0.0493706
 -1.7875000  0.1351000  0.0305810  0.0000899 -0.0493675
 -1.7625000  0.1238000  0.0567177  0.0000541 -0.0483368
 -1.7625000  0.1351000  0.0322518  0.0000569 -0.0493731
 -1.7500000  0.1238000  0.0581766  0.0000422 -0.0483404
 -1.7500000  0.1351000  0.0330841  0.0000445 -0.0493753
 -1.7375000  0.1238000  0.0596342  0.0000323 -0.0483432
 -1.7250000  0.1238000  0.0610907  0.0000243 -0.0483453
 -1.7250000  0.1351000  0.0347446  0.0000256 -0.0493782
 -1.7375000  0.1351000  0.0339150  0.0000341 -0.0493770
 -1.7125000  0.1238000  0.0625464  0.0000179 -0.0483470
 -1.7125000  0.1351000  0.0355733  0.0000190 -0.0493791
 -1.7000000  0.1238000  0.0640014  0.0000128 -0.0483483
 -1.7000000  0.1351000  0.0364012  0.0000137 -0.0493800
 -1.6875000  0.1238000  0.0654561  0.0000087 -0.0483492
 -1.6750000  0.1238000  0.0669104  0.0000056 -0.0483499
 -1.6750000  0.1351000  0.0380559  0.0000058 -0.0493809
 -1.6875000  0.1351000  0.0372287  0.0000093 -0.0493806
 -1.6625000  0.1238000  0.0683644  0.0000032 -0.0483503
 -1.6625000  0.1351000  0.0388827  0.0000034 -0.0493811
 -1.6500000  0.1238000  0.0698183  0.0000014 -0.0483506
 -1.6500000  0.1351000  0.0397093  0.0000016 -0.0493814
 -1.6375000  0.1238000  0.0712722 -0.0000000 -0.0483508
 -1.6250000  0.1238000  0.0727260 -0.0000010 -0.0483508
 -1.6250000  0.1351000  0.0413625 -0.0000011 -0.0493815
 -1.6375000  0.1351000  0.0405359  0.0000000 -0.0493816
 -1.6125000  0.1238000  0.0741798 -0.0000017 -0.0483508
 -1.6125000  0.1351000  0.0421889 -0.0000017 -0.0493814
 -1.6000000  0.1238000  0.0756336 -0.0000021 -0.0483508
 -1.6000000  0.1351000  0.0430154 -0.0000021 -0.0493815
 -1.5875000  0.1238000  0.0770875 -0.0000025 -0.0483507
 -1.5750000  0.1238000  0.0785414 -0.0000027 -0.0483505
 -1.5750000  0.1351000  0.0446687 -0.0000029 -0.0493813
 -1.5875000  0.1351000  0.0438420 -0.0000026 -0.0493815
 -1.5625000  0.1238000  0.0799954 -0.0000027 -0.0483504
 -1.5625000  0.1351000  0.0454953 -0.0000029 -0.0493812
 -1.5500000  0.1238000  0.0814494 -0.0000028 -0.0483502
 -1.5500000  0.1351000  0.0463220 -0.0000028 -0.0493812
 -1.5375000  0.1238000  0.0829036 -0.0000028 -0.0483501
 -1.5250000  0.1238000  0.0843578 -0.0000029 -0.0483499
 -1.5250000  0.1351000  0.0479759 -0.0000031 -0.0493810
 -1.5375000  0.1351000  0.0471489 -0.0000029 -0.0493812
 -1.5125000  0.1238000  0.0858121 -0.0000028 -0.0483497
 -1.5125000  0.1351000  0.0488028 -0.0000029 -0.0493808
 -1.5000000  0.1238000  0.0872664 -0.0000028 -0.0483495
 -1.5000000  0.1351000  0.0496298 -0.0000028 -0.0493808
 -1.4875000  0.1238000  0.0887209 -0.0000028 -0.0483494
 -1.4750000  0.1238000  0.0901754 -0.0000029 -0.0483492
 -1.4750000  0.1351000  0.0512844 -0.0000031 -0.0493806
 -1.4875000  0.1351000  0.0504570 -0.0000029 -0.0493808
 -1.4625000  0.1238000  0.0916300 -0.0000028 -0.0483490
 -1.4625000  0.1351000  0.0521116 -0.0000029 -0.0493804
 -1.4500000  0.1238000  0.0930846 -0.0000028 -0.0483489
 -1.4500000  0.1351000  0.0529389 -0.0000027 -0.0493804
 -1.4375000  0.1238000  0.0945394 -0.0000028 -0.0483487
 -1.4250000  0.1238000  0.0959942 -0.0000027 -0.0483485
 -1.4250000  0.1351000  0.0545941 -0.0000029 -0.0493802
 -1.4375000  0.1351000  0.0537665 -0.0000029 -0.0493804
 -1.4125000  0.1238000  0.0974491 -0.0000025 -0.0483484
 -1.4125000  0.1351000  0.0554217 -0.0000026 -0.0493800
 -1.4000000  0.1238000  0.0989040 -0.0000021 -0.0483483
 -1.4000000  0.1351000  0.0562493 -0.0000021 -0.0493801
 -1.3875000  0.1238000  0.1003590 -0.0000017 -0.0483483
 -1.3750000  0.1238000  0.1018140 -0.0000011 -0.0483482
 -1.3750000  0.1351000  0.0579049 -0.0000012 -0.0493800
 -1.3875000  0.1351000  0.0570771 -0.0000017 -0.0493802
 -1.3625000  0.1238000  0.1032690 -0.0000000 -0.0483482
 -1.3625000  0.1351000  0.0587326  0.0000000 -0.0493799
 -1.3500000  0.1238000  0.1047239  0.0000014 -0.0483484
 -1.3500000  0.1351000  0.0595602  0.0000017 -0.0493801
 -1.3375000  0.1238000  0.1061788  0.0000031 -0.0483487
 -1.3250000  0.1238000  0.1076336  0.0000055 -0.0483491
 -1.3250000  0.1351000  0.0612153  0.0000058 -0.0493805
 -1.3375000  0.1351000  0.0603878  0.0000034 -0.0493804
 -1.3125000  0.1238000  0.1090881  0.0000087 -0.0483497
 -1.3125000  0.1351000  0.0620424  0.0000093 -0.0493808
 -1.3000000  0.1238000  0.1105422  0.0000128 -0.0483507
 -1.3000000  0.1351000  0.0628690  0.0000137 -0.0493815
 -1.2875000  0.1238000  0.1119960  0.0000179 -0.0483519
 -1.2750000  0.1238000  0.1134491  0.0000243 -0.0483536
 -1.2750000  0.1351000  0.0645210  0.0000255 -0.0493831
 -1.2875000  0.1351000  0.0636954  0.0000189 -0.0493823
 -1.2625000  0.1238000  0.1149013  0.0000323 -0.0483557
 -1.2625000  0.1351000  0.0653455  0.0000340 -0.0493843
 -1.2500000  0.1238000  0.1163525  0.0000421 -0.0483585
 -1.2500000  0.1351000  0.0661689  0.0000445 -0.0493860
 -1.2375000  0.1238000  0.1178024  0.0000539 -0.0483620
 -1.2250000  0.1238000  0.1192506  0.0000681 -0.0483664
 -1.2250000  0.1351000  0.0678110  0.0000715 -0.0493907
 -1.2375000  0.1351000  0.0669909  0.0000567 -0.0493882
 -1.2125000  0.1238000  0.1206966  0.0000853 -0.0483718
 -1.2125000  0.1351000  0.0686286  0.0000896 -0.0493938
 -1.2000000  0.1238000  0.1221399  0.0001055 -0.0483786
 -1.2000000  0.1351000  0.0694432  0.0001110 -0.0493979
 -1.1875000  0.1238000  0.1235801  0.0001290 -0.0483869
 -1.1750000  0.1238000  0.1250165  0.0001564 -0.0483968
 -1.1750000  0.1351000  0.0710616  0.0001641 -0.0494087
 -1.1875000  0.1351000  0.0702546  0.0001355 -0.0494029
 -1.1625000  0.1238000  0.1264482  0.0001879 -0.0484087
 -1.1625000  0.1351000  0.0718634  0.0001973 -0.0494157
 -1.1500000  0.1238000  0.1278744  0.0002237 -0.0484229
 -1.1500000  0.1351000  0.0726591  0.0002351 -0.0494245
 -1.1375000  0.1238000  0.1292942  0.0002637 -0.0484398
 -1.1250000  0.1238000  0.1307067  0.0003080 -0.0484595
 -1.1250000  0.1351000  0.0742288  0.0003234 -0.0494469
 -1.1375000  0.1351000  0.0734481  0.0002770 -0.0494349
 -1.1125000  0.1238000  0.1321106  0.0003563 -0.0484824
 -1.1125000  0.1351000  0.0749999  0.0003745 -0.0494611
 -1.1000000  0.1238000  0.1335048  0.0004078 -0.0485091
 -1.1000000  0.1351000  0.0757604  0.0004291 -0.0494781
 -1.0875000  0.1238000  0.1348884  0.0004613 -0.0485397
 -1.0750000  0.1238000  0.1362601  0.0005153 -0.0485743
 -1.0750000  0.1351000  0.0772448  0.0005429 -0.0495208
 -1.0875000  0.1351000  0.0765092  0.0004856 -0.0494980
 -1.0625000  0.1238000  0.1376189  0.0005673 -0.0486134
 -1.0625000  0.1351000  0.0779660  0.0005988 -0.0495470
 -1.0500000  0.1238000  0.1389643  0.0006140 -0.0486570
 -1.0500000  0.1351000  0.0786720  0.0006495 -0.0495776
 -1.0375000  0.1238000  0.1402960  0.0006507 -0.0487050
 -1.0250000  0.1238000  0.1416141  0.0006717 -0.0487569
 -1.0250000  0.1351000  0.0800378  0.0007144 -0.0496511
 -1.0375000  0.1351000  0.0793627  0.0006899 -0.0496123
 -1.0125000  0.1238000  0.1429195  0.0006696 -0.0488118
 -1.0125000  0.1351000  0.0806981  0.0007156 -0.0496942
 -1.0000000  0.1238000  0.1442142  0.0006348 -0.0488686
 -1.0000000  0.1351000  0.0813456  0.0006830 -0.0497417
 -0.9875000  0.1238000  0.1455017  0.0005555 -0.0489248
 -0.9750000  0.1238000  0.1467866  0.0004175 -0.0489768
 -0.9750000  0.1351000  0.0826184  0.0004626 -0.0498439
 -0.9875000  0.1351000  0.0819840  0.0006037 -0.0497923
 -0.9625000  0.1238000  0.1480756  0.0002041 -0.0490192
 -0.9625000  0.1351000  0.0832560  0.0002418 -0.0498934
 -0.9500000  0.1238000  0.1493779 -0.0001044 -0.0490447
 -0.9500000  0.1351000  0.0839073 -0.0000811 -0.0499360
 -0.9375000  0.1238000  0.1507047 -0.0005304 -0.0490422
 -0.9250000  0.1238000  0.1520703 -0.0010985 -0.0489971
 -0.9250000  0.1351000  0.0853064 -0.0011389 -0.0499620
 -0.9375000  0.1351000  0.0845855 -0.0005322 -0.0499630
 -0.9125000  0.1238000  0.1534904 -0.0018353 -0.0488862
 -0.9125000  0.1351000  0.0860941 -0.0019367 -0.0499173
 -0.9000000  0.1238000  0.1549150 -0.0027584 -0.0487331
 -0.8876000  0.1238000  0.1564205 -0.0038666 -0.0483382
 -0.8751000  0.1238000  0.1580267 -0.0052468 -0.0479341
 -0.8627000  0.1238000  0.1596607 -0.0068337 -0.0471941
 -0.8503000  0.1239000  0.1614906 -0.0086305 -0.0462317
 -0.9125000  0.1464000  0.0187359 -0.0019592 -0.0503728
 -0.9250000  0.1464000  0.0185954 -0.0011314 -0.0503431
 -0.9375000  0.1464000  0.0185250 -0.0004997 -0.0502976
 -0.9500000  0.1464000  0.0184979 -0.0000363 -0.0502383
 -0.9625000  0.1464000  0.0184988  0.0002894 -0.0501784
 -0.9750000  0.1464000  0.0185112  0.0005093 -0.0501234
 -0.9875000  0.1464000  0.0185239  0.0006480 -0.0500742
 -1.0000000  0.1464000  0.0185302  0.0007236 -0.0500308
 -1.0125000  0.1464000  0.0185253  0.0007508 -0.0499943
 -1.0250000  0.1464000  0.0185053  0.0007443 -0.0499653
 -1.0375000  0.1464000  0.0184678  0.0007163 -0.0499418
 -1.0500000  0.1464000  0.0184130  0.0006727 -0.0499216
 -1.0625000  0.1464000  0.0183419  0.0006180 -0.0499052
 -1.0750000  0.1464000  0.0182544  0.0005583 -0.0498933
 -1.0875000  0.1464000  0.0181508  0.0004993 -0.0498839
 -1.1000000  0.1464000  0.0180332  0.0004412 -0.0498753
 -1.1125000  0.1464000  0.0179037  0.0003841 -0.0498683
 -1.1250000  0.1464000  0.0177628  0.0003307 -0.0498639
 -1.1375000  0.1464000  0.0176114  0.0002837 -0.0498605
 -1.1500000  0.1464000  0.0174514  0.0002412 -0.0498566
 -1.1625000  0.1464000  0.0172847  0.0002019 -0.0498535
 -1.1750000  0.1464000  0.0171116  0.0001672 -0.0498520
 -1.1875000  0.1464000  0.0169326  0.0001386 -0.0498510
 -1.2000000  0.1464000  0.0167491  0.0001141 -0.0498491
 -1.2125000  0.1464000  0.0165626  0.0000917 -0.0498475
 -1.2250000  0.1464000  0.0163730  0.0000725 -0.0498473
 -1.2375000  0.1464000  0.0161804  0.0000580 -0.0498472
 -1.2500000  0.1464000  0.0159857  0.0000461 -0.0498462
 -1.2625000  0.1464000  0.0157901  0.0000349 -0.0498452
 -1.2750000  0.1464000  0.0155932  0.0000255 -0.0498455
 -1.2875000  0.1464000  0.0153948  0.0000194 -0.0498458
 -1.3000000  0.1464000  0.0151956  0.0000146 -0.0498451
 -1.3125000  0.1464000  0.0149965  0.0000096 -0.0498444
 -1.3250000  0.1464000  0.0147969  0.0000053 -0.0498449
 -1.3375000  0.1464000  0.0145966  0.0000035 -0.0498453
 -1.3500000  0.1464000  0.0143960  0.0000022 -0.0498448
 -1.3625000  0.1464000  0.0141959  0.0000001 -0.0498443
 -1.3750000  0.1464000  0.0139957 -0.0000017 -0.0498447
 -1.3875000  0.1464000  0.0137950 -0.0000017 -0.0498452
 -1.4000000  0.1464000  0.0135942 -0.0000016 -0.0498448
 -1.4125000  0.1464000  0.0133941 -0.0000026 -0.0498443
 -1.4250000  0.1464000  0.0131940 -0.0000035 -0.0498448
 -1.4375000  0.1464000  0.0129934 -0.0000029 -0.0498453
 -1.4500000  0.1464000  0.0127930 -0.0000024 -0.0498449
 -1.4625000  0.1464000  0.0125931 -0.0000030 -0.0498444
 -1.4750000  0.1464000  0.0123933 -0.0000036 -0.0498449
 -1.4875000  0.1464000  0.0121931 -0.0000030 -0.0498454
 -1.5000000  0.1464000  0.0119929 -0.0000024 -0.0498450
 -1.5125000  0.1464000  0.0117934 -0.0000030 -0.0498446
 -1.5250000  0.1464000  0.0115939 -0.0000036 -0.0498450
 -1.5375000  0.1464000  0.0113940 -0.0000030 -0.0498454
 -1.5500000  0.1464000  0.0111943 -0.0000024 -0.0498451
 -1.5625000  0.1464000  0.0109950 -0.0000029 -0.0498447
 -1.5750000  0.1464000  0.0107958 -0.0000034 -0.0498451
 -1.5875000  0.1464000  0.0105963 -0.0000026 -0.0498455
 -1.6000000  0.1464000  0.0103968 -0.0000017 -0.0498451
 -1.6125000  0.1464000  0.0101978 -0.0000017 -0.0498448
 -1.6250000  0.1464000  0.0099988 -0.0000015 -0.0498451
 -1.6375000  0.1464000  0.0097994  0.0000001 -0.0498455
 -1.6500000  0.1464000  0.0095999  0.0000020 -0.0498451
 -1.6625000  0.1464000  0.0094007  0.0000036 -0.0498447
 -1.6750000  0.1464000  0.0092013  0.0000057 -0.0498449
 -1.6875000  0.1464000  0.0090012  0.0000096 -0.0498452
 -1.7000000  0.1464000  0.0088008  0.0000144 -0.0498447
 -1.7125000  0.1464000  0.0086001  0.0000195 -0.0498442
 -1.7250000  0.1464000  0.0083988  0.0000259 -0.0498442
 -1.7375000  0.1464000  0.0081961  0.0000349 -0.0498442
 -1.7500000  0.1464000  0.0079921  0.0000458 -0.0498435
 -1.7625000  0.1464000  0.0077869  0.0000582 -0.0498427
 -1.7750000  0.1464000  0.0075797  0.0000732 -0.0498423
 -1.7875000  0.1464000  0.0073698  0.0000919 -0.0498418
 -1.8000000  0.1464000  0.0071567  0.0001139 -0.0498407
 -1.8125000  0.1464000  0.0069403  0.0001390 -0.0498394
 -1.8250000  0.1464000  0.0067194  0.0001682 -0.0498384
 -1.8375000  0.1464000  0.0064928  0.0002025 -0.0498374
 -1.8500000  0.1464000  0.0062599  0.0002415 -0.0498358
 -1.8625000  0.1464000  0.0060198  0.0002847 -0.0498341
 -1.8750000  0.1464000  0.0057710  0.0003327 -0.0498330
 -1.8875000  0.1464000  0.0055119  0.0003859 -0.0498321
 -1.9000000  0.1464000  0.0052414  0.0004430 -0.0498312
 -1.9125000  0.1464000  0.0049582  0.0005025 -0.0498312
 -1.9250000  0.1464000  0.0046606  0.0005632 -0.0498327
 -1.9375000  0.1464000  0.0043471  0.0006234 -0.0498360
 -1.9500000  0.1464000  0.0040166  0.0006792 -0.0498414
 -1.9625000  0.1464000  0.0036685  0.0007255 -0.0498503
 -1.9750000  0.1464000  0.0033021  0.0007568 -0.0498641
 -1.9875000  0.1464000  0.0029176  0.0007655 -0.0498838
 -2.0000000  0.1464000  0.0025167  0.0007410 -0.0499107
 -2.0125000  0.1464000  0.0021024  0.0006697 -0.0499465
 -2.0250000  0.1464000  0.0016796  0.0005355 -0.0499930
 -2.0375000  0.1464000  0.0012555  0.0003185 -0.0500508
 -2.0500000  0.1464000  0.0008412 -0.0000066 -0.0501194
 -2.0625000  0.1464000  0.0004522 -0.0004708 -0.0501966
 -2.0750000  0.1464000  0.0001081 -0.0011091 -0.0502778
 -2.0875000  0.1464000 -0.0001649 -0.0019613 -0.0503500
 -2.1000000  0.1464000 -0.0003347 -0.0030743 -0.0503906
 -2.1124000  0.1464000 -0.0003496 -0.0044885 -0.0503881
 -0.8379000  0.1239000  0.1633264 -0.0106712 -0.0449873
 -2.2305000  0.1240000  0.0154475 -0.0404752 -0.0334793
 -2.2334000  0.1314000  0.0138431 -0.0367523 -0.0312739
 -2.2362000  0.1428000  0.0102473 -0.0330800 -0.0302010
 -2.2500000  0.1422000  0.0104178 -0.0348186 -0.0248327
 -2.2638000  0.1428000  0.0099445 -0.0330858 -0.0195502
 -2.2666000  0.1315000  0.0127642 -0.0368046 -0.0180281
 -2.2767000  0.1444000  0.0082749 -0.0302723 -0.0144717
 -2.2695000  0.1240000  0.0133243 -0.0406763 -0.0150518
 -2.2889000  0.1453000  0.0066827 -0.0273636 -0.0104344
 -2.3011000  0.1458000  0.0051013 -0.0241690 -0.0071767
 -2.3133000  0.1460000  0.0035312 -0.0207945 -0.0045954
 -2.3255000  0.1462000  0.0020749 -0.0173970 -0.0026595
 -2.3379000  0.1462000  0.0008328 -0.0141833 -0.0013063
 -2.3379000  0.1350000  0.0008179 -0.0150467 -0.0001883
 -2.3379000  0.1239000  0.0005551 -0.0156023  0.0010836
  2.3377000  0.0791000 -0.0033505 -0.0129291 -0.0058751
  2.4875000  0.2876000  0.0001207  0.0001196 -0.0001275
  2.5000000  0.2876000  0.0000374  0.0000596 -0.0000510
  2.5000000  0.3000000  0.0000046  0.0000044 -0.0000106
  2.4875000  0.3000000  0.0000615  0.0000373 -0.0000518
 -2.4875000  0.2876000  0.0001206  0.0001193  0.0001272
 -2.4875000  0.3000000  0.0000615  0.0000373  0.0000517
 -2.5000000  0.3000000  0.0000046  0.0000044  0.0000106
 -2.5000000  0.2876000  0.0000373  0.0000591  0.0000508
