Výsledky

Výpočtový krok 2

-----------------------------------------------------------------------------
Job: ATENA, Openning output file: 14.2.2013 15:38:16
-----------------------------------------------------------------------------
Output data for request: STRESS
Description: Stress
  Step: 2  Iteration: 2 at Time: 2
-----------------------------------------------------------------------------------------------
 Node   sigma_xx   sigma_yy     tau_xy
Units        MPa        MPa        MPa
    1  0.0001761  0.0001554  0.0001747
    2  0.0004894  0.0001732  0.0003892
    3  0.0003866  0.0000549  0.0001942
    4  0.0000919  0.0000481  0.0000716
    5  7.28e-006  3.93e-006  0.0000141
    6  0.0000543  0.0000725  0.0000682
    7  0.0000609  0.0003089  0.0001840
    8  0.0001865  0.0004216  0.0003770
    9  0.0004625  0.0004309  0.0007346
   10  0.0009860  0.0001446  0.0005910
   11  0.0008429  0.0003625  0.0010509
   12  0.0012986  0.0002896  0.0013135
   13  0.0016453  0.0001152  0.0007582
   14  0.0017758  0.0000469  0.0004078
   15  0.0009588  0.0000467  0.0003120
   16  0.0005725  0.0006484  0.0013650
   17  0.0008417  0.0005168  0.0016592
   18  0.0003243  0.0007730  0.0009978
   19  0.0001590  0.0011552  0.0011560
   20  0.0002698  0.0009492  0.0015344
   21  0.0003672  0.0007449  0.0018194
   22  0.0001327  0.0008205  0.0005472
   23  0.0000439  0.0007600  0.0002878
   24  0.0000277  0.0013715  0.0003537
   25  0.0000661  0.0013156  0.0006545
   26 -9.19e-006  0.0012371  0.0015696
   27 -0.0000606  0.0009448  0.0018201
   28  6.48e-006  0.0015467  0.0012062
   29 -0.0001187  0.0019196  0.0011612
   30 -0.0002385  0.0014879  0.0014891
   31 -0.0004085  0.0010961  0.0016925
   32  5.72e-006  0.0018612  0.0006923
   33  0.0000165  0.0020686  0.0003771
   34  0.0000116  0.0027772  0.0003670
   35 -0.0000429  0.0024083  0.0006714
   36 -0.0004115  0.0016903  0.0013181
   37 -0.0006671  0.0011935  0.0014709
   38 -0.0002112  0.0022487  0.0010397
   39 -0.0002753  0.0025087  0.0008625
   40 -0.0005321  0.0018324  0.0010864
   41 -0.0008412  0.0012373  0.0011899
   42 -0.0000772  0.0029173  0.0006034
   43  0.0000126  0.0034474  0.0003304
   44  0.0000215  0.0040359  0.0002781
   45 -0.0000985  0.0033518  0.0005006
   46 -0.0006142  0.0019121  0.0008263
   47 -0.0009380  0.0012355  0.0008826
   48 -0.0003268  0.0026649  0.0006638
   49 -0.0003886  0.0027106  0.0004683
   50 -0.0006483  0.0019399  0.0005601
   51 -0.0009666  0.0012020  0.0005677
   52 -0.0001293  0.0036937  0.0003636
   53  0.0000227  0.0045515  0.0001852
   54 -0.0000197  0.0046483  0.0001057
   55 -0.0001706  0.0037828  0.0003139
   56 -0.0006342  0.0019431  0.0002829
   57 -0.0009456  0.0011552  0.0002566
   58 -0.0003881  0.0027339  0.0002622
   59 -0.0003659  0.0028109  0.0000523
   60 -0.0006077  0.0019465  0.0000176
   61 -0.0008937  0.0011098 -0.0000347
   62 -0.0002105  0.0036018  0.0001977
   63 -0.0001572  0.0039600  5.28e-006
   64 -0.0005521  0.0019428 -0.0002212
   65 -0.0008199  0.0010685 -0.0002996
   66 -0.0002982  0.0028792 -0.0001425
   67 -0.0002512  0.0028591 -0.0003304
   68 -0.0004786  0.0019063 -0.0004471
   69 -0.0007286  0.0010265 -0.0005398
   70 -0.0001265  0.0040553 -0.0000644
   71 -0.0000918  0.0039779 -0.0001863
   72  0.0000148  0.0049664 -6.60e-006
   73  0.0000347  0.0048544 -0.0001026
   74 -0.0000800  0.0038049 -0.0002879
   75  0.0000297  0.0046062 -0.0001559
   76  0.0000270  0.0042621 -0.0002007
   77 -0.0000685  0.0035401 -0.0003736
   78 -0.0001832  0.0025829 -0.0006515
   79 -0.0002161  0.0027533 -0.0005044
   80 -0.0004108  0.0018326 -0.0006563
   81 -0.0006308  0.0009774 -0.0007576
   82 -0.0003464  0.0017278 -0.0008387
   83 -0.0005324  0.0009220 -0.0009495
   84 -0.0002793  0.0015927 -0.0009903
   85 -0.0004304  0.0008612 -0.0011125
   86 -0.0001482  0.0023613 -0.0007728
   87 -0.0001088  0.0020978 -0.0008682
   88 -0.0002054  0.0014329 -0.0011095
   89 -0.0003187  0.0007919 -0.0012419
   90 -0.0000559  0.0032057 -0.0004439
   91 -0.0000416  0.0028158 -0.0004996
   92  0.0000245  0.0038369 -0.0002382
   93  0.0000219  0.0033441 -0.0002685
   94 -0.0000238  0.0023854 -0.0005350
   95  0.0000199  0.0027996 -0.0002872
   96  0.0000177  0.0022211 -0.0002961
   97 -2.67e-006  0.0019300 -0.0005494
   98 -7.27e-006  0.0014983 -0.0009566
   99 -0.0000628  0.0018090 -0.0009303
  100 -0.0001198  0.0012565 -0.0011902
  101 -0.0001892  0.0007133 -0.0013336
  102 -0.0000168  0.0010629 -0.0012270
  103 -0.0000352  0.0006241 -0.0013813
  104  0.0001072  0.0008619 -0.0012095
  105  0.0001506  0.0005238 -0.0013736
  106  0.0000610  0.0011824 -0.0009374
  107  0.0001428  0.0008694 -0.0008635
  108  0.0002548  0.0006510 -0.0011289
  109  0.0003715  0.0004090 -0.0012994
  110  0.0000240  0.0014693 -0.0005370
  111  0.0000186  0.0016374 -0.0002897
  112  0.0000224  0.0010816 -0.0002632
  113  0.0000567  0.0010277 -0.0004900
  114  0.0004188  0.0004439 -0.0009752
  115  0.0006187  0.0002860 -0.0011452
  116  0.0002351  0.0005784 -0.0007280
  117  0.0003172  0.0003216 -0.0005289
  118  0.0005729  0.0002497 -0.0007398
  119  0.0008697  0.0001630 -0.0008924
  120  0.0000946  0.0006375 -0.0004030
  121  0.0000308  0.0006025 -0.0002126
  122  0.0000413  0.0002471 -0.0001356
  123  0.0001276  0.0003242 -0.0002748
  124  0.0006560  0.0001012 -0.0004154
  125  0.0010727  0.0000661 -0.0005144
  126  0.0003309  0.0001305 -0.0002791
  127  0.0002578  0.0000426 -0.0001390
  128  0.0006338  0.0000340 -0.0002211
  129  0.0011560  0.0000282 -0.0002793
  130  0.0015505  0.0000318 -0.0005717
  131  0.0011876  0.0000753 -0.0009779
  132  0.0017743  0.0000262 -0.0003137
  133  0.0024407  0.0000264 -0.0003257
  134  0.0020566 -5.97e-007 -0.0005887
  135  0.0015073 -0.0000106 -0.0009949
  136  0.0008185  0.0001229 -0.0012327
  137  0.0010035 -0.0000411 -0.0012333
  138  0.0005638 -0.0000982 -0.0013530
  139  0.0004777  0.0001587 -0.0013757
  140  0.0011567 -0.0002088 -0.0011421
  141  0.0018035 -0.0000969 -0.0009415
  142  0.0020485 -0.0001865 -0.0008148
  143  0.0012588 -0.0003849 -0.0009527
  144  0.0006264 -0.0006500 -0.0009784
  145  0.0006179 -0.0003658 -0.0012236
  146  0.0025536 -0.0000324 -0.0005664
  147  0.0030050 -0.0000650 -0.0005041
  148  0.0031103  0.0000280 -0.0003169
  149  0.0037399  0.0000299 -0.0002873
  150  0.0033719 -0.0000995 -0.0003999
  151  0.0022117 -0.0002817 -0.0006103
  152  0.0042854  0.0000312 -0.0002363
  153  0.0047009  0.0000315 -0.0001625
  154  0.0036129 -0.0001364 -0.0002509
  155  0.0022591 -0.0003838 -0.0003226
  156  0.0012864 -0.0005732 -0.0006575
  157  0.0012127 -0.0007758 -0.0002476
  158  0.0004366 -0.0012873 -0.0000942
  159  0.0005728 -0.0009563 -0.0006060
  160  0.0010075 -0.0009926  0.0002859
  161  0.0021537 -0.0004929  0.0000543
  162  0.0018562 -0.0006078  0.0005258
  163  0.0006377 -0.0012208  0.0009507
  164 -0.0001846 -0.0020174  0.0013957
  165  0.0001934 -0.0016426  0.0005694
  166  0.0036839 -0.0001759 -0.0000542
  167  0.0035380 -0.0002175  0.0001932
  168  0.0049371  0.0000303 -0.0000643
  169  0.0049415  0.0000275  0.0000600
  170  0.0031259 -0.0002603  0.0004933
  171  0.0013252 -0.0007259  0.0010957
  172  0.0046584  0.0000229  0.0002115
  173  0.0040310  0.0000164  0.0003905
  174  0.0023975 -0.0003030  0.0008468
  175  0.0005181 -0.0008434  0.0017648
  176  0.0000677 -0.0014555  0.0017525
  177 -0.0007396 -0.0016890  0.0026929
  178 -0.0014734 -0.0027883  0.0035635
  179 -0.0007290 -0.0024036  0.0023926
  180 -0.0018219 -0.0019118  0.0037686
  181 -0.0006071 -0.0009555  0.0025306
  182 -0.0020904 -0.0010567  0.0033860
  183 -0.0032149 -0.0021129  0.0049701
  184 -0.0037031 -0.0034948  0.0064103
  185 -0.0024538 -0.0031578  0.0049067
  186  0.0013030 -0.0003437  0.0012524
  187 -0.0002048 -0.0003807  0.0017064
  188  0.0030023  8.09e-006  0.0005965
  189  0.0015179 -1.92e-006  0.0008277
  190 -0.0021718 -0.0004127  0.0022051
  191 -0.0039695 -0.0011418  0.0043200
  192 -0.0004715 -0.0000126  0.0010811
  193 -0.0030057 -0.0000252  0.0013504
  194 -0.0046268 -0.0004366  0.0027384
  195 -0.0062710 -0.0012075  0.0053198
  196 -0.0049519 -0.0022848  0.0062851
  197 -0.0070621 -0.0024181  0.0076935
  198 -0.0071359 -0.0039948  0.0098150
  199 -0.0052534 -0.0037779  0.0080540
  200 -0.0095604 -0.0024955  0.0091559
  201 -0.0093626 -0.0041259  0.0116508
  202 -0.0090232 -0.0012462  0.0063584
  203 -0.0122322 -0.0012605  0.0074284
  204 -0.0124657 -0.0025222  0.0106575
  205 -0.0119593 -0.0041677  0.0135277
  206 -0.0076018 -0.0004500  0.0032916
  207 -0.0061175 -0.0000396  0.0016351
  208 -0.0098253 -0.0000519  0.0019224
  209 -0.0111129 -0.0004560  0.0038619
  210 -0.0157811 -0.0024881  0.0121467
  211 -0.0159058 -0.0012400  0.0084836
  212 -0.0200439 -0.0011959  0.0095152
  213 -0.0195026 -0.0023989  0.0135957
  214 -0.0182573 -0.0039610  0.0172130
  215 -0.0149268 -0.0041101  0.0153950
  216 -0.0151596 -0.0004501  0.0044305
  217 -0.0197377 -0.0004314  0.0049782
  218 -0.0141326 -0.0000683  0.0022101
  219 -0.0190329 -0.0000857  0.0024911
  220 -0.0248361 -0.0004050  0.0054974
  221 -0.0245071 -0.0001004  0.0027610
  222 -0.0305178 -0.0001187  0.0030056
  223 -0.0304171 -0.0003729  0.0059880
  224 -0.0296258 -0.0010364  0.0114245
  225 -0.0246219 -0.0011247  0.0104961
  226 -0.0236117 -0.0022542  0.0149701
  227 -0.0280973 -0.0020758  0.0162630
  228 -0.0259577 -0.0034334  0.0205603
  229 -0.0219396 -0.0037279  0.0189423
  230 -0.0329216 -0.0018658  0.0174353
  231 -0.0302699 -0.0030841  0.0220341
  232 -0.0350143 -0.0009293  0.0122545
  233 -0.0407575 -0.0008142  0.0129991
  234 -0.0380489 -0.0016339  0.0184804
  235 -0.0348534 -0.0027017  0.0233371
  236 -0.0364416 -0.0003317  0.0064241
  237 -0.0370216 -0.0001400  0.0032338
  238 -0.0439697 -0.0001589  0.0034325
  239 -0.0428785 -0.0002899  0.0068123
  240 -0.0434508 -0.0013945  0.0193902
  241 -0.0468093 -0.0006944  0.0136451
  242 -0.0531292 -0.0005760  0.0141901
  243 -0.0490841 -0.0011570  0.0201562
  244 -0.0446934 -0.0019220  0.0254336
  245 -0.0396740 -0.0023100  0.0244725
  246 -0.0496641 -0.0002466  0.0071516
  247 -0.0567542 -0.0002030  0.0074370
  248 -0.0513036 -0.0001819  0.0036034
  249 -0.0589643 -0.0002061  0.0037465
  250 -0.0640974 -0.0001616  0.0076692
  251 -0.0596767 -0.0004612  0.0146374
  252 -0.0668952 -0.0002325  0.0038625
  253 -0.0750414 -0.0002597  0.0039533
  254 -0.0716456 -0.0001244  0.0078527
  255 -0.0664095 -0.0003547  0.0149870
  256 -0.0549195 -0.0009266  0.0207809
  257 -0.0609270 -0.0007233  0.0212822
  258 -0.0552129 -0.0012153  0.0268488
  259 -0.0498798 -0.0015512  0.0262149
  260 -0.0670434 -0.0005366  0.0216660
  261 -0.0732965 -0.0002601  0.0152490
  262 -0.0802947 -0.0001816  0.0154492
  263 -0.0732817 -0.0003778  0.0219640
  264 -0.0661507 -0.0006420  0.0276921
  265 -0.0606307 -0.0009036  0.0273279
  266 -0.0793551 -0.0000882  0.0079917
  267 -0.0871848 -0.0000605  0.0080888
  268 -0.0833518 -0.0002892  0.0040200
  269 -0.0917814 -0.0003198  0.0040678
  270 -0.0950982 -0.0000339  0.0081548
  271 -0.0873711 -0.0001114  0.0155800
  272 -0.1002911 -0.0003515  0.0040968
  273 -0.1088483 -0.0003845  0.0041134
  274 -0.1030681 -0.0000160  0.0081906
  275 -0.0945152 -0.0000584  0.0156648
  276 -0.0795686 -0.0002400  0.0221557
  277 -0.0859412 -0.0001317  0.0222926
  278 -0.0773335 -0.0002392  0.0281195
  279 -0.0717146 -0.0004178  0.0279471
  280 -0.0923192 -0.0000410  0.0223515
  281 -0.1016887 -0.0000121  0.0157006
  282 -0.1088935  0.0000181  0.0157101
  283 -0.0987571  0.0000227  0.0223828
  284 -0.0886503  0.0000155  0.0282538
  285 -0.0829757 -0.0000895  0.0282127
  286 -0.1110679  2.22e-006  0.0082065
  287 -0.1190807  0.0000115  0.0082029
  288 -0.1174267 -0.0004178  0.0041173
  289 -0.1260061 -0.0004520  0.0041142
  290 -0.1270889  0.0000230  0.0081890
  291 -0.1160957  0.0000451  0.0156882
  292 -0.1345707 -0.0004859  0.0041033
  293 -0.1431100 -0.0005205  0.0040898
  294 -0.1350846  0.0000257  0.0081638
  295 -0.1233074  0.0000581  0.0156554
  296 -0.1051696  0.0000749  0.0223600
  297 -0.1116281  0.0001051  0.0223308
  298 -0.1000217  0.0001532  0.0282132
  299 -0.0943260  0.0001029  0.0282469
  300 -0.1180406  0.0001300  0.0222651
  301 -0.1304975  0.0000715  0.0156041
  302 -0.1376862  0.0000729  0.0155526
  303 -0.1244939  0.0001374  0.0222078
  304 -0.1114035  0.0002097  0.0280831
  305 -0.1057058  0.0001966  0.0281527
  306 -0.1430572  0.0000325  0.0081353
  307 -0.1510050  0.0000308  0.0081012
  308 -0.1516166 -0.0005544  0.0040720
  309 -0.1600866 -0.0005889  0.0040545
  310 -0.1589219  0.0000349  0.0080684
  311 -0.1448433  0.0000779  0.0154913
  312 -0.1685180 -0.0006224  0.0040351
  313 -0.1769112 -0.0006564  0.0040176
  314 -0.1668108  0.0000304  0.0080335
  315 -0.1519957  0.0000723  0.0154363
  316 -0.1308880  0.0001453  0.0221259
  317 -0.1373235  0.0001390  0.0220615
  318 -0.1227719  0.0002155  0.0279209
  319 -0.1170820  0.0002251  0.0280010
  320 -0.1436912  0.0001377  0.0219794
  321 -0.1591126  0.0000730  0.0153763
  322 -0.1662258  0.0000637  0.0153262
  323 -0.1501047  0.0001243  0.0219197
  324 -0.1341164  0.0001946  0.0277605
  325 -0.1284382  0.0002160  0.0278367
  326 -0.1746681  0.0000332  0.0080024
  327 -0.1824991  0.0000272  0.0079709
  328 -0.1852671 -0.0006894  0.0039995
  329 -0.1935884 -0.0007228  0.0039842
  330 -0.1903015  0.0000297  0.0079444
  331 -0.1733031  0.0000628  0.0152735
  332 -0.2018775 -0.0007551  0.0039688
  333 -0.2101379 -0.0007880  0.0039564
  334 -0.1980818  0.0000230  0.0079182
  335 -0.1803803  0.0000521  0.0152319
  336 -0.1564447  0.0001192  0.0218458
  337 -0.1628366  0.0001030  0.0217965
  338 -0.1454340  0.0001621  0.0276193
  339 -0.1397685  0.0001885  0.0276845
  340 -0.1691509  0.0000975  0.0217342
  341 -0.1874228  0.0000513  0.0151886
  342 -0.1944697  0.0000403  0.0151566
  343 -0.1755242  0.0000810  0.0216967
  344 -0.1567265  0.0001280  0.0275038
  345 -0.1510724  0.0001552  0.0275559
  346 -0.2058378  0.0000258  0.0078973
  347 -0.2135769  0.0000189  0.0078766
  348 -0.2183723 -0.0008196  0.0039440
  349 -0.2265843 -0.0008521  0.0039347
  350 -0.2212964  0.0000223  0.0078610
  351 -0.2014835  0.0000405  0.0151226
  352 -0.2347766 -0.0008832  0.0039252
  353 -0.2429523 -0.0009153  0.0039186
  354 -0.2290038  0.0000153  0.0078454
  355 -0.2085065  0.0000299  0.0150994
  356 -0.1818165  0.0000769  0.0216463
  357 -0.1881749  0.0000612  0.0216202
  358 -0.1679971  0.0000968  0.0274145
  359 -0.1623525  0.0001229  0.0274536
  360 -0.1944491  0.0000592  0.0215804
  361 -0.2154981  0.0000314  0.0150736
  362 -0.2225031  0.0000214  0.0150579
  363 -0.2007966  0.0000449  0.0215641
  364 -0.1792499  0.0000711  0.0273484
  365 -0.1736129  0.0000951  0.0273765
  366 -0.2366958  0.0000194  0.0078344
  367 -0.2443800  0.0000124  0.0078229
  368 -0.2511134 -0.0009460  0.0039115
  369 -0.2592629 -0.0009778  0.0039071
  370 -0.2520522  0.0000173  0.0078156
  371 -0.2294781  0.0000242  0.0150388
  372 -0.2674022 -0.0010082  0.0039020
  373 -0.2755337 -0.0010398  0.0038993
  374 -0.2597200  0.0000103  0.0078075
  375 -0.2364703  0.0000148  0.0150290
  376 -0.2070564  0.0000453  0.0215331
  377 -0.2133965  0.0000323  0.0215245
  378 -0.1904888  0.0000508  0.0273015
  379 -0.1848574  0.0000729  0.0273204
  380 -0.2196452  0.0000348  0.0215004
  381 -0.2434332  0.0000190  0.0150150
  382 -0.2504168  9.97e-006  0.0150096
  383 -0.2259806  0.0000231  0.0214977
  384 -0.2017175  0.0000360  0.0272693
  385 -0.1960900  0.0000563  0.0272815
  386 -0.2673786  0.0000159  0.0078030
  387 -0.2750353  8.82e-006  0.0077972
  388 -0.2836581 -0.0010701  0.0038956
  389 -0.2917776 -0.0011015  0.0038941
  390 -0.2826848  0.0000150  0.0077948
  391 -0.2573712  0.0000153  0.0149994
  392 -0.2998925 -0.0011316  0.0038915
  393 -0.3080044 -0.0011630  0.0038909
  394 -0.2903344  7.88e-006  0.0077907
  395 -0.2643492  6.57e-006  0.0149971
  396 -0.2322206  0.0000275  0.0214787
  397 -0.2385537  0.0000165  0.0214803
  398 -0.2129386  0.0000253  0.0272483
  399 -0.2073138  0.0000443  0.0272552
  400 -0.2447870  0.0000225  0.0214649
  401 -0.2712978  0.0000129  0.0149896
  402 -0.2782724  4.28e-006  0.0149896
  403 -0.2511194  0.0000122  0.0214696
  404 -0.2241547  0.0000182  0.0272350
  405 -0.2185314  0.0000364  0.0272385
  406 -0.2979780  0.0000147  0.0077897
  407 -0.3056232  7.35e-006  0.0077869
  408 -0.3161133 -0.0011929  0.0038891
  409 -0.3242207 -0.0012243  0.0038890
  410 -0.3132633  0.0000147  0.0077868
  411 -0.2852172  0.0000114  0.0149839
  412 -0.3323262 -0.0012542  0.0038877
  413 -0.3404311 -0.0012855  0.0038880
  414 -0.3209061  7.12e-006  0.0077847
  415 -0.2921900  2.80e-006  0.0149853
  416 -0.2573475  0.0000195  0.0214566
  417 -0.2636803  9.35e-006  0.0214633
  418 -0.2353672  0.0000134  0.0272272
  419 -0.2297447  0.0000313  0.0272282
  420 -0.2699042  0.0000177  0.0214521
  421 -0.2991322  0.0000107  0.0149808
  422 -0.3061044  1.91e-006  0.0149831
  423 -0.2762383  7.75e-006  0.0214600
  424 -0.2465776  0.0000108  0.0272230
  425 -0.2409552  0.0000284  0.0272225
  426 -0.3285442  0.0000149  0.0077853
  427 -0.3361857  7.10e-006  0.0077837
  428 -0.3485348 -0.0013154  0.0038870
  429 -0.3566385 -0.0013467  0.0038875
  430 -0.3438228  0.0000153  0.0077847
  431 -0.3130448  0.0000104  0.0149793
  432 -0.3647415 -0.0013765  0.0038867
  433 -0.3728447 -0.0014079  0.0038874
  434 -0.3514638  7.21e-006  0.0077833
  435 -0.3200170  1.40e-006  0.0149822
  436 -0.2824587  0.0000169  0.0214498
  437 -0.2887947  6.84e-006  0.0214586
  438 -0.2577865  9.06e-006  0.0272210
  439 -0.2521639  0.0000271  0.0272193
  440 -0.2950120  0.0000168  0.0214490
  441 -0.3269562  0.0000104  0.0149789
  442 -0.3339288  1.16e-006  0.0149821
  443 -0.3013502  6.53e-006  0.0214582
  444 -0.2689948  8.54e-006  0.0272203
  445 -0.2633716  0.0000268  0.0272183
  446 -0.3591004  0.0000159  0.0077845
  447 -0.3667413  7.42e-006  0.0077833
  448 -0.3809475 -0.0014376  0.0038866
  449 -0.3890507 -0.0014691  0.0038874
  450 -0.3743779  0.0000165  0.0077846
  451 -0.3408671  0.0000106  0.0149790
  452 -0.3971537 -0.0014988  0.0038867
  453 -0.4052571 -0.0015302  0.0038876
  454 -0.3820190  7.69e-006  0.0077835
  455 -0.3478404  1.06e-006  0.0149824
  456 -0.3075647  0.0000171  0.0214489
  457 -0.3139053  6.46e-006  0.0214584
  458 -0.2802025  8.15e-006  0.0272205
  459 -0.2745788  0.0000271  0.0272179
  460 -0.3201172  0.0000176  0.0214493
  461 -0.3547781  0.0000110  0.0149794
  462 -0.3617522  1.07e-006  0.0149828
  463 -0.3264604  6.66e-006  0.0214589
  464 -0.2914102  8.49e-006  0.0272210
  465 -0.2857856  0.0000279  0.0272184
  466 -0.3896557  0.0000171  0.0077849
  467 -0.3972971  7.98e-006  0.0077838
  468 -0.4133603 -0.0015599  0.0038869
  469 -0.4214641 -0.0015914  0.0038877
  470 -0.4049339  0.0000178  0.0077852
  471 -0.3686893  0.0000114  0.0149798
  472 -0.4295677 -0.0016210  0.0038870
  473 -0.4376718 -0.0016526  0.0038879
  474 -0.4125757  8.29e-006  0.0077841
  475 -0.3756642  1.11e-006  0.0149833
  476 -0.3326697  0.0000182  0.0214499
  477 -0.3390156  6.86e-006  0.0214596
  478 -0.3026177  8.56e-006  0.0272217
  479 -0.2969924  0.0000289  0.0272189
  480 -0.3452225  0.0000189  0.0214506
  481 -0.3826008  0.0000118  0.0149804
  482 -0.3895766  1.18e-006  0.0149839
  483 -0.3515710  7.20e-006  0.0214602
  484 -0.3138255  9.15e-006  0.0272224
  485 -0.3081993  0.0000300  0.0272198
  486 -0.4202127  0.0000185  0.0077855
  487 -0.4278548  8.61e-006  0.0077844
  488 -0.4457757 -0.0016822  0.0038872
  489 -0.4538802 -0.0017138  0.0038880
  490 -0.4354919  0.0000191  0.0077857
  491 -0.3965126  0.0000123  0.0149809
  492 -0.4619843 -0.0017433  0.0038873
  493 -0.4700891 -0.0017750  0.0038882
  494 -0.4431344  8.93e-006  0.0077847
  495 -0.4034894  1.24e-006  0.0149843
  496 -0.3577754  0.0000197  0.0214512
  497 -0.3641267  7.45e-006  0.0214609
  498 -0.3250332  9.30e-006  0.0272231
  499 -0.3194062  0.0000311  0.0272203
  500 -0.3703286  0.0000204  0.0214519
  501 -0.4104249  0.0000127  0.0149813
  502 -0.4174025  1.31e-006  0.0149848
  503 -0.3766826  7.79e-006  0.0214615
  504 -0.3362412  9.91e-006  0.0272238
  505 -0.3306132  0.0000323  0.0272212
  506 -0.4507717  0.0000198  0.0077860
  507 -0.4584146  9.24e-006  0.0077849
  508 -0.4781936 -0.0018045  0.0038875
  509 -0.4862987 -0.0018362  0.0038883
  510 -0.4660520  0.0000205  0.0077863
  511 -0.4243375  0.0000132  0.0149818
  512 -0.4944034 -0.0018657  0.0038876
  513 -0.5025089 -0.0018974  0.0038884
  514 -0.4736952  9.55e-006  0.0077852
  515 -0.4313160  1.34e-006  0.0149853
  516 -0.3828821  0.0000211  0.0214525
  517 -0.3892387  8.00e-006  0.0214622
  518 -0.3474492  0.0000100  0.0272246
  519 -0.3418204  0.0000334  0.0272218
  520 -0.3954357  0.0000218  0.0214532
  521 -0.4382505  0.0000136  0.0149823
  522 -0.4452299  1.39e-006  0.0149858
  523 -0.4017951  8.31e-006  0.0214628
  524 -0.3586575  0.0000106  0.0272253
  525 -0.3530277  0.0000345  0.0272227
  526 -0.4813328  0.0000212  0.0077865
  527 -0.4889763  9.86e-006  0.0077855
  528 -0.5106139 -0.0019268  0.0038877
  529 -0.5187196 -0.0019586  0.0038886
  530 -0.4966142  0.0000218  0.0077868
  531 -0.4521639  0.0000140  0.0149828
  532 -0.5268249 -0.0019880  0.0038879
  533 -0.5349310 -0.0020198  0.0038887
  534 -0.5042580  0.0000102  0.0077858
  535 -0.4591442  1.42e-006  0.0149863
  536 -0.4079897  0.0000225  0.0214538
  537 -0.4143517  8.51e-006  0.0214635
  538 -0.3698657  0.0000107  0.0272261
  539 -0.3642351  0.0000356  0.0272233
  540 -0.4205438  0.0000232  0.0214545
  541 -0.4660776  0.0000145  0.0149833
  542 -0.4730588  1.49e-006  0.0149868
  543 -0.4269086  8.88e-006  0.0214641
  544 -0.3810742  0.0000114  0.0272267
  545 -0.3754427  0.0000367  0.0272242
  546 -0.5118960  0.0000225  0.0077871
  547 -0.5195402  0.0000105  0.0077861
  548 -0.5430366 -0.0020492  0.0038881
  549 -0.5511430 -0.0020810  0.0038889
  550 -0.5271784  0.0000232  0.0077874
  551 -0.4799917  0.0000149  0.0149838
  552 -0.5592490 -0.0021104  0.0038882
  553 -0.5673557 -0.0021423  0.0038891
  554 -0.5348229  0.0000108  0.0077864
  555 -0.4869737  1.58e-006  0.0149873
  556 -0.4330982  0.0000239  0.0214550
  557 -0.4394655  9.21e-006  0.0214646
  558 -0.3922824  0.0000116  0.0272273
  559 -0.3866502  0.0000380  0.0272246
  560 -0.4456525  0.0000249  0.0214555
  561 -0.4939060  0.0000155  0.0149842
  562 -0.5008888  1.78e-006  0.0149876
  563 -0.4520224  9.85e-006  0.0214649
  564 -0.4034907  0.0000128  0.0272274
  565 -0.3978577  0.0000395  0.0272252
  566 -0.5424612  0.0000239  0.0077877
  567 -0.5501060  0.0000112  0.0077866
  568 -0.5754620 -0.0021716  0.0038884
  569 -0.5835691 -0.0022035  0.0038892
  570 -0.5577444  0.0000246  0.0077878
  571 -0.5078203  0.0000161  0.0149843
  572 -0.5916756 -0.0022328  0.0038885
  573 -0.5997828 -0.0022648  0.0038892
  574 -0.5653893  0.0000116  0.0077866
  575 -0.5148037  2.12e-006  0.0149875
  576 -0.4582067  0.0000260  0.0214554
  577 -0.4645789  0.0000107  0.0214645
  578 -0.4146984  0.0000139  0.0272268
  579 -0.4090649  0.0000413  0.0272248
  580 -0.4707604  0.0000276  0.0214547
  581 -0.5217341  0.0000170  0.0149839
  582 -0.5287178  2.73e-006  0.0149866
  583 -0.4771346  0.0000121  0.0214631
  584 -0.4259055  0.0000165  0.0272248
  585 -0.4202716  0.0000439  0.0272238
  586 -0.5730274  0.0000254  0.0077877
  587 -0.5806720  0.0000121  0.0077862
  588 -0.6078893 -0.0022940  0.0038884
  589 -0.6159964 -0.0023260  0.0038891
  590 -0.5883095  0.0000264  0.0077870
  591 -0.5356468  0.0000181  0.0149825
  592 -0.6241025 -0.0023552  0.0038882
  593 -0.6322088 -0.0023872  0.0038887
  594 -0.5959533  0.0000127  0.0077852
  595 -0.5426302  3.70e-006  0.0149845
  596 -0.4833128  0.0000297  0.0214524
  597 -0.4896887  0.0000142  0.0214599
  598 -0.4371110  0.0000196  0.0272207
  599 -0.4314772  0.0000474  0.0272206
  600 -0.4958630  0.0000328  0.0214480
  601 -0.5495571  0.0000198  0.0149795
  602 -0.5565393  5.28e-006  0.0149803
  603 -0.5022398  0.0000176  0.0214537
  604 -0.4483145  0.0000253  0.0272129
  605 -0.4426810  0.0000525  0.0272151
  606 -0.6035894  0.0000275  0.0077856
  607 -0.6112315  0.0000136  0.0077832
  608 -0.6403138 -0.0024164  0.0038875
  609 -0.6484184 -0.0024484  0.0038877
  610 -0.6188648  0.0000288  0.0077827
  611 -0.5634631  0.0000221  0.0149738
  612 -0.6565209 -0.0024775  0.0038861
  613 -0.6646222 -0.0025095  0.0038858
  614 -0.6265037  0.0000147  0.0077794
  615 -0.5704429  7.65e-006  0.0149728
  616 -0.5084094  0.0000373  0.0214397
  617 -0.5147861  0.0000225  0.0214431
  618 -0.4595142  0.0000328  0.0271998
  619 -0.4538820  0.0000598  0.0272047
  620 -0.5209499  0.0000437  0.0214261
  621 -0.5773619  0.0000254  0.0149642
  622 -0.5843373  0.0000112  0.0149605
  623 -0.5273251  0.0000297  0.0214257
  624 -0.4707090  0.0000447  0.0271786
  625 -0.4650787  0.0000701  0.0271882
  626 -0.6341325  0.0000305  0.0077777
  627 -0.6417658  0.0000163  0.0077730
  628 -0.6727202 -0.0025385  0.0038837
  629 -0.6808157 -0.0025704  0.0038827
  630 -0.6493873  0.0000327  0.0077696
  631 -0.5912492  0.0000300  0.0149486
  632 -0.6889062 -0.0025993  0.0038796
  633 -0.6969922 -0.0026312  0.0038776
  634 -0.6570116  0.0000184  0.0077627
  635 -0.5982174  0.0000163  0.0149410
  636 -0.5334811  0.0000527  0.0214043
  637 -0.5398527  0.0000398  0.0213987
  638 -0.4818959  0.0000605  0.0271462
  639 -0.4762690  0.0000845  0.0271616
  640 -0.5459989  0.0000650  0.0213711
  641 -0.6051191  0.0000364  0.0149245
  642 -0.6120765  0.0000234  0.0149115
  643 -0.5523643  0.0000538  0.0213583
  644 -0.4930726  0.0000830  0.0270982
  645 -0.4874505  0.0001043  0.0271223
  646 -0.6646219  0.0000356  0.0077568
  647 -0.6722324  0.0000213  0.0077470
  648 -0.7050707 -0.0026598  0.0038732
  649 -0.7131418 -0.0026916  0.0038696
  650 -0.6798257  0.0000393  0.0077376
  651 -0.6189635  0.0000451  0.0148886
  652 -0.7212019 -0.0027199  0.0038635
  653 -0.7292505 -0.0027514  0.0038578
  654 -0.6874159  0.0000251  0.0077237
  655 -0.6259049  0.0000329  0.0148683
  656 -0.5584975  0.0000816  0.0213223
  657 -0.5648532  0.0000724  0.0212998
  658 -0.5042351  0.0001121  0.0270295
  659 -0.4986197  0.0001307  0.0270643
  660 -0.5709698  0.0001034  0.0212528
  661 -0.6327715  0.0000565  0.0148370
  662 -0.6396905  0.0000455  0.0148070
  663 -0.5773117  0.0000968  0.0212177
  664 -0.5153801  0.0001504  0.0269342
  665 -0.5097731  0.0001650  0.0269834
  666 -0.6949846  0.0000440  0.0077097
  667 -0.7025457  0.0000301  0.0076903
  668 -0.7372834 -0.0027794  0.0038492
  669 -0.7452993 -0.0028104  0.0038406
  670 -0.7100798  0.0000500  0.0076701
  671 -0.6465296  0.0000711  0.0147647
  672 -0.7532930 -0.0028379  0.0038288
  673 -0.7612625 -0.0028684  0.0038165
  674 -0.7176005  0.0000364  0.0076438
  675 -0.6534183  0.0000615  0.0147225
  676 -0.5834072  0.0001311  0.0211568
  677 -0.5897306  0.0001271  0.0211062
  678 -0.5265035  0.0001969  0.0268065
  679 -0.5209069  0.0002081  0.0268723
  680 -0.5958004  0.0001651  0.0210284
  681 -0.6602213  0.0000893  0.0146667
  682 -0.6670706  0.0000812  0.0146096
  683 -0.6021009  0.0001638  0.0209595
  684 -0.5376042  0.0002525  0.0266413
  685 -0.5320183  0.0002601  0.0267266
  686 -0.7250872  0.0000574  0.0076157
  687 -0.7325534  0.0000442  0.0075807
  688 -0.7692016 -0.0028950  0.0038004
  689 -0.7771072 -0.0029247  0.0037834
  690 -0.7399774  0.0000662  0.0075431
  691 -0.6738280  0.0001110  0.0145377
  692 -0.7849720 -0.0029502  0.0037621
  693 -0.7927917 -0.0029787  0.0037393
  694 -0.7473723  0.0000534  0.0074977
  695 -0.6806284  0.0001040  0.0144635
  696 -0.6081409  0.0002047  0.0208625
  697 -0.6144150  0.0002051  0.0207737
  698 -0.5486835  0.0003125  0.0264370
  699 -0.5431068  0.0003192  0.0265415
  700 -0.6204236  0.0002477  0.0206569
  701 -0.6873311  0.0001354  0.0143738
  702 -0.6940743  0.0001289  0.0142815
  703 -0.6266717  0.0002478  0.0205492
  704 -0.5597530  0.0003709  0.0261990
  705 -0.5541784  0.0003805  0.0263193
  706 -0.7547158  0.0000764  0.0074489
  707 -0.7620209  0.0000638  0.0073917
  708 -0.8005581 -0.0030028  0.0037117
  709 -0.8082659 -0.0030296  0.0036821
  710 -0.7692649  0.0000875  0.0073308
  711 -0.7007160  0.0001606  0.0141742
  712 -0.8159057 -0.0030516  0.0036473
  713 -0.8234715 -0.0030760  0.0036100
  714 -0.7764616  0.0000746  0.0072614
  715 -0.7073987  0.0001528  0.0140656
  716 -0.6326527  0.0002888  0.0204158
  717 -0.6388832  0.0002839  0.0202957
  718 -0.5708384  0.0004107  0.0259469
  719 -0.5652504  0.0004329  0.0260702
  720 -0.6448520  0.0003167  0.0201569
  721 -0.7139810  0.0001822  0.0139449
  722 -0.7206120  0.0001694  0.0138279
  723 -0.6510896  0.0002974  0.0200420
  724 -0.5819967  0.0004020  0.0257278
  725 -0.5763621  0.0004545  0.0258265
  726 -0.7835892  0.0000983  0.0071887
  727 -0.7906635  0.0000842  0.0071088
  728 -0.8309532 -0.0030951  0.0035674
  729 -0.8383447 -0.0031160  0.0035223
  730 -0.7976655  0.0001065  0.0070278
  731 -0.7271545  0.0001913  0.0137068
  732 -0.8456363 -0.0031308  0.0034721
  733 -0.8528226 -0.0031464  0.0034201
  734 -0.8046165  0.0000895  0.0069431
  735 -0.7337691  0.0001658  0.0136015
  736 -0.6570844  0.0003083  0.0199244
  737 -0.6633859  0.0002549  0.0198551
  738 -0.5933335  0.0002783  0.0256435
  739 -0.5875913  0.0004003  0.0256565
  740 -0.6694902  0.0002159  0.0198180
  741 -0.7403305  0.0001686  0.0135106
  742 -0.7470205  0.0001120  0.0134640
  743 -0.6759753  0.0000833  0.0198812
  744 -0.6050448 -0.0000917  0.0259028
  745 -0.5990847  0.0001781  0.0257091
  746 -0.8115049  0.0001074  0.0068632
  747 -0.8183639  0.0000821  0.0067892
  748 -0.8598959 -0.0031548  0.0033642
  749 -0.8668549 -0.0031625  0.0033089
  750 -0.8252015  0.0000869  0.0067363
  751 -0.7537411  0.0000629  0.0134769
  752 -0.8736987 -0.0031604  0.0032538
  753 -0.8804371 -0.0031540  0.0032055
  754 -0.8320820  0.0000421  0.0067144
  755 -0.7607255 -0.0000748  0.0136107
  756 -0.6823558 -0.0000794  0.0200530
  757 -0.6892605 -0.0004280  0.0204606
  758 -0.6173792 -0.0010848  0.0269598
  759 -0.6110451 -0.0004445  0.0262829
  760 -0.6961989 -0.0008950  0.0211689
  761 -0.7679443 -0.0002455  0.0139168
  762 -0.7756957 -0.0006353  0.0145391
  763 -0.7038275 -0.0017846  0.0224162
  764 -0.6306770 -0.0034931  0.0297530
  765 -0.6238122 -0.0019621  0.0280289
  766 -0.8390640  0.0000157  0.0067536
  767 -0.8462927 -0.0000903  0.0068934
  768 -0.8870846 -0.0031311  0.0031663
  769 -0.8936789 -0.0031007  0.0031511
  770 -0.8539879 -0.0002562  0.0072423
  771 -0.7842052 -0.0012691  0.0157115
  772 -0.9002992 -0.0030472  0.0031891
  773 -0.9071065 -0.0029607  0.0033219
  774 -0.8625906 -0.0005935  0.0079719
  775 -0.7940731 -0.0024897  0.0178361
  776 -0.7120258 -0.0032338  0.0244778
  777 -0.7212608 -0.0058993  0.0278793
  778 -0.6451200 -0.0101784  0.0362255
  779 -0.6377293 -0.0059605  0.0323518
  780 -0.7313548 -0.0109295  0.0334751
  781 -0.8059837 -0.0050054  0.0218204
  782 -0.8208185 -0.0107009  0.0294475
  783 -0.7414672 -0.0209638  0.0424769
  784 -0.6567323 -0.0300202  0.0487947
  785 -0.6519678 -0.0174059  0.0417523
  786 -0.8729420 -0.0013499  0.0094972
  787 -0.8868973 -0.0032627  0.0129916
  788 -0.9144244 -0.0028664  0.0036924
  789 -0.9231508 -0.0026923  0.0045593
  790 -0.9083110 -0.0092959  0.0212180
  791 -0.8385088 -0.0249060  0.0447541
  792 -0.9355324 -0.0039534  0.0080312
  793 -0.9647457 -0.0069659  0.0176788
  794 -0.9468781 -0.0318050  0.0480633
  795 -0.8472781 -0.0656764  0.0702598
  796 -0.7474857 -0.0417785  0.0551413
  797 -0.7428862 -0.0826229  0.0643261
  798 -0.6508982 -0.0808487  0.0543799
  799 -0.6566702 -0.0510637  0.0550470
  800 -0.7298068 -0.1356420  0.0511033
  801 -0.6429590 -0.1104165  0.0402160
  802 -0.8301235 -0.1630378  0.0757020
  803 -0.8181858 -0.2384163  0.0075082
  804 -0.7244667 -0.1624995  0.0107633
  805 -0.6408358 -0.1234713  0.0136555
  806 -0.9589608 -0.1472965  0.0955168
  807 -1.0711200 -0.1284490  0.1308157
  808 -1.2347678 -0.5561769  0.0019430
  809 -0.9883284 -0.4073361  0.0039001
  810 -0.7360786 -0.1356420 -0.0295904
  811 -0.8370729 -0.1630366 -0.0607045
  812 -0.8611860 -0.0656804 -0.0552551
  813 -0.7554240 -0.0826242 -0.0428184
  814 -0.6620867 -0.0808442 -0.0270865
  815 -0.6485554 -0.1104171 -0.0129112
  816 -0.9665987 -0.1472980 -0.0877181
  817 -0.9621585 -0.0318052 -0.0402595
  818 -1.0792254 -0.1284799 -0.1269258
  819 -0.9809568 -0.0070263 -0.0137931
  820 -0.9311667 -0.0092897 -0.0134332
  821 -0.9598393 -0.0040415 -0.0041486
  822 -0.9555656 -0.0028268 -0.0006663
  823 -0.9173945 -0.0032943 -0.0052305
  824 -0.8486060 -0.0106835 -0.0144674
  825 -0.8592750 -0.0248745 -0.0297505
  826 -0.7662325 -0.0418076 -0.0336609
  827 -0.7664785 -0.0210080 -0.0210187
  828 -0.6790576 -0.0300307 -0.0215180
  829 -0.6734560 -0.0510548 -0.0277640
  830 -0.7626657 -0.0109423 -0.0119962
  831 -0.6798720 -0.0174311 -0.0144959
  832 -0.8406662 -0.0049841 -0.0068189
  833 -0.8358038 -0.0024962 -0.0028374
  834 -0.7589086 -0.0058935 -0.0063932
  835 -0.6786473 -0.0101768 -0.0089754
  836 -0.9110897 -0.0013572 -0.0017175
  837 -0.9549494 -0.0030084  0.0001981
  838 -0.9557400 -0.0031470  0.0005637
  839 -0.9084277 -0.0005970 -0.0001889
  840 -0.7559479 -0.0032393 -0.0029975
  841 -0.8328938 -0.0012710 -0.0007135
  842 -0.8312788 -0.0006346  0.0004490
  843 -0.7539364 -0.0017615 -0.0009363
  844 -0.6754226 -0.0034888 -0.0024980
  845 -0.6769197 -0.0059777 -0.0051005
  846 -0.9074680 -0.0002544  0.0005437
  847 -0.9074111 -0.0000836  0.0008885
  848 -0.9570331 -0.0032614  0.0006981
  849 -0.9585153 -0.0033442  0.0007347
  850 -0.9078252  6.65e-006  0.0010334
  851 -0.8304722 -0.0002650  0.0010640
  852 -0.9600244 -0.0034098  0.0007215
  853 -0.9614849 -0.0034588  0.0006855
  854 -0.9084826  0.0000503  0.0010744
  855 -0.8302304 -0.0000746  0.0013762
  856 -0.7526428 -0.0008599  0.0002873
  857 -0.7519463 -0.0004046  0.0010004
  858 -0.6733490 -0.0010851  0.0002719
  859 -0.6741489 -0.0019791 -0.0008049
  860 -0.7513989 -0.0000795  0.0013997
  861 -0.8302583  0.0000644  0.0015014
  862 -0.8304994  0.0001110  0.0015204
  863 -0.7513117  0.0000845  0.0015786
  864 -0.6722917 -0.0000840  0.0013176
  865 -0.6726749 -0.0004375  0.0009468
  866 -0.9092434  0.0000923  0.0010483
  867 -0.9100451  0.0000830  0.0009947
  868 -0.9628543 -0.0034953  0.0006332
  869 -0.9641142 -0.0035303  0.0005783
  870 -0.9108258  0.0001111  0.0009226
  871 -0.8307617  0.0001701  0.0014708
  872 -0.9652588 -0.0035527  0.0005230
  873 -0.9662904 -0.0035749  0.0004682
  874 -0.9115784  0.0000914  0.0008419
  875 -0.8311619  0.0001657  0.0013838
  876 -0.7510869  0.0002165  0.0016341
  877 -0.7512778  0.0002568  0.0016081
  878 -0.6717890  0.0002867  0.0015837
  879 -0.6719333  0.0001706  0.0015124
  880 -0.7512356  0.0003151  0.0015278
  881 -0.8314990  0.0001950  0.0012751
  882 -0.8319184  0.0001701  0.0011569
  883 -0.7515374  0.0002997  0.0014191
  884 -0.6716595  0.0004040  0.0014956
  885 -0.6716457  0.0004105  0.0015633
  886 -0.9122671  0.0001117  0.0007585
  887 -0.9129061  0.0000868  0.0006761
  888 -0.9672092 -0.0035895  0.0004154
  889 -0.9680230 -0.0036056  0.0003659
  890 -0.9134713  0.0001040  0.0005973
  891 -0.8322379  0.0001860  0.0010366
  892 -0.9687365 -0.0036150  0.0003200
  893 -0.9693598 -0.0036268  0.0002782
  894 -0.9139847  0.0000774  0.0005234
  895 -0.8326183  0.0001532  0.0009193
  896 -0.7515557  0.0003225  0.0012952
  897 -0.7518870  0.0002863  0.0011659
  898 -0.6717103  0.0004139  0.0012773
  899 -0.6716226  0.0004636  0.0013953
  900 -0.7519102  0.0002956  0.0010365
  901 -0.8328856  0.0001648  0.0008074
  902 -0.8332074  0.0001294  0.0007034
  903 -0.7522318  0.0002507  0.0009124
  904 -0.6718329  0.0003746  0.0010249
  905 -0.6717186  0.0004438  0.0011515
  906 -0.9144274  0.0000939  0.0004553
  907 -0.9148245  0.0000669  0.0003932
  908 -0.9698989 -0.0036327  0.0002402
  909 -0.9703642 -0.0036416  0.0002061
  910 -0.9151587  0.0000835  0.0003372
  911 -0.8334134  0.0001400  0.0006077
  912 -0.9707613 -0.0036450  0.0001757
  913 -0.9711000 -0.0036519  0.0001489
  914 -0.9154564  0.0000568  0.0002872
  915 -0.8336748  0.0001046  0.0005213
  916 -0.7522346  0.0002552  0.0007953
  917 -0.7525310  0.0002081  0.0006878
  918 -0.6719713  0.0003163  0.0007868
  919 -0.6718537  0.0003923  0.0009021
  920 -0.7525054  0.0002129  0.0005897
  921 -0.8338230  0.0001160  0.0004438
  922 -0.8340305  0.0000818  0.0003752
  923 -0.7527730  0.0001671  0.0005020
  924 -0.6721000  0.0002568  0.0005825
  925 -0.6719893  0.0003321  0.0006800
  926 -0.9157007  0.0000740  0.0002430
  927 -0.9159179  0.0000479  0.0002041
  928 -0.9713851 -0.0036537  0.0001253
  929 -0.9716253 -0.0036591  0.0001048
  930 -0.9160909  0.0000658  0.0001703
  931 -0.8341289  0.0000948  0.0003148
  932 -0.9718246 -0.0036596  0.0000870
  933 -0.9719906 -0.0036640  0.0000717
  934 -0.9162454  0.0000404  0.0001410
  935 -0.8342915  0.0000622  0.0002623
  936 -0.7527184  0.0001740  0.0004237
  937 -0.7529588  0.0001307  0.0003553
  938 -0.6722074  0.0002015  0.0004174
  939 -0.6721079  0.0002742  0.0004948
  940 -0.7528786  0.0001407  0.0002954
  941 -0.8343499  0.0000771  0.0002168
  942 -0.8344771  0.0000463  0.0001778
  943 -0.7530959  0.0001007  0.0002437
  944 -0.6722920  0.0001554  0.0002896
  945 -0.6722038  0.0002233  0.0003492
  946 -0.9163637  0.0000591  0.0001159
  947 -0.9164711  0.0000345  0.0000945
  948 -0.9721259 -0.0036636  0.0000586
  949 -0.9722373 -0.0036673  0.0000476
  950 -0.9165489  0.0000538  0.0000764
  951 -0.8345045  0.0000629  0.0001445
  952 -0.9723262 -0.0036663  0.0000382
  953 -0.9723984 -0.0036695  0.0000304
  954 -0.9166217  0.0000298  0.0000611
  955 -0.8346048  0.0000337  0.0001165
  956 -0.7529947  0.0001137  0.0001993
  957 -0.7531934  0.0000765  0.0001617
  958 -0.6723549  0.0001173  0.0001943
  959 -0.6722772  0.0001813  0.0002381
  960 -0.7530759  0.0000926  0.0001298
  961 -0.8346091  0.0000519  0.0000929
  962 -0.8346898  0.0000242  0.0000733
  963 -0.7532606  0.0000582  0.0001032
  964 -0.6724005  0.0000887  0.0001256
  965 -0.6723310  0.0001481  0.0001572
  966 -0.9166703  0.0000497  0.0000484
  967 -0.9167186  0.0000263  0.0000379
  968 -0.9724546 -0.0036680  0.0000239
  969 -0.9724995 -0.0036708  0.0000186
  970 -0.9167468  0.0000467  0.0000292
  971 -0.8346774  0.0000437  0.0000570
  972 -0.9725333 -0.0036691  0.0000142
  973 -0.9725598 -0.0036717  0.0000106
  974 -0.9167783  0.0000237  0.0000222
  975 -0.8347441  0.0000171  0.0000438
  976 -0.7531307  0.0000767  0.0000810
  977 -0.7533050  0.0000444  0.0000628
  978 -0.6724317  0.0000664  0.0000776
  979 -0.6723689  0.0001228  0.0000991
  980 -0.7531664  0.0000651  0.0000479
  981 -0.8347201  0.0000377  0.0000330
  982 -0.8347773  0.0000121  0.0000243
  983 -0.7533334  0.0000347  0.0000358
  984 -0.6724529  0.0000511  0.0000451
  985 -0.6723947  0.0001042  0.0000599
  986 -0.9167926  0.0000445  0.0000165
  987 -0.9168128  0.0000219  0.0000119
  988 -0.9725786 -0.0036697  7.80e-006
  989 -0.9725932 -0.0036721  5.54e-006
  990 -0.9168181  0.0000430  8.31e-006
  991 -0.8347454  0.0000336  0.0000173
  992 -0.9726025 -0.0036701  3.76e-006
  993 -0.9726095 -0.0036724  2.38e-006
  994 -0.9168311  0.0000206  5.50e-006
  995 -0.8347962  8.64e-006  0.0000119
  996 -0.7531885  0.0000568  0.0000260
  997 -0.7533505  0.0000277  0.0000184
  998 -0.6724661  0.0000395  0.0000240
  999 -0.6724115  0.0000909  0.0000332
 1000 -0.7532015  0.0000511  0.0000124
 1001 -0.8347592  0.0000307  7.69e-006
 1002 -0.8348060  6.33e-006  4.45e-006
 1003 -0.7533602  0.0000232  7.72e-006
 1004 -0.6724744  0.0000324  0.0000109
 1005 -0.6724220  0.0000817  0.0000168
 1006 -0.9168307  0.0000420  3.34e-006
 1007 -0.9168393  0.0000198  1.71e-006
 1008 -0.9726130 -0.0036703  1.33e-006
 1009 -0.9726156 -0.0036725  5.50e-007
 1010 -0.9168355  0.0000413  4.98e-007
 1011 -0.8347659  0.0000288  2.02e-006
 1012 -0.9726157 -0.0036703 -2.18e-008
 1013 -0.9726159 -0.0036725 -4.23e-007
 1014 -0.9168416  0.0000192 -3.67e-007
 1015 -0.8348102  4.80e-006  2.54e-007
 1016 -0.7532085  0.0000474  4.15e-006
 1017 -0.7533650  0.0000200  1.57e-006
 1018 -0.6724788  0.0000270  3.15e-006
 1019 -0.6724282  0.0000755  6.29e-006
 1020 -0.7532118  0.0000450 -2.87e-007
 1021 -0.8347682  0.0000276 -9.94e-007
 1022 -0.8348111  3.88e-006 -1.85e-006
 1023 -0.7533670  0.0000182 -1.65e-006
 1024 -0.6724814  0.0000244 -1.04e-006
 1025 -0.6724315  0.0000716  8.78e-007
 1026 -0.9168359  0.0000409 -9.64e-007
 1027 -0.9168407  0.0000189 -1.35e-006
 1028 -0.9726143 -0.0036703 -6.92e-007
 1029 -0.9726133 -0.0036725 -8.60e-007
 1030 -0.9168341  0.0000406 -1.59e-006
 1031 -0.8347681  0.0000269 -2.40e-006
 1032 -0.9726110 -0.0036703 -9.50e-007
 1033 -0.9726096 -0.0036725 -9.81e-007
 1034 -0.9168383  0.0000187 -1.69e-006
 1035 -0.8348103  3.32e-006 -2.68e-006
 1036 -0.7532128  0.0000435 -2.56e-006
 1037 -0.7533673  0.0000170 -3.05e-006
 1038 -0.6724821  0.0000220 -2.98e-006
 1039 -0.6724331  0.0000691 -2.40e-006
 1040 -0.7532126  0.0000427 -3.27e-006
 1041 -0.8347668  0.0000265 -2.79e-006
 1042 -0.8348088  3.05e-006 -2.78e-006
 1043 -0.7533668  0.0000165 -3.38e-006
 1044 -0.6724826  0.0000214 -3.58e-006
 1045 -0.6724337  0.0000677 -3.23e-006
 1046 -0.9168314  0.0000405 -1.71e-006
 1047 -0.9168354  0.0000186 -1.66e-006
 1048 -0.9726071 -0.0036703 -9.69e-007
 1049 -0.9726057 -0.0036724 -9.29e-007
 1050 -0.9168286  0.0000404 -1.57e-006
 1051 -0.8347652  0.0000263 -2.68e-006
 1052 -0.9726034 -0.0036702 -8.68e-007
 1053 -0.9726023 -0.0036724 -7.94e-007
 1054 -0.9168327  0.0000186 -1.45e-006
 1055 -0.8348071  2.88e-006 -2.49e-006
 1056 -0.7532119  0.0000422 -3.35e-006
 1057 -0.7533659  0.0000161 -3.13e-006
 1058 -0.6724821  0.0000204 -3.44e-006
 1059 -0.6724336  0.0000670 -3.75e-006
 1060 -0.7532109  0.0000420 -2.85e-006
 1061 -0.8347635  0.0000262 -2.27e-006
 1062 -0.8348055  2.86e-006 -2.03e-006
 1063 -0.7533650  0.0000161 -2.60e-006
 1064 -0.6724820  0.0000207 -2.91e-006
 1065 -0.6724333  0.0000666 -3.03e-006
 1066 -0.9168260  0.0000404 -1.31e-006
 1067 -0.9168304  0.0000186 -1.16e-006
 1068 -0.9726002 -0.0036702 -7.12e-007
 1069 -0.9725994 -0.0036724 -6.27e-007
 1070 -0.9168240  0.0000404 -1.01e-006
 1071 -0.8347620  0.0000262 -1.78e-006
 1072 -0.9725977 -0.0036701 -5.43e-007
 1073 -0.9725972 -0.0036723 -4.58e-007
 1074 -0.9168286  0.0000186 -8.54e-007
 1075 -0.8348042  2.83e-006 -1.51e-006
 1076 -0.7532101  0.0000420 -2.33e-006
 1077 -0.7533642  0.0000160 -1.96e-006
 1078 -0.6724814  0.0000201 -2.22e-006
 1079 -0.6724329  0.0000665 -2.75e-006
 1080 -0.7532093  0.0000420 -1.59e-006
 1081 -0.8347609  0.0000262 -1.24e-006
 1082 -0.8348033  2.87e-006 -9.92e-007
 1083 -0.7533636  0.0000161 -1.30e-006
 1084 -0.6724813  0.0000206 -1.48e-006
 1085 -0.6724326  0.0000665 -1.68e-006
 1086 -0.9168224  0.0000404 -7.02e-007
 1087 -0.9168273  0.0000186 -5.56e-007
 1088 -0.9725958 -0.0036701 -3.75e-007
 1089 -0.9725957 -0.0036723 -2.97e-007
 1090 -0.9168214  0.0000404 -4.15e-007
 1091 -0.8347602  0.0000262 -7.47e-007
 1092 -0.9725946 -0.0036701 -2.20e-007
 1093 -0.9725948 -0.0036723 -1.45e-007
 1094 -0.9168265  0.0000186 -2.73e-007
 1095 -0.8348027  2.86e-006 -4.89e-007
 1096 -0.7532088  0.0000420 -1.01e-006
 1097 -0.7533632  0.0000160 -6.43e-007
 1098 -0.6724809  0.0000202 -7.37e-007
 1099 -0.6724323  0.0000665 -1.28e-006
 1100 -0.7532086  0.0000420 -2.81e-007
 1101 -0.8347598  0.0000262 -2.35e-007
 1102 -0.8348025  2.89e-006  4.61e-012
 1103 -0.7533631  0.0000161  6.23e-012
 1104 -0.6724810  0.0000207  7.34e-012
 1105 -0.6724322  0.0000665 -1.93e-007
 1106 -0.9168209  0.0000404 -1.34e-007
 1107 -0.9168263  0.0000186  2.48e-012
 1108 -0.9725940 -0.0036701 -7.15e-008
 1109 -0.9725945 -0.0036723  1.24e-012
 1110 -0.9168209  0.0000404  1.34e-007
 1111 -0.8347598  0.0000262  2.35e-007
 1112 -0.9725940 -0.0036701  7.15e-008
 1113 -0.9725948 -0.0036723  1.45e-007
 1114 -0.9168265  0.0000186  2.73e-007
 1115 -0.8348027  2.86e-006  4.89e-007
 1116 -0.7532086  0.0000420  2.81e-007
 1117 -0.7533632  0.0000160  6.43e-007
 1118 -0.6724809  0.0000202  7.37e-007
 1119 -0.6724322  0.0000665  1.93e-007
 1120 -0.7532088  0.0000420  1.01e-006
 1121 -0.8347602  0.0000262  7.47e-007
 1122 -0.8348033  2.87e-006  9.92e-007
 1123 -0.7533636  0.0000161  1.30e-006
 1124 -0.6724813  0.0000206  1.48e-006
 1125 -0.6724323  0.0000665  1.28e-006
 1126 -0.9168214  0.0000404  4.15e-007
 1127 -0.9168273  0.0000186  5.56e-007
 1128 -0.9725946 -0.0036701  2.20e-007
 1129 -0.9725957 -0.0036723  2.97e-007
 1130 -0.9168224  0.0000404  7.02e-007
 1131 -0.8347609  0.0000262  1.24e-006
 1132 -0.9725958 -0.0036701  3.75e-007
 1133 -0.9725972 -0.0036723  4.58e-007
 1134 -0.9168286  0.0000186  8.54e-007
 1135 -0.8348042  2.83e-006  1.51e-006
 1136 -0.7532093  0.0000420  1.59e-006
 1137 -0.7533642  0.0000160  1.96e-006
 1138 -0.6724814  0.0000201  2.22e-006
 1139 -0.6724326  0.0000665  1.68e-006
 1140 -0.7532101  0.0000420  2.33e-006
 1141 -0.8347620  0.0000262  1.78e-006
 1142 -0.8348055  2.86e-006  2.03e-006
 1143 -0.7533650  0.0000161  2.60e-006
 1144 -0.6724820  0.0000207  2.91e-006
 1145 -0.6724329  0.0000665  2.75e-006
 1146 -0.9168240  0.0000404  1.01e-006
 1147 -0.9168304  0.0000186  1.16e-006
 1148 -0.9725977 -0.0036701  5.43e-007
 1149 -0.9725994 -0.0036724  6.27e-007
 1150 -0.9168260  0.0000404  1.31e-006
 1151 -0.8347635  0.0000262  2.27e-006
 1152 -0.9726002 -0.0036702  7.12e-007
 1153 -0.9726023 -0.0036724  7.94e-007
 1154 -0.9168327  0.0000186  1.45e-006
 1155 -0.8348071  2.88e-006  2.49e-006
 1156 -0.7532109  0.0000420  2.85e-006
 1157 -0.7533659  0.0000161  3.13e-006
 1158 -0.6724821  0.0000204  3.44e-006
 1159 -0.6724333  0.0000666  3.03e-006
 1160 -0.7532119  0.0000422  3.35e-006
 1161 -0.8347652  0.0000263  2.68e-006
 1162 -0.8348088  3.05e-006  2.78e-006
 1163 -0.7533668  0.0000165  3.38e-006
 1164 -0.6724826  0.0000214  3.58e-006
 1165 -0.6724336  0.0000670  3.75e-006
 1166 -0.9168286  0.0000404  1.57e-006
 1167 -0.9168354  0.0000186  1.66e-006
 1168 -0.9726034 -0.0036702  8.68e-007
 1169 -0.9726057 -0.0036724  9.29e-007
 1170 -0.9168314  0.0000405  1.71e-006
 1171 -0.8347668  0.0000265  2.79e-006
 1172 -0.9726071 -0.0036703  9.69e-007
 1173 -0.9726096 -0.0036725  9.81e-007
 1174 -0.9168383  0.0000187  1.69e-006
 1175 -0.8348103  3.32e-006  2.68e-006
 1176 -0.7532126  0.0000427  3.27e-006
 1177 -0.7533673  0.0000170  3.05e-006
 1178 -0.6724821  0.0000220  2.98e-006
 1179 -0.6724337  0.0000677  3.23e-006
 1180 -0.7532128  0.0000435  2.56e-006
 1181 -0.8347681  0.0000269  2.40e-006
 1182 -0.8348111  3.88e-006  1.85e-006
 1183 -0.7533670  0.0000182  1.65e-006
 1184 -0.6724814  0.0000244  1.04e-006
 1185 -0.6724331  0.0000691  2.40e-006
 1186 -0.9168341  0.0000406  1.59e-006
 1187 -0.9168407  0.0000189  1.35e-006
 1188 -0.9726110 -0.0036703  9.50e-007
 1189 -0.9726133 -0.0036725  8.60e-007
 1190 -0.9168359  0.0000409  9.64e-007
 1191 -0.8347682  0.0000276  9.94e-007
 1192 -0.9726143 -0.0036703  6.92e-007
 1193 -0.9726159 -0.0036725  4.23e-007
 1194 -0.9168416  0.0000192  3.67e-007
 1195 -0.8348102  4.80e-006 -2.54e-007
 1196 -0.7532118  0.0000450  2.87e-007
 1197 -0.7533650  0.0000200 -1.57e-006
 1198 -0.6724788  0.0000270 -3.15e-006
 1199 -0.6724315  0.0000716 -8.78e-007
 1200 -0.7532085  0.0000474 -4.15e-006
 1201 -0.8347659  0.0000288 -2.02e-006
 1202 -0.8348060  6.33e-006 -4.45e-006
 1203 -0.7533602  0.0000232 -7.72e-006
 1204 -0.6724744  0.0000324 -0.0000109
 1205 -0.6724282  0.0000755 -6.29e-006
 1206 -0.9168355  0.0000413 -4.98e-007
 1207 -0.9168393  0.0000198 -1.71e-006
 1208 -0.9726157 -0.0036703  2.18e-008
 1209 -0.9726156 -0.0036725 -5.50e-007
 1210 -0.9168307  0.0000420 -3.34e-006
 1211 -0.8347592  0.0000307 -7.69e-006
 1212 -0.9726130 -0.0036703 -1.33e-006
 1213 -0.9726095 -0.0036724 -2.38e-006
 1214 -0.9168311  0.0000206 -5.50e-006
 1215 -0.8347962  8.64e-006 -0.0000119
 1216 -0.7532015  0.0000511 -0.0000124
 1217 -0.7533505  0.0000277 -0.0000184
 1218 -0.6724661  0.0000395 -0.0000240
 1219 -0.6724220  0.0000817 -0.0000168
 1220 -0.7531885  0.0000568 -0.0000260
 1221 -0.8347454  0.0000336 -0.0000173
 1222 -0.8347773  0.0000121 -0.0000243
 1223 -0.7533334  0.0000347 -0.0000358
 1224 -0.6724529  0.0000511 -0.0000451
 1225 -0.6724115  0.0000909 -0.0000332
 1226 -0.9168181  0.0000430 -8.31e-006
 1227 -0.9168128  0.0000219 -0.0000119
 1228 -0.9726025 -0.0036701 -3.76e-006
 1229 -0.9725932 -0.0036721 -5.54e-006
 1230 -0.9167926  0.0000445 -0.0000165
 1231 -0.8347201  0.0000377 -0.0000330
 1232 -0.9725786 -0.0036697 -7.80e-006
 1233 -0.9725598 -0.0036717 -0.0000106
 1234 -0.9167783  0.0000237 -0.0000222
 1235 -0.8347441  0.0000171 -0.0000438
 1236 -0.7531664  0.0000651 -0.0000479
 1237 -0.7533050  0.0000444 -0.0000628
 1238 -0.6724317  0.0000664 -0.0000776
 1239 -0.6723947  0.0001042 -0.0000599
 1240 -0.7531307  0.0000767 -0.0000810
 1241 -0.8346774  0.0000437 -0.0000570
 1242 -0.8346898  0.0000242 -0.0000733
 1243 -0.7532606  0.0000582 -0.0001032
 1244 -0.6724005  0.0000887 -0.0001256
 1245 -0.6723689  0.0001228 -0.0000991
 1246 -0.9167468  0.0000467 -0.0000292
 1247 -0.9167186  0.0000263 -0.0000379
 1248 -0.9725333 -0.0036691 -0.0000142
 1249 -0.9724995 -0.0036708 -0.0000186
 1250 -0.9166703  0.0000497 -0.0000484
 1251 -0.8346091  0.0000519 -0.0000929
 1252 -0.9724546 -0.0036680 -0.0000239
 1253 -0.9723984 -0.0036695 -0.0000304
 1254 -0.9166217  0.0000298 -0.0000611
 1255 -0.8346048  0.0000337 -0.0001165
 1256 -0.7530759  0.0000926 -0.0001298
 1257 -0.7531934  0.0000765 -0.0001617
 1258 -0.6723549  0.0001173 -0.0001943
 1259 -0.6723310  0.0001481 -0.0001572
 1260 -0.7529947  0.0001137 -0.0001993
 1261 -0.8345045  0.0000629 -0.0001445
 1262 -0.8344771  0.0000463 -0.0001778
 1263 -0.7530959  0.0001007 -0.0002437
 1264 -0.6722920  0.0001554 -0.0002896
 1265 -0.6722772  0.0001813 -0.0002381
 1266 -0.9165489  0.0000538 -0.0000764
 1267 -0.9164711  0.0000345 -0.0000945
 1268 -0.9723262 -0.0036663 -0.0000382
 1269 -0.9722373 -0.0036673 -0.0000476
 1270 -0.9163638  0.0000591 -0.0001159
 1271 -0.8343499  0.0000771 -0.0002168
 1272 -0.9721260 -0.0036636 -0.0000586
 1273 -0.9719906 -0.0036640 -0.0000717
 1274 -0.9162454  0.0000404 -0.0001410
 1275 -0.8342915  0.0000622 -0.0002623
 1276 -0.7528786  0.0001407 -0.0002954
 1277 -0.7529588  0.0001307 -0.0003553
 1278 -0.6722074  0.0002015 -0.0004174
 1279 -0.6722038  0.0002233 -0.0003492
 1280 -0.7527184  0.0001740 -0.0004237
 1281 -0.8341290  0.0000948 -0.0003148
 1282 -0.8340305  0.0000818 -0.0003752
 1283 -0.7527730  0.0001671 -0.0005020
 1284 -0.6721000  0.0002568 -0.0005825
 1285 -0.6721079  0.0002742 -0.0004948
 1286 -0.9160909  0.0000658 -0.0001703
 1287 -0.9159179  0.0000479 -0.0002041
 1288 -0.9718246 -0.0036596 -0.0000870
 1289 -0.9716253 -0.0036591 -0.0001048
 1290 -0.9157007  0.0000740 -0.0002430
 1291 -0.8338230  0.0001160 -0.0004438
 1292 -0.9713851 -0.0036537 -0.0001253
 1293 -0.9711000 -0.0036519 -0.0001489
 1294 -0.9154564  0.0000568 -0.0002872
 1295 -0.8336749  0.0001046 -0.0005213
 1296 -0.7525054  0.0002129 -0.0005897
 1297 -0.7525310  0.0002081 -0.0006878
 1298 -0.6719714  0.0003163 -0.0007869
 1299 -0.6719893  0.0003321 -0.0006800
 1300 -0.7522346  0.0002552 -0.0007953
 1301 -0.8334134  0.0001400 -0.0006077
 1302 -0.8332074  0.0001294 -0.0007033
 1303 -0.7522317  0.0002506 -0.0009123
 1304 -0.6718328  0.0003745 -0.0010249
 1305 -0.6718537  0.0003923 -0.0009022
 1306 -0.9151587  0.0000835 -0.0003372
 1307 -0.9148245  0.0000669 -0.0003932
 1308 -0.9707613 -0.0036450 -0.0001757
 1309 -0.9703642 -0.0036416 -0.0002061
 1310 -0.9144274  0.0000939 -0.0004553
 1311 -0.8328856  0.0001648 -0.0008074
 1312 -0.9698990 -0.0036327 -0.0002402
 1313 -0.9693598 -0.0036268 -0.0002782
 1314 -0.9139848  0.0000774 -0.0005234
 1315 -0.8326184  0.0001532 -0.0009192
 1316 -0.7519102  0.0002955 -0.0010364
 1317 -0.7518871  0.0002863 -0.0011658
 1318 -0.6717102  0.0004139 -0.0012770
 1319 -0.6717185  0.0004436 -0.0011513
 1320 -0.7515560  0.0003227 -0.0012953
 1321 -0.8322380  0.0001860 -0.0010366
 1322 -0.8319182  0.0001698 -0.0011569
 1323 -0.7515375  0.0002996 -0.0014196
 1324 -0.6716605  0.0004049 -0.0014961
 1325 -0.6716229  0.0004641 -0.0013950
 1326 -0.9134713  0.0001040 -0.0005973
 1327 -0.9129062  0.0000867 -0.0006760
 1328 -0.9687365 -0.0036150 -0.0003200
 1329 -0.9680231 -0.0036056 -0.0003658
 1330 -0.9122672  0.0001116 -0.0007583
 1331 -0.8314988  0.0001946 -0.0012748
 1332 -0.9672096 -0.0035896 -0.0004153
 1333 -0.9662910 -0.0035749 -0.0004681
 1334 -0.9115786  0.0000917 -0.0008418
 1335 -0.8311619  0.0001662 -0.0013833
 1336 -0.7512349  0.0003137 -0.0015279
 1337 -0.7512777  0.0002569 -0.0016064
 1338 -0.6717893  0.0002808 -0.0015805
 1339 -0.6716451  0.0004087 -0.0015651
 1340 -0.7510873  0.0002207 -0.0016343
 1341 -0.8307620  0.0001716 -0.0014710
 1342 -0.8304999  0.0001124 -0.0015210
 1343 -0.7513109  0.0000853 -0.0015806
 1344 -0.6722927 -0.0000891 -0.0013215
 1345 -0.6719313  0.0001857 -0.0015125
 1346 -0.9108262  0.0001118 -0.0009229
 1347 -0.9100455  0.0000840 -0.0009958
 1348 -0.9652593 -0.0035523 -0.0005233
 1349 -0.9641132 -0.0035297 -0.0005793
 1350 -0.9092422  0.0000906 -0.0010499
 1351 -0.8302599  0.0000655 -0.0015048
 1352 -0.9628518 -0.0034969 -0.0006336
 1353 -0.9614851 -0.0034600 -0.0006828
 1354 -0.9084828  0.0000437 -0.0010706
 1355 -0.8302914 -0.0000745 -0.0013744
 1356 -0.7513986 -0.0000758 -0.0013997
 1357 -0.7520414 -0.0004273 -0.0009996
 1358 -0.6734128 -0.0010844 -0.0002743
 1359 -0.6726759 -0.0004381 -0.0009425
 1360 -0.7526820 -0.0008891 -0.0002880
 1361 -0.8305503 -0.0002431 -0.0010653
 1362 -0.8313397 -0.0006341 -0.0004510
 1363 -0.7540328 -0.0017824  0.0009386
 1364 -0.6754859 -0.0034899  0.0025030
 1365 -0.6742281 -0.0019573  0.0008010
 1366 -0.9078238  0.0000190 -0.0010328
 1367 -0.9074118 -0.0000895 -0.0008919
 1368 -0.9600273 -0.0034064 -0.0007213
 1369 -0.9585166 -0.0033454 -0.0007370
 1370 -0.9074675 -0.0002546 -0.0005424
 1371 -0.8328947 -0.0012683  0.0007165
 1372 -0.9570319 -0.0032617 -0.0006985
 1373 -0.9557347 -0.0031441 -0.0005656
 1374 -0.9084307 -0.0005918  0.0001869
 1375 -0.8358060 -0.0024891  0.0028401
 1376 -0.7559485 -0.0032305  0.0029960
 1377 -0.7589076 -0.0058972  0.0063975
 1378 -0.6787141 -0.0101754  0.0089686
 1379 -0.6769220 -0.0059558  0.0050937
 1380 -0.7627258 -0.0109285  0.0119936
 1381 -0.8407606 -0.0050051  0.0068244
 1382 -0.8486395 -0.0107008  0.0144525
 1383 -0.7665634 -0.0209636  0.0209961
 1384 -0.6791217 -0.0300176  0.0215238
 1385 -0.6799572 -0.0174020  0.0144912
 1386 -0.9111419 -0.0013484  0.0017119
 1387 -0.9174578 -0.0032609  0.0052060
 1388 -0.9549482 -0.0030192 -0.0001953
 1389 -0.9555687 -0.0028139  0.0006710
 1390 -0.9312249 -0.0092930  0.0134262
 1391 -0.8593719 -0.0249061  0.0297600
 1392 -0.9598438 -0.0040467  0.0041422
 1393 -0.9809535 -0.0070269  0.0137939
 1394 -0.9621568 -0.0318042  0.0402620
 1395 -0.8611879 -0.0656762  0.0552574
 1396 -0.7663057 -0.0417781  0.0336503
 1397 -0.7554270 -0.0826222  0.0428153
 1398 -0.6620850 -0.0808473  0.0270846
 1399 -0.6734575 -0.0510596  0.0277684
 1400 -0.7360791 -0.1356415  0.0295911
 1401 -0.6485557 -0.1104172  0.0129112
 1402 -0.8370727 -0.1630357  0.0607054
 1403 -0.8181858 -0.2384163 -0.0075071
 1404 -0.7244666 -0.1624995 -0.0107624
 1405 -0.6408358 -0.1234713 -0.0136552
 1406 -0.9665984 -0.1472973  0.0877190
 1407 -1.0792245 -0.1284793  0.1269265
 1408 -1.2347679 -0.5561769 -0.0019426
 1409 -0.9883285 -0.4073361 -0.0038994
 1410 -0.7298061 -0.1356424 -0.0511025
 1411 -0.8301235 -0.1630385 -0.0757011
 1412 -0.8472762 -0.0656802 -0.0702563
 1413 -0.7428821 -0.0826252 -0.0643294
 1414 -0.6509000 -0.0808456 -0.0543820
 1415 -0.6429585 -0.1104164 -0.0402162
 1416 -0.9589613 -0.1472971 -0.0955160
 1417 -0.9468809 -0.0318051 -0.0480612
 1418 -1.0711212 -0.1284494 -0.1308151
 1419 -0.9647480 -0.0069644 -0.0176787
 1420 -0.9082504 -0.0092906 -0.0212314
 1421 -0.9355257 -0.0039505 -0.0080384
 1422 -0.9231478 -0.0027047 -0.0045513
 1423 -0.8868368 -0.0032954 -0.0130317
 1424 -0.8207862 -0.0106847 -0.0294710
 1425 -0.8384150 -0.0248753 -0.0447427
 1426 -0.7474173 -0.0418099 -0.0551578
 1427 -0.7413842 -0.0210083 -0.0425136
 1428 -0.6566674 -0.0300312 -0.0487921
 1429 -0.6566707 -0.0510576 -0.0550431
 1430 -0.7312937 -0.0109411 -0.0334819
 1431 -0.6518847 -0.0174355 -0.0417687
 1432 -0.8058926 -0.0049851 -0.0218130
 1433 -0.7940712 -0.0024965 -0.0178320
 1434 -0.7212640 -0.0058946 -0.0278752
 1435 -0.6450582 -0.0101820 -0.0362371
 1436 -0.8728965 -0.0013606 -0.0095095
 1437 -0.9144281 -0.0028540 -0.0036908
 1438 -0.9071123 -0.0029642 -0.0033245
 1439 -0.8625869 -0.0005993 -0.0079742
 1440 -0.7120258 -0.0032419 -0.0244783
 1441 -0.7842058 -0.0012710 -0.0157089
 1442 -0.7756357 -0.0006339 -0.0145468
 1443 -0.7037386 -0.0017653 -0.0224123
 1444 -0.6306220 -0.0034937 -0.0297535
 1445 -0.6377253 -0.0059818 -0.0323577
 1446 -0.8539880 -0.0002562 -0.0072414
 1447 -0.8462909 -0.0000856 -0.0068968
 1448 -0.9002998 -0.0030474 -0.0031897
 1449 -0.8936773 -0.0030995 -0.0031529
 1450 -0.8390652  4.39e-006 -0.0067516
 1451 -0.7678724 -0.0002658 -0.0139323
 1452 -0.8870818 -0.0031342 -0.0031661
 1453 -0.8804371 -0.0031530 -0.0032026
 1454 -0.8320828  0.0000490 -0.0067111
 1455 -0.7606733 -0.0000767 -0.0136150
 1456 -0.6961629 -0.0008680 -0.0211776
 1457 -0.6891730 -0.0004071 -0.0204583
 1458 -0.6173178 -0.0010837 -0.0269673
 1459 -0.6237394 -0.0019824 -0.0280458
 1460 -0.6823558 -0.0000830 -0.0200519
 1461 -0.7537384  0.0000614 -0.0134802
 1462 -0.7470198  0.0001106 -0.0134644
 1463 -0.6759759  0.0000825 -0.0198827
 1464 -0.6050434 -0.0000876 -0.0259063
 1465 -0.6110452 -0.0004435 -0.0262794
 1466 -0.8252029  0.0000883 -0.0067381
 1467 -0.8183634  0.0000810 -0.0067903
 1468 -0.8737014 -0.0031588 -0.0032543
 1469 -0.8668561 -0.0031631 -0.0033099
 1470 -0.8115045  0.0001067 -0.0068634
 1471 -0.7403302  0.0001672 -0.0135108
 1472 -0.8598955 -0.0031551 -0.0033645
 1473 -0.8528220 -0.0031465 -0.0034200
 1474 -0.8046162  0.0000893 -0.0069430
 1475 -0.7337690  0.0001653 -0.0136011
 1476 -0.6694899  0.0002122 -0.0198181
 1477 -0.6633861  0.0002548 -0.0198535
 1478 -0.5933339  0.0002840 -0.0256407
 1479 -0.5990866  0.0001647 -0.0257082
 1480 -0.6570851  0.0003097 -0.0199244
 1481 -0.7271548  0.0001916 -0.0137064
 1482 -0.7206121  0.0001697 -0.0138279
 1483 -0.6510896  0.0002975 -0.0200424
 1484 -0.5819958  0.0004012 -0.0257284
 1485 -0.5875921  0.0004018 -0.0256583
 1486 -0.7976654  0.0001066 -0.0070276
 1487 -0.7906635  0.0000844 -0.0071087
 1488 -0.8456359 -0.0031308 -0.0034720
 1489 -0.8383446 -0.0031159 -0.0035223
 1490 -0.7835891  0.0000983 -0.0071887
 1491 -0.7139810  0.0001822 -0.0139450
 1492 -0.8309532 -0.0030950 -0.0035674
 1493 -0.8234714 -0.0030760 -0.0036100
 1494 -0.7764616  0.0000746 -0.0072614
 1495 -0.7073986  0.0001527 -0.0140655
 1496 -0.6448517  0.0003165 -0.0201570
 1497 -0.6388831  0.0002838 -0.0202956
 1498 -0.5708385  0.0004107 -0.0259466
 1499 -0.5763617  0.0004541 -0.0258262
 1500 -0.6326527  0.0002888 -0.0204157
 1501 -0.7007160  0.0001606 -0.0141741
 1502 -0.6940742  0.0001289 -0.0142814
 1503 -0.6266717  0.0002479 -0.0205492
 1504 -0.5597530  0.0003710 -0.0261990
 1505 -0.5652505  0.0004331 -0.0260701
 1506 -0.7692648  0.0000875 -0.0073307
 1507 -0.7620208  0.0000638 -0.0073917
 1508 -0.8159057 -0.0030516 -0.0036473
 1509 -0.8082659 -0.0030296 -0.0036821
 1510 -0.7547158  0.0000764 -0.0074489
 1511 -0.6873311  0.0001354 -0.0143738
 1512 -0.8005581 -0.0030028 -0.0037117
 1513 -0.7927917 -0.0029787 -0.0037393
 1514 -0.7473723  0.0000534 -0.0074977
 1515 -0.6806283  0.0001040 -0.0144635
 1516 -0.6204236  0.0002477 -0.0206569
 1517 -0.6144150  0.0002051 -0.0207737
 1518 -0.5486835  0.0003124 -0.0264370
 1519 -0.5541784  0.0003805 -0.0263194
 1520 -0.6081409  0.0002047 -0.0208625
 1521 -0.6738280  0.0001110 -0.0145377
 1522 -0.6670706  0.0000812 -0.0146096
 1523 -0.6021009  0.0001638 -0.0209595
 1524 -0.5376042  0.0002525 -0.0266413
 1525 -0.5431068  0.0003192 -0.0265415
 1526 -0.7399774  0.0000662 -0.0075431
 1527 -0.7325534  0.0000442 -0.0075807
 1528 -0.7849719 -0.0029502 -0.0037621
 1529 -0.7771072 -0.0029247 -0.0037834
 1530 -0.7250872  0.0000574 -0.0076157
 1531 -0.6602213  0.0000893 -0.0146667
 1532 -0.7692016 -0.0028950 -0.0038004
 1533 -0.7612625 -0.0028684 -0.0038165
 1534 -0.7176004  0.0000364 -0.0076438
 1535 -0.6534183  0.0000615 -0.0147225
 1536 -0.5958004  0.0001651 -0.0210284
 1537 -0.5897306  0.0001271 -0.0211062
 1538 -0.5265035  0.0001969 -0.0268065
 1539 -0.5320183  0.0002601 -0.0267266
 1540 -0.5834072  0.0001311 -0.0211568
 1541 -0.6465296  0.0000711 -0.0147647
 1542 -0.6396905  0.0000455 -0.0148070
 1543 -0.5773117  0.0000968 -0.0212177
 1544 -0.5153801  0.0001504 -0.0269342
 1545 -0.5209069  0.0002081 -0.0268723
 1546 -0.7100798  0.0000500 -0.0076701
 1547 -0.7025457  0.0000301 -0.0076903
 1548 -0.7532930 -0.0028379 -0.0038288
 1549 -0.7452993 -0.0028104 -0.0038406
 1550 -0.6949846  0.0000440 -0.0077097
 1551 -0.6327715  0.0000565 -0.0148370
 1552 -0.7372834 -0.0027794 -0.0038492
 1553 -0.7292505 -0.0027514 -0.0038578
 1554 -0.6874159  0.0000251 -0.0077237
 1555 -0.6259048  0.0000329 -0.0148683
 1556 -0.5709698  0.0001034 -0.0212528
 1557 -0.5648532  0.0000724 -0.0212998
 1558 -0.5042351  0.0001121 -0.0270295
 1559 -0.5097731  0.0001650 -0.0269834
 1560 -0.5584975  0.0000816 -0.0213223
 1561 -0.6189635  0.0000451 -0.0148886
 1562 -0.6120765  0.0000234 -0.0149115
 1563 -0.5523643  0.0000538 -0.0213583
 1564 -0.4930726  0.0000830 -0.0270982
 1565 -0.4986197  0.0001307 -0.0270643
 1566 -0.6798257  0.0000393 -0.0077376
 1567 -0.6722324  0.0000213 -0.0077470
 1568 -0.7212019 -0.0027199 -0.0038635
 1569 -0.7131418 -0.0026916 -0.0038696
 1570 -0.6646219  0.0000356 -0.0077568
 1571 -0.6051191  0.0000364 -0.0149245
 1572 -0.7050707 -0.0026598 -0.0038732
 1573 -0.6969922 -0.0026312 -0.0038776
 1574 -0.6570116  0.0000184 -0.0077627
 1575 -0.5982174  0.0000163 -0.0149410
 1576 -0.5459989  0.0000650 -0.0213711
 1577 -0.5398527  0.0000398 -0.0213987
 1578 -0.4818959  0.0000605 -0.0271462
 1579 -0.4874505  0.0001043 -0.0271223
 1580 -0.5334811  0.0000527 -0.0214043
 1581 -0.5912492  0.0000300 -0.0149486
 1582 -0.5843373  0.0000112 -0.0149605
 1583 -0.5273251  0.0000297 -0.0214257
 1584 -0.4707090  0.0000447 -0.0271786
 1585 -0.4762690  0.0000845 -0.0271616
 1586 -0.6493873  0.0000327 -0.0077696
 1587 -0.6417658  0.0000163 -0.0077730
 1588 -0.6889062 -0.0025993 -0.0038796
 1589 -0.6808157 -0.0025704 -0.0038827
 1590 -0.6341325  0.0000305 -0.0077777
 1591 -0.5773619  0.0000254 -0.0149642
 1592 -0.6727202 -0.0025385 -0.0038837
 1593 -0.6646222 -0.0025095 -0.0038858
 1594 -0.6265037  0.0000147 -0.0077794
 1595 -0.5704429  7.65e-006 -0.0149728
 1596 -0.5209499  0.0000437 -0.0214261
 1597 -0.5147861  0.0000225 -0.0214431
 1598 -0.4595142  0.0000328 -0.0271998
 1599 -0.4650787  0.0000701 -0.0271882
 1600 -0.5084094  0.0000373 -0.0214397
 1601 -0.5634631  0.0000221 -0.0149738
 1602 -0.5565393  5.28e-006 -0.0149803
 1603 -0.5022398  0.0000176 -0.0214537
 1604 -0.4483145  0.0000253 -0.0272129
 1605 -0.4538820  0.0000598 -0.0272047
 1606 -0.6188648  0.0000288 -0.0077827
 1607 -0.6112315  0.0000136 -0.0077832
 1608 -0.6565209 -0.0024775 -0.0038861
 1609 -0.6484184 -0.0024484 -0.0038877
 1610 -0.6035894  0.0000275 -0.0077856
 1611 -0.5495571  0.0000198 -0.0149795
 1612 -0.6403138 -0.0024164 -0.0038875
 1613 -0.6322088 -0.0023872 -0.0038887
 1614 -0.5959533  0.0000127 -0.0077852
 1615 -0.5426302  3.70e-006 -0.0149845
 1616 -0.4958630  0.0000328 -0.0214480
 1617 -0.4896887  0.0000142 -0.0214599
 1618 -0.4371110  0.0000196 -0.0272207
 1619 -0.4426810  0.0000525 -0.0272151
 1620 -0.4833128  0.0000297 -0.0214524
 1621 -0.5356468  0.0000181 -0.0149825
 1622 -0.5287178  2.73e-006 -0.0149866
 1623 -0.4771346  0.0000121 -0.0214631
 1624 -0.4259055  0.0000165 -0.0272248
 1625 -0.4314772  0.0000474 -0.0272206
 1626 -0.5883095  0.0000264 -0.0077870
 1627 -0.5806720  0.0000121 -0.0077862
 1628 -0.6241025 -0.0023552 -0.0038882
 1629 -0.6159964 -0.0023260 -0.0038891
 1630 -0.5730274  0.0000254 -0.0077877
 1631 -0.5217341  0.0000170 -0.0149839
 1632 -0.6078893 -0.0022940 -0.0038884
 1633 -0.5997828 -0.0022648 -0.0038892
 1634 -0.5653893  0.0000116 -0.0077866
 1635 -0.5148037  2.12e-006 -0.0149875
 1636 -0.4707604  0.0000276 -0.0214547
 1637 -0.4645789  0.0000107 -0.0214645
 1638 -0.4146984  0.0000139 -0.0272268
 1639 -0.4202716  0.0000439 -0.0272238
 1640 -0.4582067  0.0000260 -0.0214554
 1641 -0.5078203  0.0000161 -0.0149843
 1642 -0.5008888  1.78e-006 -0.0149876
 1643 -0.4520224  9.85e-006 -0.0214649
 1644 -0.4034907  0.0000128 -0.0272274
 1645 -0.4090649  0.0000413 -0.0272248
 1646 -0.5577444  0.0000246 -0.0077878
 1647 -0.5501060  0.0000112 -0.0077866
 1648 -0.5916756 -0.0022328 -0.0038885
 1649 -0.5835691 -0.0022035 -0.0038892
 1650 -0.5424612  0.0000239 -0.0077877
 1651 -0.4939060  0.0000155 -0.0149842
 1652 -0.5754620 -0.0021716 -0.0038884
 1653 -0.5673557 -0.0021423 -0.0038891
 1654 -0.5348229  0.0000108 -0.0077864
 1655 -0.4869737  1.58e-006 -0.0149873
 1656 -0.4456525  0.0000249 -0.0214555
 1657 -0.4394655  9.21e-006 -0.0214646
 1658 -0.3922824  0.0000116 -0.0272273
 1659 -0.3978577  0.0000395 -0.0272252
 1660 -0.4330982  0.0000239 -0.0214550
 1661 -0.4799917  0.0000149 -0.0149838
 1662 -0.4730588  1.49e-006 -0.0149868
 1663 -0.4269086  8.88e-006 -0.0214641
 1664 -0.3810742  0.0000114 -0.0272267
 1665 -0.3866502  0.0000380 -0.0272246
 1666 -0.5271784  0.0000232 -0.0077874
 1667 -0.5195402  0.0000105 -0.0077861
 1668 -0.5592490 -0.0021104 -0.0038882
 1669 -0.5511430 -0.0020810 -0.0038889
 1670 -0.5118960  0.0000225 -0.0077871
 1671 -0.4660776  0.0000145 -0.0149833
 1672 -0.5430366 -0.0020492 -0.0038881
 1673 -0.5349310 -0.0020198 -0.0038887
 1674 -0.5042580  0.0000102 -0.0077858
 1675 -0.4591442  1.42e-006 -0.0149863
 1676 -0.4205438  0.0000232 -0.0214545
 1677 -0.4143517  8.51e-006 -0.0214635
 1678 -0.3698657  0.0000107 -0.0272261
 1679 -0.3754427  0.0000367 -0.0272242
 1680 -0.4079897  0.0000225 -0.0214538
 1681 -0.4521639  0.0000140 -0.0149828
 1682 -0.4452299  1.39e-006 -0.0149858
 1683 -0.4017951  8.31e-006 -0.0214628
 1684 -0.3586575  0.0000106 -0.0272253
 1685 -0.3642351  0.0000356 -0.0272233
 1686 -0.4966142  0.0000218 -0.0077868
 1687 -0.4889763  9.86e-006 -0.0077855
 1688 -0.5268249 -0.0019880 -0.0038879
 1689 -0.5187196 -0.0019586 -0.0038886
 1690 -0.4813328  0.0000212 -0.0077865
 1691 -0.4382505  0.0000136 -0.0149823
 1692 -0.5106139 -0.0019268 -0.0038877
 1693 -0.5025089 -0.0018974 -0.0038884
 1694 -0.4736952  9.55e-006 -0.0077852
 1695 -0.4313160  1.34e-006 -0.0149853
 1696 -0.3954357  0.0000218 -0.0214532
 1697 -0.3892387  8.00e-006 -0.0214622
 1698 -0.3474492  0.0000100 -0.0272246
 1699 -0.3530277  0.0000345 -0.0272227
 1700 -0.3828821  0.0000211 -0.0214525
 1701 -0.4243375  0.0000132 -0.0149818
 1702 -0.4174025  1.31e-006 -0.0149848
 1703 -0.3766826  7.79e-006 -0.0214615
 1704 -0.3362412  9.91e-006 -0.0272238
 1705 -0.3418204  0.0000334 -0.0272218
 1706 -0.4660520  0.0000205 -0.0077863
 1707 -0.4584146  9.24e-006 -0.0077849
 1708 -0.4944034 -0.0018657 -0.0038876
 1709 -0.4862987 -0.0018362 -0.0038883
 1710 -0.4507717  0.0000198 -0.0077860
 1711 -0.4104249  0.0000127 -0.0149813
 1712 -0.4781936 -0.0018045 -0.0038875
 1713 -0.4700891 -0.0017750 -0.0038882
 1714 -0.4431344  8.93e-006 -0.0077847
 1715 -0.4034894  1.24e-006 -0.0149843
 1716 -0.3703286  0.0000204 -0.0214519
 1717 -0.3641267  7.45e-006 -0.0214609
 1718 -0.3250332  9.30e-006 -0.0272231
 1719 -0.3306132  0.0000323 -0.0272212
 1720 -0.3577754  0.0000197 -0.0214512
 1721 -0.3965126  0.0000123 -0.0149809
 1722 -0.3895766  1.18e-006 -0.0149839
 1723 -0.3515710  7.20e-006 -0.0214602
 1724 -0.3138255  9.15e-006 -0.0272224
 1725 -0.3194062  0.0000311 -0.0272203
 1726 -0.4354919  0.0000191 -0.0077857
 1727 -0.4278548  8.61e-006 -0.0077844
 1728 -0.4619843 -0.0017433 -0.0038873
 1729 -0.4538802 -0.0017138 -0.0038880
 1730 -0.4202127  0.0000185 -0.0077855
 1731 -0.3826008  0.0000118 -0.0149804
 1732 -0.4457757 -0.0016822 -0.0038872
 1733 -0.4376718 -0.0016526 -0.0038879
 1734 -0.4125757  8.29e-006 -0.0077841
 1735 -0.3756642  1.11e-006 -0.0149833
 1736 -0.3452225  0.0000189 -0.0214506
 1737 -0.3390156  6.86e-006 -0.0214596
 1738 -0.3026177  8.56e-006 -0.0272217
 1739 -0.3081993  0.0000300 -0.0272198
 1740 -0.3326697  0.0000182 -0.0214499
 1741 -0.3686893  0.0000114 -0.0149798
 1742 -0.3617522  1.07e-006 -0.0149828
 1743 -0.3264604  6.66e-006 -0.0214589
 1744 -0.2914102  8.49e-006 -0.0272210
 1745 -0.2969924  0.0000289 -0.0272189
 1746 -0.4049339  0.0000178 -0.0077852
 1747 -0.3972971  7.98e-006 -0.0077838
 1748 -0.4295677 -0.0016210 -0.0038870
 1749 -0.4214641 -0.0015914 -0.0038877
 1750 -0.3896557  0.0000171 -0.0077849
 1751 -0.3547781  0.0000110 -0.0149794
 1752 -0.4133603 -0.0015599 -0.0038869
 1753 -0.4052571 -0.0015302 -0.0038876
 1754 -0.3820190  7.69e-006 -0.0077835
 1755 -0.3478404  1.06e-006 -0.0149824
 1756 -0.3201172  0.0000176 -0.0214493
 1757 -0.3139053  6.46e-006 -0.0214584
 1758 -0.2802025  8.15e-006 -0.0272205
 1759 -0.2857856  0.0000279 -0.0272184
 1760 -0.3075647  0.0000171 -0.0214489
 1761 -0.3408671  0.0000106 -0.0149790
 1762 -0.3339288  1.16e-006 -0.0149821
 1763 -0.3013502  6.53e-006 -0.0214582
 1764 -0.2689948  8.54e-006 -0.0272203
 1765 -0.2745788  0.0000271 -0.0272179
 1766 -0.3743779  0.0000165 -0.0077846
 1767 -0.3667413  7.42e-006 -0.0077833
 1768 -0.3971537 -0.0014988 -0.0038867
 1769 -0.3890507 -0.0014691 -0.0038874
 1770 -0.3591004  0.0000159 -0.0077845
 1771 -0.3269562  0.0000104 -0.0149789
 1772 -0.3809475 -0.0014376 -0.0038866
 1773 -0.3728447 -0.0014079 -0.0038874
 1774 -0.3514638  7.21e-006 -0.0077833
 1775 -0.3200170  1.40e-006 -0.0149822
 1776 -0.2950120  0.0000168 -0.0214490
 1777 -0.2887947  6.84e-006 -0.0214586
 1778 -0.2577865  9.06e-006 -0.0272210
 1779 -0.2633716  0.0000268 -0.0272183
 1780 -0.2824587  0.0000169 -0.0214498
 1781 -0.3130448  0.0000104 -0.0149793
 1782 -0.3061044  1.91e-006 -0.0149831
 1783 -0.2762383  7.75e-006 -0.0214600
 1784 -0.2465776  0.0000108 -0.0272230
 1785 -0.2521639  0.0000271 -0.0272193
 1786 -0.3438228  0.0000153 -0.0077847
 1787 -0.3361857  7.10e-006 -0.0077837
 1788 -0.3647415 -0.0013765 -0.0038867
 1789 -0.3566385 -0.0013467 -0.0038875
 1790 -0.3285442  0.0000149 -0.0077853
 1791 -0.2991322  0.0000107 -0.0149808
 1792 -0.3485348 -0.0013154 -0.0038870
 1793 -0.3404311 -0.0012855 -0.0038880
 1794 -0.3209061  7.12e-006 -0.0077847
 1795 -0.2921900  2.80e-006 -0.0149853
 1796 -0.2699042  0.0000177 -0.0214521
 1797 -0.2636803  9.35e-006 -0.0214633
 1798 -0.2353672  0.0000134 -0.0272272
 1799 -0.2409552  0.0000284 -0.0272225
 1800 -0.2573475  0.0000195 -0.0214566
 1801 -0.2852172  0.0000114 -0.0149839
 1802 -0.2782724  4.28e-006 -0.0149896
 1803 -0.2511194  0.0000122 -0.0214696
 1804 -0.2241547  0.0000182 -0.0272350
 1805 -0.2297447  0.0000313 -0.0272282
 1806 -0.3132633  0.0000147 -0.0077868
 1807 -0.3056232  7.35e-006 -0.0077869
 1808 -0.3323262 -0.0012542 -0.0038877
 1809 -0.3242207 -0.0012243 -0.0038890
 1810 -0.2979780  0.0000147 -0.0077897
 1811 -0.2712978  0.0000129 -0.0149896
 1812 -0.3161133 -0.0011929 -0.0038891
 1813 -0.3080044 -0.0011630 -0.0038909
 1814 -0.2903344  7.88e-006 -0.0077907
 1815 -0.2643492  6.57e-006 -0.0149971
 1816 -0.2447870  0.0000225 -0.0214649
 1817 -0.2385537  0.0000165 -0.0214803
 1818 -0.2129386  0.0000253 -0.0272483
 1819 -0.2185314  0.0000364 -0.0272385
 1820 -0.2322206  0.0000275 -0.0214787
 1821 -0.2573712  0.0000153 -0.0149994
 1822 -0.2504168  9.97e-006 -0.0150096
 1823 -0.2259806  0.0000231 -0.0214977
 1824 -0.2017175  0.0000360 -0.0272693
 1825 -0.2073138  0.0000443 -0.0272552
 1826 -0.2826848  0.0000150 -0.0077948
 1827 -0.2750353  8.82e-006 -0.0077972
 1828 -0.2998925 -0.0011316 -0.0038915
 1829 -0.2917776 -0.0011015 -0.0038941
 1830 -0.2673786  0.0000159 -0.0078030
 1831 -0.2434332  0.0000190 -0.0150150
 1832 -0.2836581 -0.0010701 -0.0038956
 1833 -0.2755337 -0.0010398 -0.0038993
 1834 -0.2597200  0.0000103 -0.0078075
 1835 -0.2364703  0.0000148 -0.0150290
 1836 -0.2196452  0.0000348 -0.0215004
 1837 -0.2133965  0.0000323 -0.0215245
 1838 -0.1904888  0.0000508 -0.0273015
 1839 -0.1960900  0.0000563 -0.0272815
 1840 -0.2070564  0.0000453 -0.0215331
 1841 -0.2294781  0.0000242 -0.0150388
 1842 -0.2225031  0.0000214 -0.0150579
 1843 -0.2007966  0.0000449 -0.0215641
 1844 -0.1792499  0.0000711 -0.0273484
 1845 -0.1848574  0.0000729 -0.0273204
 1846 -0.2520522  0.0000173 -0.0078156
 1847 -0.2443800  0.0000124 -0.0078229
 1848 -0.2674022 -0.0010082 -0.0039020
 1849 -0.2592629 -0.0009778 -0.0039071
 1850 -0.2366958  0.0000194 -0.0078344
 1851 -0.2154981  0.0000314 -0.0150736
 1852 -0.2511134 -0.0009460 -0.0039115
 1853 -0.2429523 -0.0009153 -0.0039186
 1854 -0.2290038  0.0000153 -0.0078454
 1855 -0.2085065  0.0000299 -0.0150994
 1856 -0.1944491  0.0000592 -0.0215804
 1857 -0.1881749  0.0000612 -0.0216202
 1858 -0.1679971  0.0000968 -0.0274145
 1859 -0.1736129  0.0000951 -0.0273765
 1860 -0.1818165  0.0000769 -0.0216463
 1861 -0.2014835  0.0000405 -0.0151226
 1862 -0.1944697  0.0000403 -0.0151566
 1863 -0.1755242  0.0000810 -0.0216967
 1864 -0.1567265  0.0001280 -0.0275038
 1865 -0.1623525  0.0001229 -0.0274536
 1866 -0.2212964  0.0000223 -0.0078610
 1867 -0.2135769  0.0000189 -0.0078766
 1868 -0.2347766 -0.0008832 -0.0039252
 1869 -0.2265843 -0.0008521 -0.0039347
 1870 -0.2058378  0.0000258 -0.0078973
 1871 -0.1874228  0.0000513 -0.0151886
 1872 -0.2183723 -0.0008196 -0.0039440
 1873 -0.2101379 -0.0007880 -0.0039564
 1874 -0.1980818  0.0000230 -0.0079182
 1875 -0.1803803  0.0000521 -0.0152319
 1876 -0.1691509  0.0000975 -0.0217342
 1877 -0.1628366  0.0001030 -0.0217965
 1878 -0.1454340  0.0001621 -0.0276193
 1879 -0.1510724  0.0001552 -0.0275559
 1880 -0.1564447  0.0001192 -0.0218458
 1881 -0.1733031  0.0000628 -0.0152735
 1882 -0.1662258  0.0000637 -0.0153262
 1883 -0.1501047  0.0001243 -0.0219197
 1884 -0.1341164  0.0001946 -0.0277605
 1885 -0.1397685  0.0001885 -0.0276845
 1886 -0.1903015  0.0000297 -0.0079444
 1887 -0.1824991  0.0000272 -0.0079709
 1888 -0.2018775 -0.0007551 -0.0039688
 1889 -0.1935884 -0.0007228 -0.0039842
 1890 -0.1746681  0.0000332 -0.0080024
 1891 -0.1591126  0.0000730 -0.0153763
 1892 -0.1852671 -0.0006894 -0.0039995
 1893 -0.1769111 -0.0006564 -0.0040176
 1894 -0.1668108  0.0000304 -0.0080335
 1895 -0.1519957  0.0000723 -0.0154363
 1896 -0.1436912  0.0001377 -0.0219794
 1897 -0.1373235  0.0001390 -0.0220615
 1898 -0.1227719  0.0002155 -0.0279209
 1899 -0.1284382  0.0002160 -0.0278367
 1900 -0.1308880  0.0001453 -0.0221259
 1901 -0.1448433  0.0000779 -0.0154913
 1902 -0.1376862  0.0000729 -0.0155526
 1903 -0.1244939  0.0001374 -0.0222078
 1904 -0.1114035  0.0002096 -0.0280831
 1905 -0.1170819  0.0002251 -0.0280010
 1906 -0.1589219  0.0000349 -0.0080684
 1907 -0.1510050  0.0000308 -0.0081012
 1908 -0.1685180 -0.0006224 -0.0040351
 1909 -0.1600866 -0.0005889 -0.0040545
 1910 -0.1430572  0.0000325 -0.0081353
 1911 -0.1304975  0.0000715 -0.0156041
 1912 -0.1516166 -0.0005544 -0.0040720
 1913 -0.1431100 -0.0005205 -0.0040898
 1914 -0.1350846  0.0000257 -0.0081638
 1915 -0.1233074  0.0000581 -0.0156553
 1916 -0.1180406  0.0001300 -0.0222651
 1917 -0.1116281  0.0001051 -0.0223307
 1918 -0.1000217  0.0001532 -0.0282131
 1919 -0.1057058  0.0001965 -0.0281527
 1920 -0.1051696  0.0000749 -0.0223599
 1921 -0.1160957  0.0000451 -0.0156882
 1922 -0.1088935  0.0000181 -0.0157101
 1923 -0.0987571  0.0000227 -0.0223828
 1924 -0.0886503  0.0000155 -0.0282538
 1925 -0.0943260  0.0001029 -0.0282469
 1926 -0.1270889  0.0000230 -0.0081890
 1927 -0.1190807  0.0000115 -0.0082029
 1928 -0.1345707 -0.0004859 -0.0041033
 1929 -0.1260061 -0.0004520 -0.0041142
 1930 -0.1110679  2.21e-006 -0.0082065
 1931 -0.1016887 -0.0000122 -0.0157006
 1932 -0.1174267 -0.0004178 -0.0041173
 1933 -0.1088483 -0.0003845 -0.0041134
 1934 -0.1030681 -0.0000160 -0.0081906
 1935 -0.0945152 -0.0000584 -0.0156648
 1936 -0.0923192 -0.0000411 -0.0223515
 1937 -0.0859412 -0.0001318 -0.0222926
 1938 -0.0773342 -0.0002393 -0.0281190
 1939 -0.0829758 -0.0000897 -0.0282126
 1940 -0.0795686 -0.0002396 -0.0221558
 1941 -0.0873710 -0.0001114 -0.0155801
 1942 -0.0802945 -0.0001817 -0.0154494
 1943 -0.0732815 -0.0003778 -0.0219644
 1944 -0.0661503 -0.0006430 -0.0276924
 1945 -0.0717145 -0.0004163 -0.0279482
 1946 -0.0950982 -0.0000339 -0.0081548
 1947 -0.0871847 -0.0000606 -0.0080887
 1948 -0.1002911 -0.0003515 -0.0040968
 1949 -0.0917815 -0.0003199 -0.0040677
 1950 -0.0793553 -0.0000884 -0.0079914
 1951 -0.0732954 -0.0002605 -0.0152491
 1952 -0.0833520 -0.0002891 -0.0040199
 1953 -0.0750415 -0.0002599 -0.0039534
 1954 -0.0716466 -0.0001240 -0.0078523
 1955 -0.0664172 -0.0003561 -0.0149814
 1956 -0.0670432 -0.0005366 -0.0216671
 1957 -0.0609333 -0.0007251 -0.0212835
 1958 -0.0552146 -0.0012132 -0.0268437
 1959 -0.0606317 -0.0009033 -0.0273272
 1960 -0.0549219 -0.0009277 -0.0207733
 1961 -0.0596813 -0.0004588 -0.0146240
 1962 -0.0531292 -0.0005740 -0.0141845
 1963 -0.0490903 -0.0011587 -0.0201575
 1964 -0.0447005 -0.0019225 -0.0254291
 1965 -0.0498852 -0.0015484 -0.0262029
 1966 -0.0640973 -0.0001609 -0.0076706
 1967 -0.0567532 -0.0002041 -0.0074371
 1968 -0.0668952 -0.0002323 -0.0038624
 1969 -0.0589640 -0.0002061 -0.0037469
 1970 -0.0496636 -0.0002468 -0.0071513
 1971 -0.0468107 -0.0006938 -0.0136447
 1972 -0.0513029 -0.0001823 -0.0036033
 1973 -0.0439700 -0.0001594 -0.0034319
 1974 -0.0428778 -0.0002903 -0.0068121
 1975 -0.0407578 -0.0008141 -0.0130003
 1976 -0.0434514 -0.0013940 -0.0193911
 1977 -0.0380505 -0.0016329 -0.0184803
 1978 -0.0348579 -0.0027020 -0.0233339
 1979 -0.0396723 -0.0023098 -0.0244733
 1980 -0.0329205 -0.0018632 -0.0174315
 1981 -0.0350162 -0.0009300 -0.0122561
 1982 -0.0296259 -0.0010358 -0.0114182
 1983 -0.0280983 -0.0020734 -0.0162527
 1984 -0.0259576 -0.0034312 -0.0205568
 1985 -0.0302716 -0.0030805 -0.0220250
 1986 -0.0364458 -0.0003327 -0.0064193
 1987 -0.0304174 -0.0003711 -0.0059762
 1988 -0.0370232 -0.0001385 -0.0032330
 1989 -0.0305178 -0.0001187 -0.0030080
 1990 -0.0248327 -0.0004038 -0.0054922
 1991 -0.0246237 -0.0011258 -0.0104981
 1992 -0.0245060 -0.0001025 -0.0027599
 1993 -0.0190335 -0.0000838 -0.0024901
 1994 -0.0197405 -0.0004315 -0.0049745
 1995 -0.0200442 -0.0011964 -0.0095172
 1996 -0.0236154 -0.0022542 -0.0149666
 1997 -0.0195000 -0.0023968 -0.0135914
 1998 -0.0182569 -0.0039615 -0.0172126
 1999 -0.0219410 -0.0037268 -0.0189417
 2000 -0.0157811 -0.0024849 -0.0121389
 2001 -0.0149268 -0.0041103 -0.0153958
 2002 -0.0159052 -0.0012386 -0.0084788
 2003 -0.0122321 -0.0012610 -0.0074293
 2004 -0.0124672 -0.0025220 -0.0106554
 2005 -0.0119598 -0.0041670 -0.0135276
 2006 -0.0151585 -0.0004482 -0.0044218
 2007 -0.0141329 -0.0000684 -0.0022118
 2008 -0.0098242 -0.0000528 -0.0019218
 2009 -0.0111099 -0.0004544 -0.0038580
 2010 -0.0095596 -0.0024958 -0.0091558
 2011 -0.0090233 -0.0012461 -0.0063591
 2012 -0.0062709 -0.0012072 -0.0053195
 2013 -0.0070617 -0.0024182 -0.0076935
 2014 -0.0071358 -0.0039950 -0.0098149
 2015 -0.0093626 -0.0041258 -0.0116506
 2016 -0.0076023 -0.0004495 -0.0032915
 2017 -0.0046272 -0.0004361 -0.0027386
 2018 -0.0061173 -0.0000392 -0.0016349
 2019 -0.0030055 -0.0000249 -0.0013506
 2020 -0.0021722 -0.0004125 -0.0022064
 2021 -0.0004711 -0.0000135 -0.0010813
 2022  0.0015179 -1.48e-006 -0.0008270
 2023 -0.0002072 -0.0003820 -0.0017101
 2024 -0.0020915 -0.0010584 -0.0033881
 2025 -0.0039709 -0.0011417 -0.0043194
 2026 -0.0049535 -0.0022865 -0.0062875
 2027 -0.0032159 -0.0021155 -0.0049736
 2028 -0.0037025 -0.0034950 -0.0064099
 2029 -0.0052539 -0.0037778 -0.0080541
 2030 -0.0018220 -0.0019120 -0.0037689
 2031 -0.0024542 -0.0031619 -0.0049091
 2032 -0.0006086 -0.0009554 -0.0025303
 2033  0.0005182 -0.0008433 -0.0017645
 2034 -0.0007402 -0.0016890 -0.0026931
 2035 -0.0014740 -0.0027901 -0.0035652
 2036  0.0013006 -0.0003446 -0.0012541
 2037  0.0030017  8.22e-006 -0.0005969
 2038  0.0040308  0.0000163 -0.0003906
 2039  0.0023976 -0.0003031 -0.0008468
 2040  0.0000677 -0.0014555 -0.0017524
 2041  0.0013252 -0.0007259 -0.0010956
 2042  0.0018562 -0.0006076 -0.0005258
 2043  0.0006382 -0.0012205 -0.0009509
 2044 -0.0001842 -0.0020177 -0.0013960
 2045 -0.0007291 -0.0024037 -0.0023928
 2046  0.0031259 -0.0002603 -0.0004933
 2047  0.0035380 -0.0002175 -0.0001932
 2048  0.0046584  0.0000229 -0.0002115
 2049  0.0049414  0.0000275 -0.0000600
 2050  0.0036839 -0.0001759  0.0000542
 2051  0.0021536 -0.0004931 -0.0000544
 2052  0.0049371  0.0000303  0.0000642
 2053  0.0047009  0.0000315  0.0001625
 2054  0.0036129 -0.0001364  0.0002509
 2055  0.0022591 -0.0003836  0.0003226
 2056  0.0010086 -0.0009912 -0.0002851
 2057  0.0012140 -0.0007749  0.0002478
 2058  0.0004377 -0.0012876  0.0000937
 2059  0.0001940 -0.0016416 -0.0005690
 2060  0.0012872 -0.0005725  0.0006576
 2061  0.0022117 -0.0002819  0.0006103
 2062  0.0020486 -0.0001865  0.0008148
 2063  0.0012592 -0.0003845  0.0009529
 2064  0.0006270 -0.0006502  0.0009782
 2065  0.0005732 -0.0009556  0.0006060
 2066  0.0033719 -0.0000995  0.0003998
 2067  0.0030050 -0.0000650  0.0005041
 2068  0.0042854  0.0000312  0.0002364
 2069  0.0037398  0.0000299  0.0002874
 2070  0.0025536 -0.0000324  0.0005664
 2071  0.0018034 -0.0000969  0.0009415
 2072  0.0031103  0.0000280  0.0003169
 2073  0.0024408  0.0000265  0.0003257
 2074  0.0020566 -5.66e-007  0.0005887
 2075  0.0015074 -0.0000106  0.0009949
 2076  0.0011567 -0.0002088  0.0011421
 2077  0.0010035 -0.0000410  0.0012333
 2078  0.0005642 -0.0000983  0.0013529
 2079  0.0006179 -0.0003658  0.0012236
 2080  0.0008190  0.0001226  0.0012324
 2081  0.0011880  0.0000754  0.0009779
 2082  0.0008698  0.0001629  0.0008921
 2083  0.0006195  0.0002850  0.0011444
 2084  0.0003718  0.0004092  0.0012991
 2085  0.0004783  0.0001587  0.0013756
 2086  0.0015511  0.0000318  0.0005713
 2087  0.0010728  0.0000658  0.0005136
 2088  0.0017744  0.0000261  0.0003136
 2089  0.0011560  0.0000282  0.0002794
 2090  0.0006561  0.0001010  0.0004148
 2091  0.0005734  0.0002501  0.0007399
 2092  0.0006338  0.0000341  0.0002210
 2093  0.0002578  0.0000426  0.0001390
 2094  0.0003308  0.0001300  0.0002786
 2095  0.0003171  0.0003214  0.0005287
 2096  0.0004192  0.0004429  0.0009743
 2097  0.0002350  0.0005776  0.0007273
 2098  0.0001433  0.0008683  0.0008635
 2099  0.0002554  0.0006506  0.0011286
 2100  0.0000947  0.0006369  0.0004028
 2101  0.0000567  0.0010263  0.0004897
 2102  0.0001278  0.0003246  0.0002750
 2103  0.0000413  0.0002467  0.0001355
 2104  0.0000306  0.0006015  0.0002123
 2105  0.0000224  0.0010809  0.0002629
 2106  0.0000240  0.0014690  0.0005368
 2107  0.0000190  0.0016381  0.0002894
 2108  0.0000180  0.0022183  0.0002968
 2109 -2.43e-006  0.0019274  0.0005502
 2110 -7.14e-006  0.0014976  0.0009563
 2111  0.0000612  0.0011819  0.0009372
 2112  0.0001079  0.0008607  0.0012094
 2113 -0.0000170  0.0010634  0.0012266
 2114 -0.0000342  0.0006243  0.0013811
 2115  0.0001519  0.0005241  0.0013731
 2116 -0.0001193  0.0012558  0.0011906
 2117 -0.0000627  0.0018079  0.0009308
 2118 -0.0001089  0.0020981  0.0008678
 2119 -0.0002049  0.0014324  0.0011097
 2120 -0.0003179  0.0007909  0.0012426
 2121 -0.0001886  0.0007137  0.0013343
 2122 -0.0000235  0.0023850  0.0005348
 2123  0.0000199  0.0027971  0.0002879
 2124  0.0000216  0.0033406  0.0002695
 2125 -0.0000411  0.0028154  0.0004988
 2126 -0.0002787  0.0015920  0.0009912
 2127 -0.0001478  0.0023599  0.0007738
 2128 -0.0001831  0.0025828  0.0006517
 2129 -0.0003457  0.0017273  0.0008390
 2130 -0.0005321  0.0009237  0.0009503
 2131 -0.0004298  0.0008615  0.0011130
 2132 -0.0000559  0.0032056  0.0004434
 2133  0.0000238  0.0038355  0.0002388
 2134  0.0000265  0.0042615  0.0002011
 2135 -0.0000688  0.0035404  0.0003730
 2136 -0.0004108  0.0018341  0.0006563
 2137 -0.0002160  0.0027536  0.0005049
 2138 -0.0002511  0.0028591  0.0003304
 2139 -0.0004786  0.0019063  0.0004471
 2140 -0.0007285  0.0010258  0.0005401
 2141 -0.0006304  0.0009781  0.0007571
 2142 -0.0000798  0.0038039  0.0002882
 2143  0.0000298  0.0046065  0.0001558
 2144  0.0000348  0.0048545  0.0001025
 2145 -0.0000917  0.0039779  0.0001863
 2146 -0.0005521  0.0019428  0.0002212
 2147 -0.0002981  0.0028792  0.0001425
 2148 -0.0003658  0.0028109 -0.0000523
 2149 -0.0006077  0.0019465 -0.0000176
 2150 -0.0008937  0.0011098  0.0000347
 2151 -0.0008199  0.0010685  0.0002996
 2152 -0.0001265  0.0040553  0.0000644
 2153  0.0000148  0.0049665  6.59e-006
 2154 -0.0000197  0.0046483 -0.0001057
 2155 -0.0001572  0.0039600 -5.28e-006
 2156 -0.0006342  0.0019431 -0.0002829
 2157 -0.0003881  0.0027339 -0.0002622
 2158 -0.0003885  0.0027106 -0.0004683
 2159 -0.0006482  0.0019399 -0.0005601
 2160 -0.0009666  0.0012014 -0.0005681
 2161 -0.0009456  0.0011552 -0.0002566
 2162 -0.0002105  0.0036018 -0.0001977
 2163 -0.0001706  0.0037828 -0.0003139
 2164 -0.0006142  0.0019121 -0.0008263
 2165 -0.0003268  0.0026649 -0.0006638
 2166 -0.0002754  0.0025087 -0.0008625
 2167 -0.0005321  0.0018318 -0.0010867
 2168 -0.0008409  0.0012376 -0.0011912
 2169 -0.0009379  0.0012354 -0.0008820
 2170 -0.0001293  0.0036937 -0.0003636
 2171 -0.0000985  0.0033517 -0.0005006
 2172  0.0000227  0.0045515 -0.0001851
 2173  0.0000216  0.0040361 -0.0002780
 2174 -0.0000774  0.0029171 -0.0006032
 2175  0.0000122  0.0034459 -0.0003306
 2176  0.0000114  0.0027765 -0.0003671
 2177 -0.0000424  0.0024079 -0.0006715
 2178 -0.0001183  0.0019185 -0.0011618
 2179 -0.0002112  0.0022475 -0.0010405
 2180 -0.0004112  0.0016889 -0.0013188
 2181 -0.0002388  0.0014872 -0.0014899
 2182 -0.0004083  0.0010949 -0.0016936
 2183 -0.0006671  0.0011931 -0.0014715
 2184 -8.56e-006  0.0012351 -0.0015698
 2185  6.41e-006  0.0015448 -0.0012066
 2186  0.0001596  0.0011541 -0.0011559
 2187  0.0002705  0.0009487 -0.0015342
 2188  0.0003680  0.0007452 -0.0018191
 2189 -0.0000593  0.0009437 -0.0018203
 2190  6.03e-006  0.0018596 -0.0006924
 2191  0.0000667  0.0013160 -0.0006541
 2192  0.0000162  0.0020645 -0.0003773
 2193  0.0000276  0.0013707 -0.0003538
 2194  0.0001328  0.0008194 -0.0005470
 2195  0.0000438  0.0007584 -0.0002878
 2196  0.0000608  0.0003091 -0.0001840
 2197  0.0001866  0.0004212 -0.0003769
 2198  0.0004635  0.0004301 -0.0007344
 2199  0.0003248  0.0007714 -0.0009974
 2200  0.0005732  0.0006466 -0.0013648
 2201  0.0008444  0.0003623 -0.0010513
 2202  0.0013013  0.0002900 -0.0013141
 2203  0.0008429  0.0005161 -0.0016596
 2204  0.0009862  0.0001447 -0.0005917
 2205  0.0004898  0.0001730 -0.0003892
 2206  0.0003864  0.0000542 -0.0001929
 2207  0.0009595  0.0000472 -0.0003117
 2208  0.0017752  0.0000471 -0.0004077
 2209  0.0016454  0.0001145 -0.0007575
 2210  0.0001760  0.0001554 -0.0001749
 2211  0.0000914  0.0000476 -0.0000712
 2212  0.0000543  0.0000726 -0.0000683
 2213  7.36e-006  3.95e-006 -0.0000141
 2214  0.0011128  0.0004004 -0.0018834
 2215  0.0018144  0.0002306 -0.0015221
 2216  0.0023633  0.0001827 -0.0016818
 2217  0.0013594  0.0002976 -0.0020360
 2218  0.0004380  0.0003735 -0.0021221
 2219  0.0004311  0.0005559 -0.0020173
 2220  0.0024412  0.0000918 -0.0008903
 2221  0.0033463  0.0000754 -0.0009982
 2222  0.0027861  0.0000538 -0.0004844
 2223  0.0039538  0.0000654 -0.0005471
 2224  0.0043324  0.0000644 -0.0010838
 2225  0.0029215  0.0001394 -0.0017927
 2226  0.0052584  0.0000848 -0.0005991
 2227  0.0066854  0.0001097 -0.0006487
 2228  0.0053725  0.0000537 -0.0011523
 2229  0.0034435  0.0000929 -0.0018504
 2230  0.0015577  0.0001946 -0.0021101
 2231  0.0016606  0.0000709 -0.0020870
 2232  0.0001571 -0.0000676 -0.0019724
 2233  0.0003592  0.0001776 -0.0021165
 2234  0.0016042 -0.0000981 -0.0019319
 2235  0.0038760  0.0000316 -0.0018409
 2236  0.0041334 -0.0000644 -0.0017294
 2237  0.0012966 -0.0003559 -0.0015837
 2238 -0.0008479 -0.0009185 -0.0010249
 2239 -0.0002215 -0.0004086 -0.0016349
 2240  0.0064330  0.0000400 -0.0011990
 2241  0.0074630  0.0000186 -0.0012146
 2242  0.0082174  0.0001404 -0.0006938
 2243  0.0098448  0.0001788 -0.0007333
 2244  0.0083908 -0.0000184 -0.0011782
 2245  0.0040943 -0.0002235 -0.0014550
 2246  0.0115490  0.0002276 -0.0007621
 2247  0.0132927  0.0002915 -0.0007708
 2248  0.0090861 -0.0000858 -0.0010488
 2249  0.0035526 -0.0005045 -0.0009060
 2250  0.0006201 -0.0007716 -0.0009377
 2251 -0.0006051 -0.0014740  0.0001828
 2252 -0.0031532 -0.0030094  0.0016044
 2253 -0.0017955 -0.0017166 -0.0000110
 2254 -0.0026122 -0.0027122  0.0020882
 2255  0.0022028 -0.0010233  0.0001273
 2256 -0.0004880 -0.0020215  0.0020446
 2257 -0.0056728 -0.0049881  0.0053094
 2258 -0.0071583 -0.0089281  0.0080296
 2259 -0.0049725 -0.0051752  0.0041341
 2260  0.0093183 -0.0002161 -0.0007485
 2261  0.0086865 -0.0004894 -0.0001101
 2262  0.0150006  0.0003800 -0.0007394
 2263  0.0165232  0.0004936 -0.0006262
 2264  0.0063681 -0.0010921  0.0012295
 2265 -0.0053376 -0.0041196  0.0056970
 2266  0.0175703  0.0006389 -0.0003099
 2267  0.0173165  0.0009433  0.0003843
 2268  0.0005134 -0.0026293  0.0043537
 2269 -0.0135252 -0.0090188  0.0128737
 2270 -0.0099224 -0.0094067  0.0107498
 2271 -0.0148436 -0.0185684  0.0199290
 2272 -0.0094900 -0.0277252  0.0216561
 2273 -0.0091970 -0.0155944  0.0138024
 2274 -0.0165237 -0.0387029  0.0339245
 2275 -0.0260082 -0.0219045  0.0281522
 2276 -0.0307403 -0.0616576  0.0559881
 2277 -0.0067605 -0.0812902  0.0461765
 2278  0.0065992 -0.0819097  0.0309060
 2279 -0.0049421 -0.0493080  0.0296417
 2280 -0.0129693 -0.0076495  0.0118106
 2281 -0.0461397 -0.0278759  0.0381861
 2282  0.0138267  0.0001140  0.0033754
 2283 -0.0059680 -0.0006369  0.0110220
 2284 -0.0547862 -0.1456652  0.0903738
 2285 -0.1083181 -0.1204765  0.1249502
 2286 -0.2734648 -0.5679734 -0.0018274
 2287 -0.0821121 -0.4249500 -0.0036651
 2288  0.0118410 -0.2544162 -0.0070887
 2289 -0.0073054 -0.1659429  0.0661951
 2290  0.0137477 -0.1415816  0.0345279
 2291  0.0266816 -0.1745383 -0.0102055
 2292  0.0300402 -0.1323529 -0.0130426
 2293  0.0213807 -0.1165230  0.0166344
 2294  0.0202348 -0.1415812 -0.0549323
 2295  0.0272314 -0.1165395 -0.0427099
 2296 -0.0001736 -0.1659376 -0.0803716
 2297 -0.0164901 -0.0616507 -0.0701526
 2298  0.0062103 -0.0812741 -0.0665692
 2299  0.0182652 -0.0819013 -0.0569680
 2300 -0.0470136 -0.1456657 -0.0977065
 2301 -0.1001147 -0.1204567 -0.1286013
 2302  0.0104525 -0.0005890 -0.0146493
 2303 -0.0305906 -0.0278749 -0.0455119
 2304  0.0029516 -0.0386710 -0.0542992
 2305  0.0125685 -0.0492460 -0.0556576
 2306 -0.0046230 -0.0218992 -0.0423043
 2307  0.0150636 -0.0089999 -0.0269887
 2308  0.0111615 -0.0185023 -0.0402492
 2309  0.0138960 -0.0276738 -0.0476341
 2310  0.0103649 -0.0076484 -0.0191388
 2311  0.0384762  0.0001995 -0.0069985
 2312  0.0501913  0.0010682 -0.0040136
 2313  0.0316434 -0.0026270 -0.0116714
 2314  0.0225800 -0.0093495 -0.0310719
 2315  0.0304159 -0.0040828 -0.0197873
 2316  0.0424759 -0.0019843 -0.0161236
 2317  0.0333844 -0.0049187 -0.0256073
 2318  0.0279869 -0.0088228 -0.0339347
 2319  0.0200629 -0.0155045 -0.0397317
 2320  0.0453313 -0.0010844 -0.0085373
 2321  0.0554937 -0.0004774 -0.0071772
 2322  0.0586934  0.0007646 -0.0033324
 2323  0.0659116  0.0006670 -0.0029875
 2324  0.0639474 -0.0002032 -0.0065485
 2325  0.0522965 -0.0009883 -0.0142269
 2326  0.0726750  0.0005812 -0.0028846
 2327  0.0792579  0.0005243 -0.0028605
 2328  0.0715571 -0.0000738 -0.0062622
 2329  0.0608510 -0.0004733 -0.0132072
 2330  0.0429680 -0.0026493 -0.0223960
 2331  0.0515003 -0.0014146 -0.0204935
 2332  0.0437800 -0.0029065 -0.0275222
 2333  0.0360622 -0.0050842 -0.0300560
 2334  0.0592749 -0.0007160 -0.0193958
 2335  0.0685830 -0.0001969 -0.0126838
 2336  0.0758526 -0.0000372 -0.0124221
 2337  0.0665243 -0.0002937 -0.0187561
 2338  0.0578827 -0.0008281 -0.0249033
 2339  0.0510328 -0.0016106 -0.0259052
 2340  0.0787220 -6.42e-006 -0.0061497
 2341  0.0856792  0.0000270 -0.0061251
 2342  0.0858304  0.0004901 -0.0028783
 2343  0.0924638  0.0004738 -0.0029157
 2344  0.0925561  0.0000444 -0.0061403
 2345  0.0828264  0.0000604 -0.0123196
 2346  0.0991966  0.0004636 -0.0029668
 2347  0.1060444  0.0004623 -0.0030171
 2348  0.0994162  0.0000553 -0.0061918
 2349  0.0896263  0.0001118 -0.0123292
 2350  0.0733836 -0.0000509 -0.0184244
 2351  0.0800010  0.0000896 -0.0182682
 2352  0.0706545 -0.0000325 -0.0239839
 2353  0.0643795 -0.0003423 -0.0243171
 2354  0.0864571  0.0001759 -0.0182391
 2355  0.0963246  0.0001381 -0.0123912
 2356  0.1029803  0.0001505 -0.0124845
 2357  0.0927980  0.0002223 -0.0182878
 2358  0.0826996  0.0002682 -0.0238037
 2359  0.0767462  0.0001573 -0.0238374
 2360  0.1062866  0.0000594 -0.0062641
 2361  0.1132050  0.0000597 -0.0063426
 2362  0.1130086  0.0004677 -0.0030693
 2363  0.1200904  0.0004770 -0.0031206
 2364  0.1201837  0.0000576 -0.0064224
 2365  0.1096263  0.0001533 -0.0125943
 2366  0.1272866  0.0004896 -0.0031695
 2367  0.1345909  0.0005049 -0.0032154
 2368  0.1272283  0.0000542 -0.0065003
 2369  0.1162826  0.0001502 -0.0127108
 2370  0.0990790  0.0002437 -0.0183788
 2371  0.1053276  0.0002490 -0.0184937
 2372  0.0943708  0.0003586 -0.0239262
 2373  0.0885647  0.0003299 -0.0238423
 2374  0.1115630  0.0002439 -0.0186201
 2375  0.1229616  0.0001434 -0.0128275
 2376  0.1296705  0.0001344 -0.0129405
 2377  0.1177981  0.0002321 -0.0187496
 2378  0.1058837  0.0003577 -0.0241607
 2379  0.1001387  0.0003653 -0.0240367
 2380  0.1343404  0.0000500 -0.0065743
 2381  0.1415185  0.0000453 -0.0066435
 2382  0.1419957  0.0005223 -0.0032577
 2383  0.1494928  0.0005416 -0.0032963
 2384  0.1487595  0.0000405 -0.0067071
 2385  0.1364129  0.0001241 -0.0130472
 2386  0.1570740  0.0005622 -0.0033313
 2387  0.1647308  0.0005841 -0.0033626
 2388  0.1560593  0.0000357 -0.0067649
 2389  0.1431899  0.0001134 -0.0131462
 2390  0.1240411  0.0002163 -0.0188768
 2391  0.1302974  0.0001982 -0.0189980
 2392  0.1173456  0.0003181 -0.0244169
 2393  0.1116169  0.0003407 -0.0242895
 2394  0.1365698  0.0001791 -0.0191111
 2395  0.1500010  0.0001026 -0.0132366
 2396  0.1568448  0.0000922 -0.0133182
 2397  0.1428598  0.0001599 -0.0192149
 2398  0.1288092  0.0002654 -0.0246535
 2399  0.1230753  0.0002924 -0.0245391
 2400  0.1634129  0.0000311 -0.0068169
 2401  0.1708154  0.0000267 -0.0068632
 2402  0.1724554  0.0006070 -0.0033905
 2403  0.1802399  0.0006307 -0.0034151
 2404  0.1782618  0.0000225 -0.0069042
 2405  0.1637191  0.0000822 -0.0133911
 2406  0.1880772  0.0006552 -0.0034368
 2407  0.1959608  0.0006802 -0.0034556
 2408  0.1857471  0.0000186 -0.0069401
 2409  0.1706214  0.0000730 -0.0134555
 2410  0.1491676  0.0001412 -0.0193089
 2411  0.1554927  0.0001235 -0.0193930
 2412  0.1402975  0.0002120 -0.0248541
 2413  0.1345495  0.0002383 -0.0247587
 2414  0.1618344  0.0001068 -0.0194674
 2415  0.1775491  0.0000644 -0.0135121
 2416  0.1844994  0.0000567 -0.0135614
 2417  0.1681913  0.0000915 -0.0195328
 2418  0.1518178  0.0001639 -0.0250150
 2419  0.1460535  0.0001871 -0.0249394
 2420  0.1932667  0.0000151 -0.0069714
 2421  0.2008162  0.0000119 -0.0069984
 2422  0.2038845  0.0007058 -0.0034719
 2423  0.2118429  0.0007317 -0.0034859
 2424  0.2083917  8.93e-006 -0.0070216
 2425  0.1914697  0.0000497 -0.0136039
 2426  0.2198309  0.0007581 -0.0034979
 2427  0.2278442  0.0007847 -0.0035081
 2428  0.2159895  6.31e-006 -0.0070413
 2429  0.1984576  0.0000435 -0.0136403
 2430  0.1745622  0.0000775 -0.0195896
 2431  0.1809455  0.0000650 -0.0196386
 2432  0.1633694  0.0001235 -0.0251388
 2433  0.1575899  0.0001427 -0.0250812
 2434  0.1873398  0.0000538 -0.0196806
 2435  0.2054606  0.0000381 -0.0136713
 2436  0.2124768  0.0000333 -0.0136975
 2437  0.1937438  0.0000438 -0.0197162
 2438  0.1749482  0.0000911 -0.0252308
 2439  0.1691557  0.0001063 -0.0251884
 2440  0.2236064  3.98e-006 -0.0070580
 2441  0.2312394  1.90e-006 -0.0070721
 2442  0.2358789  0.0008115 -0.0035166
 2443  0.2439316  0.0008386 -0.0035238
 2444  0.2388859  7.10e-008 -0.0070838
 2445  0.2195041  0.0000292 -0.0137195
 2446  0.2519993  0.0008658 -0.0035297
 2447  0.2600793  0.0008932 -0.0035346
 2448  0.2465438 -1.54e-006 -0.0070935
 2449  0.2265409  0.0000257 -0.0137378
 2450  0.2001563  0.0000351 -0.0197463
 2451  0.2065760  0.0000276 -0.0197714
 2452  0.1865491  0.0000661 -0.0252969
 2453  0.1807462  0.0000777 -0.0252667
 2454  0.2130019  0.0000210 -0.0197923
 2455  0.2335856  0.0000227 -0.0137528
 2456  0.2406369  0.0000202 -0.0137652
 2457  0.2194329  0.0000153 -0.0198095
 2458  0.1981668  0.0000476 -0.0253429
 2459  0.1923561  0.0000562 -0.0253221
 2460  0.2542112 -2.95e-006 -0.0071015
 2461  0.2618862 -4.19e-006 -0.0071080
 2462  0.2681695  0.0009207 -0.0035386
 2463  0.2762680  0.0009483 -0.0035419
 2464  0.2695676 -5.27e-006 -0.0071132
 2465  0.2476937  0.0000182 -0.0137752
 2466  0.2843732  0.0009760 -0.0035445
 2467  0.2924838  0.0010037 -0.0035466
 2468  0.2772540 -6.21e-006 -0.0071174
 2469  0.2547549  0.0000165 -0.0137833
 2470  0.2258684  0.0000105 -0.0198235
 2471  0.2323074  6.43e-006 -0.0198348
 2472  0.2097970  0.0000344 -0.0253739
 2473  0.2039806  0.0000404 -0.0253600
 2474  0.2387495  2.98e-006 -0.0198439
 2475  0.2618198  0.0000151 -0.0137897
 2476  0.2688876  0.0000140 -0.0137947
 2477  0.2451940  7.24e-008 -0.0198511
 2478  0.2214359  0.0000253 -0.0253940
 2479  0.2156155  0.0000294 -0.0253851
 2480  0.2849445 -7.04e-006 -0.0071207
 2481  0.2926383 -7.76e-006 -0.0071233
 2482  0.3005986  0.0010314 -0.0035482
 2483  0.3087167  0.0010592 -0.0035495
 2484  0.3003345 -8.39e-006 -0.0071252
 2485  0.2759578  0.0000132 -0.0137986
 2486  0.3168373  0.0010871 -0.0035504
 2487  0.3249599  0.0011149 -0.0035512
 2488  0.3080327 -8.95e-006 -0.0071267
 2489  0.2830298  0.0000125 -0.0138016
 2490  0.2516405 -2.36e-006 -0.0198567
 2491  0.2580886 -4.38e-006 -0.0198610
 2492  0.2330810  0.0000192 -0.0254065
 2493  0.2272578  0.0000219 -0.0254011
 2494  0.2645379 -6.06e-006 -0.0198643
 2495  0.2901032  0.0000121 -0.0138038
 2496  0.2971777  0.0000117 -0.0138055
 2497  0.2709882 -7.45e-006 -0.0198667
 2498  0.2447300  0.0000154 -0.0254138
 2499  0.2389051  0.0000171 -0.0254107
 2500  0.3157324 -9.45e-006 -0.0071278
 2501  0.3234331 -9.90e-006 -0.0071286
 2502  0.3330838  0.0011428 -0.0035517
 2503  0.3412088  0.0011707 -0.0035521
 2504  0.3311346 -0.0000103 -0.0071292
 2505  0.3042529  0.0000115 -0.0138066
 2506  0.3493345  0.0011986 -0.0035523
 2507  0.3574607  0.0012265 -0.0035525
 2508  0.3388367 -0.0000107 -0.0071295
 2509  0.3113288  0.0000114 -0.0138074
 2510  0.2774392 -8.60e-006 -0.0198685
 2511  0.2838908 -9.55e-006 -0.0198697
 2512  0.2563815  0.0000132 -0.0254177
 2513  0.2505555  0.0000141 -0.0254161
 2514  0.2903429 -0.0000103 -0.0198705
 2515  0.3184051  0.0000114 -0.0138079
 2516  0.3254817  0.0000115 -0.0138081
 2517  0.2967952 -0.0000110 -0.0198710
 2518  0.2680345  0.0000121 -0.0254195
 2519  0.2622079  0.0000125 -0.0254188
 2520  0.3465390 -0.0000110 -0.0071297
 2521  0.3542417 -0.0000113 -0.0071298
 2522  0.3655871  0.0012544 -0.0035525
 2523  0.3737137  0.0012823 -0.0035526
 2524  0.3619444 -0.0000116 -0.0071299
 2525  0.3325584  0.0000116 -0.0138082
 2526  0.3818402  0.0013101 -0.0035526
 2527  0.3899668  0.0013380 -0.0035525
 2528  0.3696471 -0.0000119 -0.0071298
 2529  0.3396353  0.0000117 -0.0138082
 2530  0.3032477 -0.0000115 -0.0198712
 2531  0.3097004 -0.0000120 -0.0198713
 2532  0.2796884  0.0000117 -0.0254201
 2533  0.2738614  0.0000118 -0.0254199
 2534  0.3161531 -0.0000124 -0.0198712
 2535  0.3467122  0.0000119 -0.0138081
 2536  0.3537890  0.0000121 -0.0138079
 2537  0.3226059 -0.0000127 -0.0198710
 2538  0.2913426  0.0000117 -0.0254199
 2539  0.2855155  0.0000117 -0.0254200
 2540  0.3773498 -0.0000122 -0.0071297
 2541  0.3850524 -0.0000124 -0.0071296
 2542  0.3980932  0.0013659 -0.0035525
 2543  0.4062195  0.0013938 -0.0035524
 2544  0.3927549 -0.0000127 -0.0071295
 2545  0.3608658  0.0000123 -0.0138077
 2546  0.4143456  0.0014217 -0.0035523
 2547  0.4224716  0.0014496 -0.0035523
 2548  0.4004572 -0.0000129 -0.0071294
 2549  0.3679426  0.0000126 -0.0138075
 2550  0.3290587 -0.0000130 -0.0198708
 2551  0.3355115 -0.0000133 -0.0198705
 2552  0.3029970  0.0000121 -0.0254194
 2553  0.2971698  0.0000119 -0.0254197
 2554  0.3419642 -0.0000136 -0.0198702
 2555  0.3750193  0.0000128 -0.0138073
 2556  0.3820958  0.0000131 -0.0138070
 2557  0.3484168 -0.0000138 -0.0198699
 2558  0.3146514  0.0000125 -0.0254187
 2559  0.3088242  0.0000123 -0.0254190
 2560  0.4081595 -0.0000132 -0.0071292
 2561  0.4158616 -0.0000134 -0.0071291
 2562  0.4305974  0.0014775 -0.0035522
 2563  0.4387230  0.0015054 -0.0035521
 2564  0.4235635 -0.0000137 -0.0071289
 2565  0.3891723  0.0000133 -0.0138068
 2566  0.4468484  0.0015333 -0.0035521
 2567  0.4549737  0.0015612 -0.0035520
 2568  0.4312654 -0.0000139 -0.0071288
 2569  0.3962487  0.0000136 -0.0138065
 2570  0.3548694 -0.0000141 -0.0198696
 2571  0.3613220 -0.0000143 -0.0198692
 2572  0.3263056  0.0000130 -0.0254180
 2573  0.3204785  0.0000128 -0.0254183
 2574  0.3677745 -0.0000146 -0.0198689
 2575  0.4033250  0.0000138 -0.0138063
 2576  0.4104011  0.0000141 -0.0138061
 2577  0.3742269 -0.0000148 -0.0198686
 2578  0.3379597  0.0000135 -0.0254173
 2579  0.3321327  0.0000133 -0.0254176
 2580  0.4389670 -0.0000142 -0.0071287
 2581  0.4466686 -0.0000144 -0.0071286
 2582  0.4630988  0.0015891 -0.0035519
 2583  0.4712238  0.0016170 -0.0035519
 2584  0.4543700 -0.0000146 -0.0071284
 2585  0.4174772  0.0000143 -0.0138058
 2586  0.4793486  0.0016448 -0.0035518
 2587  0.4874733  0.0016727 -0.0035517
 2588  0.4620713 -0.0000149 -0.0071283
 2589  0.4245532  0.0000146 -0.0138056
 2590  0.3806792 -0.0000150 -0.0198683
 2591  0.3871315 -0.0000153 -0.0198680
 2592  0.3496136  0.0000140 -0.0254165
 2593  0.3437867  0.0000138 -0.0254169
 2594  0.3935837 -0.0000155 -0.0198677
 2595  0.4316291  0.0000148 -0.0138054
 2596  0.4387049  0.0000151 -0.0138052
 2597  0.4000358 -0.0000158 -0.0198674
 2598  0.3612674  0.0000145 -0.0254158
 2599  0.3554405  0.0000143 -0.0254162
 2600  0.4697725 -0.0000151 -0.0071282
 2601  0.4774735 -0.0000154 -0.0071281
 2602  0.4955978  0.0017006 -0.0035517
 2603  0.5037222  0.0017285 -0.0035516
 2604  0.4851745 -0.0000156 -0.0071279
 2605  0.4457805  0.0000153 -0.0138049
 2606  0.5118465  0.0017563 -0.0035515
 2607  0.5199706  0.0017842 -0.0035515
 2608  0.4928752 -0.0000159 -0.0071278
 2609  0.4528561  0.0000155 -0.0138047
 2610  0.4064878 -0.0000160 -0.0198671
 2611  0.4129398 -0.0000163 -0.0198668
 2612  0.3729210  0.0000150 -0.0254151
 2613  0.3670942  0.0000148 -0.0254155
 2614  0.4193917 -0.0000165 -0.0198665
 2615  0.4599316  0.0000158 -0.0138045
 2616  0.4670070  0.0000160 -0.0138042
 2617  0.4258436 -0.0000168 -0.0198662
 2618  0.3845744  0.0000155 -0.0254144
 2619  0.3787477  0.0000152 -0.0254148
 2620  0.5005759 -0.0000161 -0.0071277
 2621  0.5082764 -0.0000164 -0.0071276
 2622  0.5280945  0.0018121 -0.0035514
 2623  0.5362182  0.0018400 -0.0035513
 2624  0.5159768 -0.0000166 -0.0071274
 2625  0.4740823  0.0000163 -0.0138040
 2626  0.5443418  0.0018678 -0.0035513
 2627  0.5524653  0.0018957 -0.0035512
 2628  0.5236770 -0.0000169 -0.0071273
 2629  0.4811575  0.0000165 -0.0138037
 2630  0.4322954 -0.0000170 -0.0198659
 2631  0.4387471 -0.0000173 -0.0198656
 2632  0.3962277  0.0000160 -0.0254137
 2633  0.3904011  0.0000157 -0.0254141
 2634  0.4451988 -0.0000175 -0.0198653
 2635  0.4882326  0.0000168 -0.0138035
 2636  0.4953076  0.0000170 -0.0138033
 2637  0.4516505 -0.0000177 -0.0198651
 2638  0.4078810  0.0000167 -0.0254132
 2639  0.4020544  0.0000163 -0.0254134
 2640  0.5313771 -0.0000171 -0.0071271
 2641  0.5390771 -0.0000174 -0.0071270
 2642  0.5605885  0.0019236 -0.0035511
 2643  0.5687116  0.0019514 -0.0035510
 2644  0.5467770 -0.0000176 -0.0071269
 2645  0.5023826  0.0000173 -0.0138031
 2646  0.5768345  0.0019793 -0.0035510
 2647  0.5849573  0.0020071 -0.0035509
 2648  0.5544768 -0.0000178 -0.0071268
 2649  0.5094576  0.0000177 -0.0138030
 2650  0.4581021 -0.0000178 -0.0198649
 2651  0.4645539 -0.0000179 -0.0198648
 2652  0.4195345  0.0000176 -0.0254131
 2653  0.4137077  0.0000171 -0.0254131
 2654  0.4710056 -0.0000179 -0.0198649
 2655  0.5165326  0.0000180 -0.0138030
 2656  0.5236078  0.0000184 -0.0138031
 2657  0.4774576 -0.0000179 -0.0198651
 2658  0.4311883  0.0000190 -0.0254136
 2659  0.4253613  0.0000183 -0.0254132
 2660  0.5621765 -0.0000180 -0.0071268
 2661  0.5698763 -0.0000182 -0.0071268
 2662  0.5930800  0.0020350 -0.0035509
 2663  0.6012026  0.0020629 -0.0035509
 2664  0.5775762 -0.0000184 -0.0071269
 2665  0.5306831  0.0000188 -0.0138034
 2666  0.6093253  0.0020907 -0.0035509
 2667  0.6174481  0.0021186 -0.0035510
 2668  0.5852763 -0.0000186 -0.0071271
 2669  0.5377586  0.0000194 -0.0138039
 2670  0.4839097 -0.0000177 -0.0198656
 2671  0.4903621 -0.0000174 -0.0198664
 2672  0.4428429  0.0000211 -0.0254154
 2673  0.4370155  0.0000200 -0.0254143
 2674  0.4968150 -0.0000170 -0.0198676
 2675  0.5448346  0.0000199 -0.0138047
 2676  0.5519112  0.0000206 -0.0138059
 2677  0.5032684 -0.0000163 -0.0198694
 2678  0.4544991  0.0000244 -0.0254194
 2679  0.4486708  0.0000226 -0.0254170
 2680  0.5929768 -0.0000187 -0.0071275
 2681  0.6006778 -0.0000188 -0.0071281
 2682  0.6255712  0.0021465 -0.0035512
 2683  0.6336948  0.0021743 -0.0035514
 2684  0.6083796 -0.0000188 -0.0071289
 2685  0.5589886  0.0000215 -0.0138075
 2686  0.6418191  0.0022022 -0.0035518
 2687  0.6499444  0.0022301 -0.0035523
 2688  0.6160825 -0.0000188 -0.0071300
 2689  0.5660671  0.0000224 -0.0138098
 2690  0.5097225 -0.0000154 -0.0198718
 2691  0.5161777 -0.0000142 -0.0198752
 2692  0.4661577  0.0000291 -0.0254267
 2693  0.4603280  0.0000265 -0.0254225
 2694  0.5226340 -0.0000127 -0.0198795
 2695  0.5731470  0.0000236 -0.0138128
 2696  0.5802288  0.0000249 -0.0138167
 2697  0.5290920 -0.0000107 -0.0198851
 2698  0.4778202  0.0000361 -0.0254392
 2699  0.4719883  0.0000323 -0.0254322
 2700  0.6237869 -0.0000187 -0.0071315
 2701  0.6314932 -0.0000186 -0.0071335
 2702  0.6580712  0.0022580 -0.0035531
 2703  0.6662000  0.0022859 -0.0035541
 2704  0.6392020 -0.0000184 -0.0071361
 2705  0.5873128  0.0000265 -0.0138217
 2706  0.6743313  0.0023139 -0.0035553
 2707  0.6824659  0.0023419 -0.0035570
 2708  0.6469141 -0.0000181 -0.0071394
 2709  0.5943998  0.0000283 -0.0138281
 2710  0.5355519 -8.36e-006 -0.0198923
 2711  0.5420142 -5.46e-006 -0.0199013
 2712  0.4894887  0.0000461 -0.0254592
 2713  0.4836535  0.0000407 -0.0254481
 2714  0.5484794 -1.96e-006 -0.0199126
 2715  0.6014903  0.0000304 -0.0138361
 2716  0.6085853  0.0000329 -0.0138461
 2717  0.5549482  2.18e-006 -0.0199264
 2718  0.5011658  0.0000599 -0.0254898
 2719  0.4953259  0.0000525 -0.0254729
 2720  0.6546302 -0.0000176 -0.0071436
 2721  0.6623514 -0.0000171 -0.0071488
 2722  0.6906048  0.0023699 -0.0035590
 2723  0.6987490  0.0023980 -0.0035616
 2724  0.6700788 -0.0000164 -0.0071552
 2725  0.6156856  0.0000358 -0.0138582
 2726  0.7068998  0.0024262 -0.0035649
 2727  0.7150589  0.0024545 -0.0035688
 2728  0.6778137 -0.0000155 -0.0071629
 2729  0.6227923  0.0000390 -0.0138729
 2730  0.5614212  7.05e-006 -0.0199432
 2731  0.5678993  0.0000127 -0.0199635
 2732  0.5128550  0.0000782 -0.0255346
 2733  0.5070086  0.0000684 -0.0255101
 2734  0.5743833  0.0000191 -0.0199876
 2735  0.6299066  0.0000427 -0.0138905
 2736  0.6370299  0.0000468 -0.0139114
 2737  0.5808743  0.0000263 -0.0200162
 2738  0.5245608  0.0001014 -0.0255979
 2739  0.5187056  0.0000892 -0.0255637
 2740  0.6855577 -0.0000145 -0.0071723
 2741  0.6933126 -0.0000134 -0.0071835
 2742  0.7232278  0.0024829 -0.0035736
 2743  0.7314088  0.0025114 -0.0035793
 2744  0.7010803 -0.0000120 -0.0071968
 2745  0.6441637  0.0000513 -0.0139360
 2746  0.7396040  0.0025400 -0.0035860
 2747  0.7478160  0.0025688 -0.0035940
 2748  0.7088630 -0.0000106 -0.0072122
 2749  0.6513095  0.0000562 -0.0139646
 2750  0.5873731  0.0000343 -0.0200497
 2751  0.5938810  0.0000430 -0.0200883
 2752  0.5362880  0.0001293 -0.0256836
 2753  0.5304214  0.0001149 -0.0256377
 2754  0.6003992  0.0000522 -0.0201326
 2755  0.6584691  0.0000614 -0.0139974
 2756  0.6656443  0.0000668 -0.0140347
 2757  0.6069286  0.0000617 -0.0201826
 2758  0.5480419  0.0001601 -0.0257947
 2759  0.5421613  0.0001446 -0.0257359
 2760  0.7166630 -8.98e-006 -0.0072301
 2761  0.7244828 -7.31e-006 -0.0072505
 2762  0.7560477  0.0025978 -0.0036032
 2763  0.7643020  0.0026271 -0.0036138
 2764  0.7323249 -5.63e-006 -0.0072735
 2765  0.6728367  0.0000722 -0.0140766
 2766  0.7725822  0.0026565 -0.0036258
 2767  0.7808913  0.0026863 -0.0036392
 2768  0.7401919 -4.02e-006 -0.0072991
 2769  0.6800479  0.0000773 -0.0141227
 2770  0.6134705  0.0000711 -0.0202383
 2771  0.6200256  0.0000798 -0.0202993
 2772  0.5598273  0.0001894 -0.0259310
 2773  0.5539305  0.0001754 -0.0258599
 2774  0.6265948  0.0000873 -0.0203650
 2775  0.6872793  0.0000818 -0.0141727
 2776  0.6945318  0.0000853 -0.0142257
 2777  0.6331783  0.0000924 -0.0204341
 2778  0.5716465  0.0002091 -0.0260863
 2779  0.5657326  0.0002012 -0.0260070
 2780  0.7480859 -2.61e-006 -0.0073269
 2781  0.7560089 -1.56e-006 -0.0073568
 2782  0.7892326  0.0027163 -0.0036539
 2783  0.7976088  0.0027466 -0.0036698
 2784  0.7639624 -1.09e-006 -0.0073879
 2785  0.7018058  0.0000871 -0.0142804
 2786  0.8060221  0.0027772 -0.0036864
 2787  0.8144740  0.0028081 -0.0037035
 2788  0.7719466 -1.44e-006 -0.0074193
 2789  0.7091009  0.0000865 -0.0143350
 2790  0.6397758  0.0000942 -0.0205046
 2791  0.6463865  0.0000913 -0.0205738
 2792  0.5834973  0.0002056 -0.0262442
 2793  0.5775684  0.0002113 -0.0261665
 2794  0.6530085  0.0000819 -0.0206381
 2795  0.7164152  0.0000828 -0.0143867
 2796  0.7237457  0.0000749 -0.0144321
 2797  0.6596386  0.0000642 -0.0206926
 2798  0.5953685  0.0001589 -0.0263726
 2799  0.5894316  0.0001891 -0.0263149
 2800  0.7799608 -2.91e-006 -0.0074497
 2801  0.7880024 -5.87e-006 -0.0074772
 2802  0.8229644  0.0028392 -0.0037202
 2803  0.8314917  0.0028704 -0.0037357
 2804  0.7960667 -0.0000107 -0.0074996
 2805  0.7310872  0.0000619 -0.0144669
 2806  0.8400516  0.0029018 -0.0037488
 2807  0.8486373  0.0029333 -0.0037581
 2808  0.8041460 -0.0000177 -0.0075141
 2809  0.7384324  0.0000425 -0.0144857
 2810  0.6662720  0.0000360 -0.0207312
 2811  0.6729021 -4.78e-006 -0.0207463
 2812  0.6072338  0.0000429 -0.0264174
 2813  0.6013044  0.0001114 -0.0264098
 2814  0.6795199 -0.0000604 -0.0207291
 2815  0.7457708  0.0000157 -0.0144821
 2816  0.7530886 -0.0000196 -0.0144489
 2817  0.6861135 -0.0001329 -0.0206690
 2818  0.6190427 -0.0001710 -0.0262976
 2819  0.6131497 -0.0000501 -0.0263841
 2820  0.8122297 -0.0000274 -0.0075172
 2821  0.8203035 -0.0000406 -0.0075051
 2822  0.8572380  0.0029646 -0.0037620
 2823  0.8658387  0.0029952 -0.0037580
 2824  0.8283479 -0.0000577 -0.0074721
 2825  0.7603713 -0.0000662 -0.0143782
 2826  0.8744181  0.0030262 -0.0037441
 2827  0.8829562  0.0030599 -0.0037200
 2828  0.8363340 -0.0000728 -0.0074148
 2829  0.7675932 -0.0001222 -0.0142512
 2830  0.6926656 -0.0002238 -0.0205574
 2831  0.6991091 -0.0003347 -0.0203745
 2832  0.6306170 -0.0005331 -0.0258992
 2833  0.6249013 -0.0003203 -0.0261421
 2834  0.7053876 -0.0004473 -0.0201247
 2835  0.7746351 -0.0001896 -0.0140693
 2836  0.7815562 -0.0003001 -0.0138417
 2837  0.7114660 -0.0005865 -0.0197889
 2838  0.6417244 -0.0010327 -0.0251245
 2839  0.6362601 -0.0007732 -0.0255675
 2840  0.8441835 -0.0000906 -0.0073321
 2841  0.8518898 -0.0001118 -0.0072229
 2842  0.8914122  0.0030763 -0.0036754
 2843  0.8997467  0.0031179 -0.0036100
 2844  0.8594539 -0.0001340 -0.0070656
 2845  0.7882535 -0.0003955 -0.0135338
 2846  0.9079162  0.0031379 -0.0035348
 2847  0.9158836  0.0031651 -0.0034298
 2848  0.8668712 -0.0001712 -0.0068546
 2849  0.7948608 -0.0004836 -0.0131304
 2850  0.7175275 -0.0008060 -0.0193353
 2851  0.7231927 -0.0009934 -0.0187582
 2852  0.6518278 -0.0015992 -0.0238500
 2853  0.6469557 -0.0013032 -0.0245388
 2854  0.7286195 -0.0011752 -0.0180978
 2855  0.8011346 -0.0005631 -0.0125950
 2856  0.8069245 -0.0006995 -0.0120316
 2857  0.7336270 -0.0013819 -0.0173356
 2858  0.6610379 -0.0023542 -0.0219108
 2859  0.6565569 -0.0019733 -0.0229863
 2860  0.8739815 -0.0001768 -0.0066016
 2861  0.8806069 -0.0002203 -0.0063048
 2862  0.9235821  0.0031903 -0.0033053
 2863  0.9308939  0.0032404 -0.0031448
 2864  0.8869186 -0.0002818 -0.0059702
 2865  0.8124224 -0.0008109 -0.0113729
 2866  0.9378028  0.0032471 -0.0029862
 2867  0.9442606  0.0032549 -0.0027826
 2868  0.8927910 -0.0003266 -0.0055675
 2869  0.8174561 -0.0009119 -0.0106175
 2870  0.7384242 -0.0015715 -0.0163902
 2871  0.7428155 -0.0017984 -0.0153141
 2872  0.6687785 -0.0029983 -0.0193855
 2873  0.6650902 -0.0026651 -0.0207283
 2874  0.7468961 -0.0019698 -0.0141399
 2875  0.8223010 -0.0009896 -0.0097816
 2876  0.8266073 -0.0010209 -0.0088766
 2877  0.7507167 -0.0021176 -0.0128161
 2878  0.6752441 -0.0034534 -0.0162847
 2879  0.6721478 -0.0032386 -0.0179080
 2880  0.8983479 -0.0003206 -0.0051176
 2881  0.9033359 -0.0003404 -0.0046345
 2882  0.9502975  0.0033061 -0.0025461
 2883  0.9557283  0.0033420 -0.0023071
 2884  0.9079248 -0.0003997 -0.0041376
 2885  0.9605903  0.0033357 -0.0020680
 2886  0.9648699  0.0033566 -0.0018077
 2887  0.9119367 -0.0004278 -0.0036256
 2888  0.8344296 -0.0010472 -0.0070133
 2889  0.8306760 -0.0010133 -0.0079827
 2890  0.7542515 -0.0021075 -0.0114650
 2891  0.7575484 -0.0021183 -0.0100998
 2892  0.6810080 -0.0035529 -0.0129164
 2893  0.6782050 -0.0035158 -0.0146570
 2894  0.7606792 -0.0021107 -0.0087282
 2895  0.6840070 -0.0035167 -0.0111641
 2896  0.8377361 -0.0010124 -0.0060422
 2897  0.8407141 -0.0010261 -0.0051304
 2898  0.7635749 -0.0021229 -0.0073646
 2899  0.6868432 -0.0034500 -0.0095038
 2900  0.9156136 -0.0004022 -0.0031150
 2901  0.9687037  0.0033543 -0.0015432
 2902  0.9719651  0.0033872 -0.0012778
 2903  0.9187153 -0.0003443 -0.0026072
 2904  0.7662060 -0.0019757 -0.0060063
 2905  0.6895574 -0.0032575 -0.0078303
 2906  0.8434711 -0.0010057 -0.0042001
 2907  0.8458004 -0.0009004 -0.0032856
 2908  0.7686861 -0.0018181 -0.0047773
 2909  0.6920059 -0.0029977 -0.0062788
 2910  0.9214199 -0.0003277 -0.0021173
 2911  0.9746612  0.0033885 -0.0010305
 2912  0.9767490  0.0033816 -0.0008041
 2913  0.9235664 -0.0003107 -0.0016565
 2914  0.7707046 -0.0015880 -0.0037177
 2915  0.8477916 -0.0007809 -0.0025296
 2916  0.8494393 -0.0006821 -0.0018024
 2917  0.7722998 -0.0013569 -0.0026789
 2918  0.6959323 -0.0023477 -0.0036552
 2919  0.6941468 -0.0026818 -0.0048820
 2920  0.9254714 -0.0003030 -0.0012912
 2921  0.9268995 -0.0002476 -0.0008718
 2922  0.9784052  0.0033602 -0.0005941
 2923  0.9796231  0.0034111 -0.0004049
 2924  0.9278677 -0.0001817 -0.0005640
 2925  0.8506233 -0.0005748 -0.0012572
 2926  0.9804471  0.0033844 -0.0002503
 2927  0.9808792  0.0033867 -0.0001226
 2928  0.9284651 -0.0001726 -0.0003036
 2929  0.8514371 -0.0004879 -0.0007055
 2930  0.7737378 -0.0011792 -0.0018798
 2931  0.7747038 -0.0009860 -0.0011809
 2932  0.6983919 -0.0016149 -0.0016027
 2933  0.6972916 -0.0019683 -0.0025490
 2934  0.7755536 -0.0008114 -0.0006369
 2935  0.8519050 -0.0004004 -0.0002974
 2936  0.8522960 -0.0003051  0.0000252
 2937  0.7760097 -0.0006018 -0.0001174
 2938  0.6999662 -0.0010329 -0.0002714
 2939  0.6993623 -0.0012976 -0.0009020
 2940  0.9287481 -0.0001347 -0.0000915
 2941  0.9288847 -0.0001153  0.0000711
 2942  0.9810359  0.0033880 -0.0000166
 2943  0.9809889  0.0033981  0.0000595
 2944  0.9288872 -0.0000957  0.0001966
 2945  0.8524623 -0.0001867  0.0002673
 2946  0.9807796  0.0033833  0.0001214
 2947  0.9804511  0.0033938  0.0001676
 2948  0.9287498 -0.0000763  0.0002862
 2949  0.8525037 -0.0001190  0.0004455
 2950  0.7763415 -0.0004451  0.0002320
 2951  0.7765261 -0.0003393  0.0005000
 2952  0.7005319 -0.0005325  0.0004842
 2953  0.7003361 -0.0007761  0.0001386
 2954  0.7765460 -0.0002275  0.0006895
 2955  0.8523589 -0.0000634  0.0005721
 2956  0.8521522 -0.0000163  0.0006432
 2957  0.7764453 -0.0001364  0.0008010
 2958  0.7006202 -0.0001675  0.0008814
 2959  0.7006520 -0.0003170  0.0007266
 2960  0.9284644 -0.0000611  0.0003435
 2961  0.9281212 -0.0000441  0.0003766
 2962  0.9800384  0.0033885  0.0001921
 2963  0.9795836  0.0033855  0.0002061
 2964  0.9277487 -0.0000311  0.0003888
 2965  0.8519102  0.0000194  0.0006764
 2966  0.9791075  0.0033828  0.0002101
 2967  0.9786314  0.0033793  0.0002063
 2968  0.9273662 -0.0000217  0.0003857
 2969  0.8516477  0.0000464  0.0006800
 2970  0.7763038 -0.0000641  0.0008611
 2971  0.7761381 -8.74e-006  0.0008783
 2972  0.7004649  0.0000469  0.0010009
 2973  0.7005538 -0.0000464  0.0009677
 2974  0.7759602  0.0000318  0.0008632
 2975  0.8513784  0.0000661  0.0006612
 2976  0.8511127  0.0000794  0.0006264
 2977  0.7757789  0.0000597  0.0008246
 2978  0.7002533  0.0001633  0.0009561
 2979  0.7003623  0.0001156  0.0009933
 2980  0.9269881 -0.0000149  0.0003712
 2981  0.9266250 -0.0000103  0.0003488
 2982  0.9781703  0.0033758  0.0001969
 2983  0.9777349  0.0033723  0.0001838
 2984  0.9262846 -7.61e-006  0.0003213
 2985  0.8508581  0.0000875  0.0005810
 2986  0.9773322  0.0033689  0.0001683
 2987  0.9769664  0.0033656  0.0001516
 2988  0.9259716 -6.37e-006  0.0002909
 2989  0.8506197  0.0000915  0.0005293
 2990  0.7756011  0.0000772  0.0007701
 2991  0.7754313  0.0000863  0.0007058
 2992  0.7000359  0.0002105  0.0008277
 2993  0.7001432  0.0001938  0.0008984
 2994  0.7752728  0.0000891  0.0006365
 2995  0.8504006  0.0000922  0.0004748
 2996  0.8502024  0.0000907  0.0004200
 2997  0.7751274  0.0000870  0.0005660
 2998  0.6998388  0.0002145  0.0006697
 2999  0.6999338  0.0002165  0.0007499
 3000  0.9256886 -6.27e-006  0.0002594
 3001  0.9254363 -6.99e-006  0.0002283
 3002  0.9766391  0.0033627  0.0001346
 3003  0.9763503  0.0033599  0.0001179
 3004  0.9252145 -8.29e-006  0.0001985
 3005  0.8500258  0.0000875  0.0003670
 3006  0.9760986  0.0033575  0.0001021
 3007  0.9758819  0.0033554  0.0000873
 3008  0.9250217 -9.94e-006  0.0001706
 3009  0.8498703  0.0000832  0.0003170
 3010  0.7749961  0.0000816  0.0004970
 3011  0.7748792  0.0000739  0.0004313
 3012  0.6996734  0.0001954  0.0005144
 3013  0.6997519  0.0002068  0.0005904
 3014  0.7747762  0.0000649  0.0003702
 3015  0.8497350  0.0000783  0.0002709
 3016  0.8496185  0.0000732  0.0002290
 3017  0.7746866  0.0000553  0.0003145
 3018  0.6995419  0.0001665  0.0003781
 3019  0.6996035  0.0001815  0.0004433
 3020  0.9248560 -0.0000118  0.0001451
 3021  0.9247151 -0.0000137  0.0001221
 3022  0.9756974  0.0033535  0.0000740
 3023  0.9755418  0.0033519  0.0000620
 3024  0.9245965 -0.0000156  0.0001017
 3025  0.8495193  0.0000681  0.0001917
 3026  0.9754121  0.0033506  0.0000514
 3027  0.9753050  0.0033494  0.0000421
 3028  0.9244977 -0.0000175  0.0000838
 3029  0.8494356  0.0000631  0.0001589
 3030  0.7746094  0.0000456  0.0002645
 3031  0.7745435  0.0000361  0.0002203
 3032  0.6994418  0.0001363  0.0002670
 3033  0.6994882  0.0001512  0.0003193
 3034  0.7744877  0.0000272  0.0001816
 3035  0.8493657  0.0000585  0.0001303
 3036  0.8493078  0.0000542  0.0001057
 3037  0.7744411  0.0000189  0.0001481
 3038  0.6993684  0.0001088  0.0001813
 3039  0.6994021  0.0001220  0.0002211
 3040  0.9244162 -0.0000192  0.0000683
 3041  0.9243497 -0.0000208  0.0000551
 3042  0.9752175  0.0033485  0.0000342
 3043  0.9751469  0.0033477  0.0000274
 3044  0.9242961 -0.0000222  0.0000439
 3045  0.8492604  0.0000503  0.0000848
 3046  0.9750906  0.0033471  0.0000217
 3047  0.9750462  0.0033466  0.0000170
 3048  0.9242533 -0.0000234  0.0000345
 3049  0.8492220  0.0000469  0.0000672
 3050  0.7744024  0.0000115  0.0001196
 3051  0.7743706  4.78e-006  0.0000954
 3052  0.6993165  0.0000860  0.0001180
 3053  0.6993401  0.0000968  0.0001471
 3054  0.7743447 -1.10e-006  0.0000751
 3055  0.8491913  0.0000439  0.0000525
 3056  0.8491669  0.0000413  0.0000404
 3057  0.7743239 -6.21e-006  0.0000583
 3058  0.6992811  0.0000682  0.0000731
 3059  0.6992970  0.0000765  0.0000935
 3060  0.9242196 -0.0000245  0.0000267
 3061  0.9241934 -0.0000255  0.0000204
 3062  0.9750118  0.0033462  0.0000130
 3063  0.9749855  0.0033459  9.81e-006
 3064  0.9241735 -0.0000263  0.0000152
 3065  0.8491479  0.0000391  0.0000305
 3066  0.9749659  0.0033457  7.21e-006
 3067  0.9749516  0.0033455  5.14e-006
 3068  0.9241586 -0.0000269  0.0000110
 3069  0.8491333  0.0000372  0.0000224
 3070  0.7743074 -0.0000106  0.0000445
 3071  0.7742943 -0.0000144  0.0000332
 3072  0.6992578  0.0000550  0.0000426
 3073  0.6992682  0.0000611  0.0000563
 3074  0.7742843 -0.0000175  0.0000242
 3075  0.8491222  0.0000356  0.0000161
 3076  0.8491141  0.0000343  0.0000110
 3077  0.7742766 -0.0000201  0.0000170
 3078  0.6992432  0.0000455  0.0000226
 3079  0.6992496  0.0000498  0.0000315
 3080  0.9241478 -0.0000275  7.69e-006
 3081  0.9241401 -0.0000280  5.10e-006
 3082  0.9749416  0.0033454  3.51e-006
 3083  0.9749349  0.0033453  2.23e-006
 3084  0.9241351 -0.0000284  3.10e-006
 3085  0.8491083  0.0000332  7.08e-006
 3086  0.9749307  0.0033453  1.26e-006
 3087  0.9749286  0.0033453  5.35e-007
 3088  0.9241319 -0.0000287  1.59e-006
 3089  0.8491043  0.0000323  4.08e-006
 3090  0.7742709 -0.0000223  0.0000114
 3091  0.7742667 -0.0000241  7.07e-006
 3092  0.6992345  0.0000390  0.0000101
 3093  0.6992382  0.0000419  0.0000156
 3094  0.7742638 -0.0000255  3.77e-006
 3095  0.8491018  0.0000316  1.83e-006
 3096  0.8491003  0.0000310  1.79e-007
 3097  0.7742619 -0.0000267  1.32e-006
 3098  0.6992297  0.0000347  2.76e-006
 3099  0.6992317  0.0000366  5.90e-006
 3100  0.9241302 -0.0000289  4.68e-007
 3101  0.9241297 -0.0000291 -3.37e-007
 3102  0.9749278  0.0033453  3.25e-009
 3103  0.9749281  0.0033452 -3.72e-007
 3104  0.9241299 -0.0000293 -8.92e-007
 3105  0.8490996  0.0000305 -9.88e-007
 3106  0.9749292  0.0033453 -6.25e-007
 3107  0.9749307  0.0033453 -7.82e-007
 3108  0.9241307 -0.0000294 -1.25e-006
 3109  0.8490995  0.0000302 -1.78e-006
 3110  0.7742607 -0.0000276 -4.50e-007
 3111  0.7742601 -0.0000283 -1.68e-006
 3112  0.6992274  0.0000320 -1.19e-006
 3113  0.6992283  0.0000332  4.52e-007
 3114  0.7742599 -0.0000288 -2.49e-006
 3115  0.8490999  0.0000299 -2.27e-006
 3116  0.8491005  0.0000297 -2.54e-006
 3117  0.7742600 -0.0000292 -2.97e-006
 3118  0.6992266  0.0000304 -3.00e-006
 3119  0.6992269  0.0000311 -2.30e-006
 3120  0.9241318 -0.0000295 -1.47e-006
 3121  0.9241332 -0.0000296 -1.57e-006
 3122  0.9749325  0.0033453 -8.67e-007
 3123  0.9749344  0.0033453 -8.98e-007
 3124  0.9241346 -0.0000296 -1.58e-006
 3125  0.8491013  0.0000296 -2.64e-006
 3126  0.9749363  0.0033453 -8.89e-007
 3127  0.9749382  0.0033453 -8.52e-007
 3128  0.9241361 -0.0000297 -1.54e-006
 3129  0.8491022  0.0000295 -2.62e-006
 3130  0.7742603 -0.0000295 -3.20e-006
 3131  0.7742608 -0.0000298 -3.25e-006
 3132  0.6992267  0.0000295 -3.53e-006
 3133  0.6992266  0.0000298 -3.38e-006
 3134  0.7742613 -0.0000299 -3.17e-006
 3135  0.8491032  0.0000294 -2.51e-006
 3136  0.8491041  0.0000294 -2.34e-006
 3137  0.7742618 -0.0000300 -3.00e-006
 3138  0.6992271  0.0000290 -3.36e-006
 3139  0.6992268  0.0000292 -3.51e-006
 3140  0.9241375 -0.0000297 -1.45e-006
 3141  0.9241389 -0.0000297 -1.34e-006
 3142  0.9749401  0.0033454 -7.97e-007
 3143  0.9749417  0.0033454 -7.29e-007
 3144  0.9241401 -0.0000297 -1.21e-006
 3145  0.8491050  0.0000293 -2.14e-006
 3146  0.9749433  0.0033454 -6.54e-007
 3147  0.9749446  0.0033454 -5.77e-007
 3148  0.9241413 -0.0000297 -1.07e-006
 3149  0.8491058  0.0000293 -1.91e-006
 3150  0.7742624 -0.0000301 -2.76e-006
 3151  0.7742629 -0.0000301 -2.48e-006
 3152  0.6992276  0.0000288 -2.83e-006
 3153  0.6992273  0.0000289 -3.13e-006
 3154  0.7742634 -0.0000301 -2.18e-006
 3155  0.8491065  0.0000293 -1.66e-006
 3156  0.8491072  0.0000293 -1.42e-006
 3157  0.7742638 -0.0000301 -1.87e-006
 3158  0.6992281  0.0000288 -2.16e-006
 3159  0.6992279  0.0000288 -2.51e-006
 3160  0.9241423 -0.0000297 -9.32e-007
 3161  0.9241431 -0.0000297 -7.90e-007
 3162  0.9749458  0.0033454 -4.98e-007
 3163  0.9749468  0.0033454 -4.21e-007
 3164  0.9241439 -0.0000297 -6.50e-007
 3165  0.8491077  0.0000293 -1.17e-006
 3166  0.9749477  0.0033454 -3.46e-007
 3167  0.9749483  0.0033455 -2.73e-007
 3168  0.9241444 -0.0000297 -5.14e-007
 3169  0.8491082  0.0000293 -9.28e-007
 3170  0.7742642 -0.0000301 -1.55e-006
 3171  0.7742645 -0.0000301 -1.23e-006
 3172  0.6992285  0.0000288 -1.43e-006
 3173  0.6992283  0.0000288 -1.80e-006
 3174  0.7742648 -0.0000301 -9.19e-007
 3175  0.8491085  0.0000293 -6.91e-007
 3176  0.8491088  0.0000293 -4.57e-007
 3177  0.7742649 -0.0000301 -6.10e-007
 3178  0.6992288  0.0000288 -7.13e-007
 3179  0.6992287  0.0000288 -1.07e-006
 3180  0.9241449 -0.0000297 -3.82e-007
 3181  0.9241452 -0.0000297 -2.52e-007
 3182  0.9749489  0.0033455 -2.02e-007
 3183  0.9749492  0.0033455 -1.33e-007
 3184  0.9241454 -0.0000297 -1.26e-007
 3185  0.8491089  0.0000294 -2.28e-007
 3186  0.9749494  0.0033455 -6.63e-008
 3187  0.9749495  0.0033455 -1.37e-012
 3188  0.9241455 -0.0000297 -2.67e-012
 3189  0.8491090  0.0000294 -4.98e-012
 3190  0.7742650 -0.0000301 -3.04e-007
 3191  0.7742651 -0.0000301 -6.73e-012
 3192  0.6992289  0.0000288 -7.92e-012
 3193  0.6992288  0.0000288 -3.56e-007
 3194  0.7742650 -0.0000301  3.04e-007
 3195  0.8491089  0.0000294  2.28e-007
 3196  0.8491088  0.0000293  4.57e-007
 3197  0.7742649 -0.0000301  6.10e-007
 3198  0.6992288  0.0000288  7.13e-007
 3199  0.6992288  0.0000288  3.56e-007
 3200  0.9241454 -0.0000297  1.26e-007
 3201  0.9241452 -0.0000297  2.52e-007
 3202  0.9749494  0.0033455  6.63e-008
 3203  0.9749492  0.0033455  1.33e-007
 3204  0.9241449 -0.0000297  3.82e-007
 3205  0.8491085  0.0000293  6.91e-007
 3206  0.9749489  0.0033455  2.02e-007
 3207  0.9749483  0.0033455  2.73e-007
 3208  0.9241444 -0.0000297  5.14e-007
 3209  0.8491082  0.0000293  9.28e-007
 3210  0.7742648 -0.0000301  9.19e-007
 3211  0.7742645 -0.0000301  1.23e-006
 3212  0.6992285  0.0000288  1.43e-006
 3213  0.6992287  0.0000288  1.07e-006
 3214  0.7742642 -0.0000301  1.55e-006
 3215  0.8491077  0.0000293  1.17e-006
 3216  0.8491072  0.0000293  1.42e-006
 3217  0.7742638 -0.0000301  1.87e-006
 3218  0.6992281  0.0000288  2.16e-006
 3219  0.6992283  0.0000288  1.80e-006
 3220  0.9241439 -0.0000297  6.50e-007
 3221  0.9241431 -0.0000297  7.90e-007
 3222  0.9749477  0.0033454  3.46e-007
 3223  0.9749468  0.0033454  4.21e-007
 3224  0.9241423 -0.0000297  9.32e-007
 3225  0.8491065  0.0000293  1.66e-006
 3226  0.9749458  0.0033454  4.98e-007
 3227  0.9749446  0.0033454  5.77e-007
 3228  0.9241413 -0.0000297  1.07e-006
 3229  0.8491058  0.0000293  1.91e-006
 3230  0.7742634 -0.0000301  2.18e-006
 3231  0.7742629 -0.0000301  2.48e-006
 3232  0.6992276  0.0000288  2.83e-006
 3233  0.6992279  0.0000288  2.51e-006
 3234  0.7742624 -0.0000301  2.76e-006
 3235  0.8491050  0.0000293  2.14e-006
 3236  0.8491041  0.0000294  2.34e-006
 3237  0.7742618 -0.0000300  3.00e-006
 3238  0.6992271  0.0000290  3.36e-006
 3239  0.6992273  0.0000289  3.13e-006
 3240  0.9241401 -0.0000297  1.21e-006
 3241  0.9241389 -0.0000297  1.34e-006
 3242  0.9749433  0.0033454  6.54e-007
 3243  0.9749417  0.0033454  7.29e-007
 3244  0.9241375 -0.0000297  1.45e-006
 3245  0.8491032  0.0000294  2.51e-006
 3246  0.9749401  0.0033454  7.97e-007
 3247  0.9749382  0.0033453  8.52e-007
 3248  0.9241361 -0.0000297  1.54e-006
 3249  0.8491022  0.0000295  2.62e-006
 3250  0.7742613 -0.0000299  3.17e-006
 3251  0.7742608 -0.0000298  3.25e-006
 3252  0.6992267  0.0000295  3.53e-006
 3253  0.6992268  0.0000292  3.51e-006
 3254  0.7742603 -0.0000295  3.20e-006
 3255  0.8491013  0.0000296  2.64e-006
 3256  0.8491005  0.0000297  2.54e-006
 3257  0.7742600 -0.0000292  2.97e-006
 3258  0.6992266  0.0000304  3.00e-006
 3259  0.6992266  0.0000298  3.38e-006
 3260  0.9241346 -0.0000296  1.58e-006
 3261  0.9241332 -0.0000296  1.57e-006
 3262  0.9749363  0.0033453  8.89e-007
 3263  0.9749344  0.0033453  8.98e-007
 3264  0.9241318 -0.0000295  1.47e-006
 3265  0.8490999  0.0000299  2.27e-006
 3266  0.9749325  0.0033453  8.67e-007
 3267  0.9749307  0.0033453  7.82e-007
 3268  0.9241307 -0.0000294  1.25e-006
 3269  0.8490995  0.0000302  1.78e-006
 3270  0.7742599 -0.0000288  2.49e-006
 3271  0.7742601 -0.0000283  1.68e-006
 3272  0.6992274  0.0000320  1.19e-006
 3273  0.6992269  0.0000311  2.30e-006
 3274  0.7742607 -0.0000276  4.50e-007
 3275  0.8490996  0.0000305  9.88e-007
 3276  0.8491003  0.0000310 -1.79e-007
 3277  0.7742619 -0.0000267 -1.32e-006
 3278  0.6992297  0.0000347 -2.76e-006
 3279  0.6992283  0.0000332 -4.52e-007
 3280  0.9241299 -0.0000293  8.92e-007
 3281  0.9241297 -0.0000291  3.37e-007
 3282  0.9749292  0.0033453  6.25e-007
 3283  0.9749281  0.0033452  3.72e-007
 3284  0.9241302 -0.0000289 -4.68e-007
 3285  0.8491018  0.0000316 -1.83e-006
 3286  0.9749278  0.0033453 -3.22e-009
 3287  0.9749286  0.0033453 -5.35e-007
 3288  0.9241319 -0.0000287 -1.59e-006
 3289  0.8491043  0.0000323 -4.08e-006
 3290  0.7742638 -0.0000255 -3.77e-006
 3291  0.7742667 -0.0000241 -7.07e-006
 3292  0.6992345  0.0000390 -0.0000101
 3293  0.6992317  0.0000366 -5.90e-006
 3294  0.7742709 -0.0000223 -0.0000114
 3295  0.8491083  0.0000332 -7.08e-006
 3296  0.8491141  0.0000343 -0.0000110
 3297  0.7742766 -0.0000201 -0.0000170
 3298  0.6992432  0.0000455 -0.0000226
 3299  0.6992382  0.0000419 -0.0000156
 3300  0.9241351 -0.0000284 -3.10e-006
 3301  0.9241401 -0.0000280 -5.10e-006
 3302  0.9749307  0.0033453 -1.26e-006
 3303  0.9749349  0.0033453 -2.23e-006
 3304  0.9241478 -0.0000275 -7.69e-006
 3305  0.8491222  0.0000356 -0.0000161
 3306  0.9749416  0.0033454 -3.51e-006
 3307  0.9749516  0.0033455 -5.14e-006
 3308  0.9241586 -0.0000269 -0.0000110
 3309  0.8491333  0.0000372 -0.0000224
 3310  0.7742843 -0.0000175 -0.0000242
 3311  0.7742943 -0.0000144 -0.0000332
 3312  0.6992578  0.0000550 -0.0000426
 3313  0.6992496  0.0000498 -0.0000315
 3314  0.7743074 -0.0000106 -0.0000445
 3315  0.8491479  0.0000391 -0.0000305
 3316  0.8491669  0.0000413 -0.0000404
 3317  0.7743239 -6.21e-006 -0.0000583
 3318  0.6992811  0.0000682 -0.0000731
 3319  0.6992682  0.0000611 -0.0000563
 3320  0.9241735 -0.0000263 -0.0000152
 3321  0.9241934 -0.0000255 -0.0000204
 3322  0.9749659  0.0033457 -7.21e-006
 3323  0.9749855  0.0033459 -9.81e-006
 3324  0.9242196 -0.0000245 -0.0000267
 3325  0.8491913  0.0000439 -0.0000525
 3326  0.9750118  0.0033462 -0.0000130
 3327  0.9750462  0.0033466 -0.0000170
 3328  0.9242533 -0.0000234 -0.0000345
 3329  0.8492220  0.0000469 -0.0000672
 3330  0.7743447 -1.10e-006 -0.0000751
 3331  0.7743706  4.78e-006 -0.0000954
 3332  0.6993165  0.0000860 -0.0001180
 3333  0.6992970  0.0000765 -0.0000935
 3334  0.7744024  0.0000115 -0.0001196
 3335  0.8492604  0.0000503 -0.0000848
 3336  0.8493078  0.0000542 -0.0001057
 3337  0.7744411  0.0000189 -0.0001481
 3338  0.6993684  0.0001088 -0.0001813
 3339  0.6993401  0.0000968 -0.0001471
 3340  0.9242961 -0.0000222 -0.0000439
 3341  0.9243497 -0.0000208 -0.0000551
 3342  0.9750906  0.0033471 -0.0000217
 3343  0.9751469  0.0033477 -0.0000274
 3344  0.9244162 -0.0000192 -0.0000683
 3345  0.8493657  0.0000585 -0.0001303
 3346  0.9752175  0.0033485 -0.0000342
 3347  0.9753050  0.0033494 -0.0000421
 3348  0.9244977 -0.0000175 -0.0000838
 3349  0.8494356  0.0000631 -0.0001589
 3350  0.7744877  0.0000272 -0.0001816
 3351  0.7745434  0.0000361 -0.0002202
 3352  0.6994418  0.0001363 -0.0002670
 3353  0.6994021  0.0001220 -0.0002211
 3354  0.7746094  0.0000456 -0.0002645
 3355  0.8495193  0.0000681 -0.0001917
 3356  0.8496185  0.0000732 -0.0002290
 3357  0.7746866  0.0000553 -0.0003145
 3358  0.6995419  0.0001665 -0.0003781
 3359  0.6994882  0.0001512 -0.0003193
 3360  0.9245965 -0.0000156 -0.0001017
 3361  0.9247150 -0.0000137 -0.0001221
 3362  0.9754121  0.0033506 -0.0000514
 3363  0.9755418  0.0033519 -0.0000620
 3364  0.9248559 -0.0000118 -0.0001451
 3365  0.8497350  0.0000783 -0.0002709
 3366  0.9756973  0.0033535 -0.0000740
 3367  0.9758819  0.0033554 -0.0000873
 3368  0.9250216 -9.94e-006 -0.0001706
 3369  0.8498703  0.0000832 -0.0003170
 3370  0.7747762  0.0000649 -0.0003702
 3371  0.7748792  0.0000739 -0.0004313
 3372  0.6996734  0.0001954 -0.0005144
 3373  0.6996035  0.0001815 -0.0004433
 3374  0.7749961  0.0000816 -0.0004970
 3375  0.8500258  0.0000875 -0.0003670
 3376  0.8502024  0.0000907 -0.0004200
 3377  0.7751274  0.0000870 -0.0005660
 3378  0.6998388  0.0002145 -0.0006697
 3379  0.6997519  0.0002068 -0.0005904
 3380  0.9252145 -8.29e-006 -0.0001985
 3381  0.9254363 -6.99e-006 -0.0002283
 3382  0.9760986  0.0033575 -0.0001021
 3383  0.9763502  0.0033599 -0.0001179
 3384  0.9256886 -6.27e-006 -0.0002594
 3385  0.8504006  0.0000922 -0.0004748
 3386  0.9766390  0.0033627 -0.0001346
 3387  0.9769663  0.0033656 -0.0001516
 3388  0.9259716 -6.37e-006 -0.0002909
 3389  0.8506197  0.0000915 -0.0005293
 3390  0.7752728  0.0000891 -0.0006366
 3391  0.7754313  0.0000864 -0.0007058
 3392  0.7000359  0.0002105 -0.0008277
 3393  0.6999338  0.0002165 -0.0007499
 3394  0.7756010  0.0000772 -0.0007701
 3395  0.8508581  0.0000875 -0.0005810
 3396  0.8511127  0.0000794 -0.0006265
 3397  0.7757789  0.0000597 -0.0008246
 3398  0.7002533  0.0001633 -0.0009561
 3399  0.7001432  0.0001938 -0.0008984
 3400  0.9262846 -7.60e-006 -0.0003213
 3401  0.9266250 -0.0000103 -0.0003488
 3402  0.9773322  0.0033689 -0.0001683
 3403  0.9777349  0.0033723 -0.0001838
 3404  0.9269881 -0.0000149 -0.0003712
 3405  0.8513784  0.0000661 -0.0006613
 3406  0.9781703  0.0033758 -0.0001969
 3407  0.9786314  0.0033793 -0.0002063
 3408  0.9273663 -0.0000217 -0.0003857
 3409  0.8516477  0.0000465 -0.0006801
 3410  0.7759602  0.0000318 -0.0008632
 3411  0.7761381 -8.70e-006 -0.0008784
 3412  0.7004648  0.0000469 -0.0010009
 3413  0.7003623  0.0001156 -0.0009934
 3414  0.7763038 -0.0000641 -0.0008612
 3415  0.8519102  0.0000194 -0.0006764
 3416  0.8521522 -0.0000162 -0.0006433
 3417  0.7764453 -0.0001364 -0.0008011
 3418  0.7006202 -0.0001675 -0.0008814
 3419  0.7005538 -0.0000463 -0.0009678
 3420  0.9277488 -0.0000311 -0.0003888
 3421  0.9281214 -0.0000440 -0.0003767
 3422  0.9791076  0.0033828 -0.0002101
 3423  0.9795838  0.0033855 -0.0002062
 3424  0.9284646 -0.0000611 -0.0003437
 3425  0.8523589 -0.0000634 -0.0005723
 3426  0.9800388  0.0033885 -0.0001922
 3427  0.9804515  0.0033937 -0.0001675
 3428  0.9287501 -0.0000765 -0.0002862
 3429  0.8525040 -0.0001193 -0.0004458
 3430  0.7765459 -0.0002273 -0.0006896
 3431  0.7765258 -0.0003393 -0.0005004
 3432  0.7005317 -0.0005321 -0.0004843
 3433  0.7006518 -0.0003168 -0.0007266
 3434  0.7763424 -0.0004470 -0.0002323
 3435  0.8524627 -0.0001877 -0.0002670
 3436  0.8522964 -0.0003044 -0.0000244
 3437  0.7759554 -0.0005835  0.0001200
 3438  0.6999656 -0.0010360  0.0003121
 3439  0.7003355 -0.0007761 -0.0001410
 3440  0.9288875 -0.0000959 -0.0001963
 3441  0.9288847 -0.0001152 -0.0000708
 3442  0.9807797  0.0033833 -0.0001213
 3443  0.9809885  0.0033981 -0.0000592
 3444  0.9287482 -0.0001346  0.0000916
 3445  0.8519053 -0.0003998  0.0002969
 3446  0.9810351  0.0033879  0.0000168
 3447  0.9808786  0.0033877  0.0001218
 3448  0.9284650 -0.0001714  0.0003033
 3449  0.8514380 -0.0004868  0.0007055
 3450  0.7755546 -0.0008117  0.0005896
 3451  0.7747571 -0.0010003  0.0011827
 3452  0.6983900 -0.0015964  0.0016454
 3453  0.6993601 -0.0013037  0.0009190
 3454  0.7737334 -0.0011750  0.0018810
 3455  0.8506234 -0.0005668  0.0012551
 3456  0.8493348 -0.0007046  0.0018455
 3457  0.7722921 -0.0013809  0.0026803
 3458  0.6959334 -0.0023614  0.0036526
 3459  0.6972915 -0.0019765  0.0025449
 3460  0.9278672 -0.0001789  0.0005613
 3461  0.9267754 -0.0002269  0.0008789
 3462  0.9804514  0.0033857  0.0002481
 3463  0.9796203  0.0034014  0.0004107
 3464  0.9253867 -0.0002876  0.0012448
 3465  0.8477454 -0.0008184  0.0025449
 3466  0.9784032  0.0033768  0.0005916
 3467  0.9767487  0.0033681  0.0008008
 3468  0.9235559 -0.0003289  0.0016571
 3469  0.8456948 -0.0009198  0.0033271
 3470  0.7706237 -0.0015705  0.0036726
 3471  0.7685613 -0.0017970  0.0047863
 3472  0.6920026 -0.0030030  0.0062876
 3473  0.6941497 -0.0026693  0.0048822
 3474  0.7662036 -0.0019697  0.0060022
 3475  0.8434711 -0.0009963  0.0041974
 3476  0.8407154 -0.0010250  0.0051298
 3477  0.7635749 -0.0021231  0.0073620
 3478  0.6868433 -0.0034601  0.0094994
 3479  0.6895602 -0.0032427  0.0078247
 3480  0.9214167 -0.0003209  0.0021204
 3481  0.9187151 -0.0003433  0.0026066
 3482  0.9746648  0.0033927  0.0010338
 3483  0.9719626  0.0033880  0.0012780
 3484  0.9156137 -0.0004026  0.0031145
 3485  0.9687026  0.0033539  0.0015425
 3486  0.9648698  0.0033566  0.0018073
 3487  0.9119367 -0.0004278  0.0036253
 3488  0.8344297 -0.0010473  0.0070136
 3489  0.8377371 -0.0010133  0.0060420
 3490  0.7606808 -0.0021133  0.0087289
 3491  0.7575486 -0.0021184  0.0101014
 3492  0.6810078 -0.0035528  0.0129179
 3493  0.6840077 -0.0035191  0.0111666
 3494  0.7542503 -0.0021053  0.0114656
 3495  0.6782044 -0.0035135  0.0146589
 3496  0.8306753 -0.0010126  0.0079825
 3497  0.8266065 -0.0010219  0.0088761
 3498  0.7507171 -0.0021174  0.0128138
 3499  0.6752448 -0.0034445  0.0162800
 3500  0.9079247 -0.0003994  0.0041372
 3501  0.9605911  0.0033360  0.0020675
 3502  0.9557300  0.0033413  0.0023072
 3503  0.9033359 -0.0003413  0.0046341
 3504  0.7468991 -0.0019756  0.0141357
 3505  0.6721452 -0.0032524  0.0179035
 3506  0.8223023 -0.0009978  0.0097803
 3507  0.8175405 -0.0008944  0.0106595
 3508  0.7429266 -0.0018205  0.0153139
 3509  0.6687800 -0.0029926  0.0193937
 3510  0.8983493 -0.0003260  0.0051205
 3511  0.9502948  0.0033034  0.0025485
 3512  0.9442634  0.0032652  0.0027782
 3513  0.8927995 -0.0003072  0.0055658
 3514  0.7385055 -0.0015859  0.0163327
 3515  0.8124587 -0.0007782  0.0113790
 3516  0.8070075 -0.0006792  0.0120749
 3517  0.7336323 -0.0013571  0.0173349
 3518  0.6610382 -0.0023425  0.0219077
 3519  0.6650877 -0.0026764  0.0207301
 3520  0.8870040 -0.0002943  0.0059098
 3521  0.8807147 -0.0002421  0.0063009
 3522  0.9378055  0.0032320  0.0029870
 3523  0.9308945  0.0032505  0.0031495
 3524  0.8739826 -0.0001802  0.0065986
 3525  0.8011357 -0.0005703  0.0125940
 3526  0.9235773  0.0031886  0.0033028
 3527  0.9158841  0.0031640  0.0034291
 3528  0.8668714 -0.0001725  0.0068544
 3529  0.7948603 -0.0004852  0.0131304
 3530  0.7286213 -0.0011785  0.0180992
 3531  0.7231376 -0.0009802  0.0187634
 3532  0.6518151 -0.0016174  0.0238904
 3533  0.6565588 -0.0019654  0.0229817
 3534  0.7175301 -0.0008035  0.0192917
 3535  0.7882537 -0.0003952  0.0135333
 3536  0.7815559 -0.0003013  0.0138424
 3537  0.7115107 -0.0006034  0.0197880
 3538  0.6417106 -0.0010310  0.0251619
 3539  0.6469504 -0.0012999  0.0245544
 3540  0.8594539 -0.0001339  0.0070657
 3541  0.8518899 -0.0001119  0.0072231
 3542  0.9079169  0.0031380  0.0035349
 3543  0.8997470  0.0031179  0.0036101
 3544  0.8441834 -0.0000906  0.0073325
 3545  0.7746345 -0.0001887  0.0140698
 3546  0.8914122  0.0030764  0.0036755
 3547  0.8829559  0.0030600  0.0037201
 3548  0.8363336 -0.0000725  0.0074149
 3549  0.7675928 -0.0001219  0.0142510
 3550  0.7053862 -0.0004454  0.0201242
 3551  0.6991095 -0.0003347  0.0203739
 3552  0.6306176 -0.0005335  0.0258990
 3553  0.6362617 -0.0007726  0.0255651
 3554  0.6926657 -0.0002239  0.0205572
 3555  0.7603713 -0.0000662  0.0143780
 3556  0.7530886 -0.0000197  0.0144488
 3557  0.6861135 -0.0001330  0.0206689
 3558  0.6190427 -0.0001710  0.0262976
 3559  0.6249015 -0.0003206  0.0261422
 3560  0.8283477 -0.0000577  0.0074720
 3561  0.8203034 -0.0000406  0.0075050
 3562  0.8744178  0.0030262  0.0037440
 3563  0.8658384  0.0029951  0.0037579
 3564  0.8122296 -0.0000275  0.0075172
 3565  0.7457708  0.0000157  0.0144820
 3566  0.8572379  0.0029646  0.0037619
 3567  0.8486372  0.0029333  0.0037581
 3568  0.8041460 -0.0000177  0.0075141
 3569  0.7384323  0.0000425  0.0144857
 3570  0.6795199 -0.0000604  0.0207291
 3571  0.6729021 -4.82e-006  0.0207463
 3572  0.6072338  0.0000429  0.0264173
 3573  0.6131496 -0.0000501  0.0263840
 3574  0.6662720  0.0000360  0.0207311
 3575  0.7310872  0.0000619  0.0144669
 3576  0.7237457  0.0000749  0.0144321
 3577  0.6596386  0.0000641  0.0206926
 3578  0.5953685  0.0001588  0.0263726
 3579  0.6013044  0.0001113  0.0264098
 3580  0.7960666 -0.0000107  0.0074996
 3581  0.7880024 -5.87e-006  0.0074772
 3582  0.8400516  0.0029018  0.0037488
 3583  0.8314917  0.0028704  0.0037357
 3584  0.7799608 -2.92e-006  0.0074497
 3585  0.7164152  0.0000828  0.0143866
 3586  0.8229644  0.0028392  0.0037202
 3587  0.8144740  0.0028081  0.0037034
 3588  0.7719467 -1.44e-006  0.0074193
 3589  0.7091009  0.0000865  0.0143350
 3590  0.6530085  0.0000819  0.0206381
 3591  0.6463865  0.0000913  0.0205738
 3592  0.5834973  0.0002055  0.0262442
 3593  0.5894316  0.0001891  0.0263149
 3594  0.6397758  0.0000942  0.0205046
 3595  0.7018059  0.0000871  0.0142804
 3596  0.6945318  0.0000852  0.0142257
 3597  0.6331783  0.0000924  0.0204341
 3598  0.5716465  0.0002091  0.0260863
 3599  0.5775684  0.0002113  0.0261665
 3600  0.7639624 -1.09e-006  0.0073879
 3601  0.7560090 -1.57e-006  0.0073568
 3602  0.8060222  0.0027772  0.0036864
 3603  0.7976088  0.0027466  0.0036698
 3604  0.7480859 -2.61e-006  0.0073269
 3605  0.6872793  0.0000818  0.0141727
 3606  0.7892326  0.0027163  0.0036539
 3607  0.7808913  0.0026863  0.0036392
 3608  0.7401919 -4.02e-006  0.0072991
 3609  0.6800479  0.0000773  0.0141227
 3610  0.6265948  0.0000873  0.0203650
 3611  0.6200256  0.0000798  0.0202993
 3612  0.5598273  0.0001894  0.0259310
 3613  0.5657326  0.0002012  0.0260070
 3614  0.6134705  0.0000711  0.0202383
 3615  0.6728367  0.0000722  0.0140766
 3616  0.6656443  0.0000668  0.0140347
 3617  0.6069286  0.0000617  0.0201826
 3618  0.5480419  0.0001601  0.0257947
 3619  0.5539305  0.0001754  0.0258599
 3620  0.7323250 -5.63e-006  0.0072735
 3621  0.7244828 -7.31e-006  0.0072505
 3622  0.7725822  0.0026565  0.0036258
 3623  0.7643020  0.0026271  0.0036138
 3624  0.7166630 -8.98e-006  0.0072301
 3625  0.6584692  0.0000614  0.0139974
 3626  0.7560477  0.0025978  0.0036032
 3627  0.7478160  0.0025688  0.0035940
 3628  0.7088630 -0.0000106  0.0072122
 3629  0.6513095  0.0000562  0.0139646
 3630  0.6003992  0.0000522  0.0201326
 3631  0.5938810  0.0000430  0.0200883
 3632  0.5362880  0.0001294  0.0256836
 3633  0.5421613  0.0001446  0.0257359
 3634  0.5873731  0.0000344  0.0200497
 3635  0.6441637  0.0000513  0.0139360
 3636  0.6370299  0.0000468  0.0139114
 3637  0.5808743  0.0000263  0.0200162
 3638  0.5245608  0.0001014  0.0255979
 3639  0.5304214  0.0001149  0.0256377
 3640  0.7010803 -0.0000120  0.0071968
 3641  0.6933126 -0.0000134  0.0071835
 3642  0.7396040  0.0025400  0.0035860
 3643  0.7314088  0.0025114  0.0035793
 3644  0.6855577 -0.0000145  0.0071723
 3645  0.6299066  0.0000427  0.0138905
 3646  0.7232279  0.0024829  0.0035736
 3647  0.7150589  0.0024545  0.0035688
 3648  0.6778137 -0.0000155  0.0071629
 3649  0.6227923  0.0000390  0.0138729
 3650  0.5743833  0.0000191  0.0199876
 3651  0.5678993  0.0000127  0.0199635
 3652  0.5128550  0.0000782  0.0255346
 3653  0.5187056  0.0000892  0.0255637
 3654  0.5614212  7.05e-006  0.0199432
 3655  0.6156856  0.0000358  0.0138582
 3656  0.6085853  0.0000329  0.0138461
 3657  0.5549482  2.18e-006  0.0199264
 3658  0.5011658  0.0000599  0.0254898
 3659  0.5070086  0.0000684  0.0255101
 3660  0.6700788 -0.0000164  0.0071552
 3661  0.6623514 -0.0000171  0.0071488
 3662  0.7068999  0.0024262  0.0035649
 3663  0.6987490  0.0023980  0.0035616
 3664  0.6546302 -0.0000176  0.0071436
 3665  0.6014903  0.0000304  0.0138361
 3666  0.6906048  0.0023699  0.0035590
 3667  0.6824659  0.0023419  0.0035570
 3668  0.6469141 -0.0000181  0.0071394
 3669  0.5943998  0.0000283  0.0138281
 3670  0.5484794 -1.96e-006  0.0199126
 3671  0.5420142 -5.46e-006  0.0199013
 3672  0.4894887  0.0000461  0.0254592
 3673  0.4953259  0.0000525  0.0254729
 3674  0.5355519 -8.36e-006  0.0198923
 3675  0.5873128  0.0000265  0.0138217
 3676  0.5802288  0.0000249  0.0138167
 3677  0.5290920 -0.0000107  0.0198851
 3678  0.4778202  0.0000361  0.0254392
 3679  0.4836535  0.0000407  0.0254481
 3680  0.6392020 -0.0000184  0.0071361
 3681  0.6314932 -0.0000186  0.0071335
 3682  0.6743313  0.0023139  0.0035553
 3683  0.6662000  0.0022859  0.0035541
 3684  0.6237869 -0.0000187  0.0071315
 3685  0.5731470  0.0000236  0.0138128
 3686  0.6580712  0.0022580  0.0035531
 3687  0.6499444  0.0022301  0.0035523
 3688  0.6160825 -0.0000188  0.0071300
 3689  0.5660671  0.0000224  0.0138098
 3690  0.5226340 -0.0000127  0.0198795
 3691  0.5161777 -0.0000142  0.0198752
 3692  0.4661577  0.0000291  0.0254267
 3693  0.4719883  0.0000323  0.0254322
 3694  0.5097225 -0.0000154  0.0198718
 3695  0.5589886  0.0000215  0.0138075
 3696  0.5519112  0.0000206  0.0138059
 3697  0.5032684 -0.0000163  0.0198694
 3698  0.4544991  0.0000244  0.0254194
 3699  0.4603280  0.0000265  0.0254225
 3700  0.6083796 -0.0000188  0.0071289
 3701  0.6006778 -0.0000188  0.0071281
 3702  0.6418191  0.0022022  0.0035518
 3703  0.6336948  0.0021743  0.0035514
 3704  0.5929768 -0.0000187  0.0071275
 3705  0.5448346  0.0000199  0.0138047
 3706  0.6255712  0.0021465  0.0035512
 3707  0.6174481  0.0021186  0.0035510
 3708  0.5852763 -0.0000186  0.0071271
 3709  0.5377586  0.0000194  0.0138039
 3710  0.4968150 -0.0000170  0.0198676
 3711  0.4903621 -0.0000174  0.0198664
 3712  0.4428429  0.0000211  0.0254154
 3713  0.4486708  0.0000226  0.0254170
 3714  0.4839097 -0.0000177  0.0198656
 3715  0.5306831  0.0000188  0.0138034
 3716  0.5236078  0.0000184  0.0138031
 3717  0.4774576 -0.0000179  0.0198651
 3718  0.4311883  0.0000190  0.0254136
 3719  0.4370155  0.0000200  0.0254143
 3720  0.5775762 -0.0000184  0.0071269
 3721  0.5698763 -0.0000182  0.0071268
 3722  0.6093253  0.0020907  0.0035509
 3723  0.6012026  0.0020629  0.0035509
 3724  0.5621765 -0.0000180  0.0071268
 3725  0.5165326  0.0000180  0.0138030
 3726  0.5930800  0.0020350  0.0035509
 3727  0.5849573  0.0020071  0.0035509
 3728  0.5544768 -0.0000178  0.0071268
 3729  0.5094576  0.0000177  0.0138030
 3730  0.4710056 -0.0000179  0.0198649
 3731  0.4645539 -0.0000179  0.0198648
 3732  0.4195345  0.0000176  0.0254131
 3733  0.4253613  0.0000183  0.0254132
 3734  0.4581021 -0.0000178  0.0198649
 3735  0.5023826  0.0000173  0.0138031
 3736  0.4953076  0.0000170  0.0138033
 3737  0.4516505 -0.0000177  0.0198651
 3738  0.4078810  0.0000167  0.0254132
 3739  0.4137077  0.0000171  0.0254131
 3740  0.5467770 -0.0000176  0.0071269
 3741  0.5390771 -0.0000174  0.0071270
 3742  0.5768345  0.0019793  0.0035510
 3743  0.5687116  0.0019514  0.0035510
 3744  0.5313771 -0.0000171  0.0071271
 3745  0.4882326  0.0000168  0.0138035
 3746  0.5605885  0.0019236  0.0035511
 3747  0.5524653  0.0018957  0.0035512
 3748  0.5236770 -0.0000169  0.0071273
 3749  0.4811575  0.0000165  0.0138037
 3750  0.4451988 -0.0000175  0.0198653
 3751  0.4387471 -0.0000173  0.0198656
 3752  0.3962277  0.0000160  0.0254137
 3753  0.4020544  0.0000163  0.0254134
 3754  0.4322954 -0.0000170  0.0198659
 3755  0.4740823  0.0000163  0.0138040
 3756  0.4670070  0.0000160  0.0138042
 3757  0.4258436 -0.0000168  0.0198662
 3758  0.3845744  0.0000155  0.0254144
 3759  0.3904011  0.0000157  0.0254141
 3760  0.5159768 -0.0000166  0.0071274
 3761  0.5082764 -0.0000164  0.0071276
 3762  0.5443418  0.0018678  0.0035513
 3763  0.5362182  0.0018400  0.0035513
 3764  0.5005759 -0.0000161  0.0071277
 3765  0.4599316  0.0000158  0.0138045
 3766  0.5280945  0.0018121  0.0035514
 3767  0.5199706  0.0017842  0.0035515
 3768  0.4928752 -0.0000159  0.0071278
 3769  0.4528561  0.0000155  0.0138047
 3770  0.4193917 -0.0000165  0.0198665
 3771  0.4129398 -0.0000163  0.0198668
 3772  0.3729210  0.0000150  0.0254151
 3773  0.3787477  0.0000152  0.0254148
 3774  0.4064878 -0.0000160  0.0198671
 3775  0.4457805  0.0000153  0.0138049
 3776  0.4387049  0.0000151  0.0138052
 3777  0.4000358 -0.0000158  0.0198674
 3778  0.3612674  0.0000145  0.0254158
 3779  0.3670942  0.0000148  0.0254155
 3780  0.4851745 -0.0000156  0.0071279
 3781  0.4774735 -0.0000154  0.0071281
 3782  0.5118465  0.0017563  0.0035515
 3783  0.5037222  0.0017285  0.0035516
 3784  0.4697725 -0.0000151  0.0071282
 3785  0.4316291  0.0000148  0.0138054
 3786  0.4955978  0.0017006  0.0035517
 3787  0.4874733  0.0016727  0.0035517
 3788  0.4620713 -0.0000149  0.0071283
 3789  0.4245532  0.0000146  0.0138056
 3790  0.3935837 -0.0000155  0.0198677
 3791  0.3871315 -0.0000153  0.0198680
 3792  0.3496136  0.0000140  0.0254165
 3793  0.3554405  0.0000143  0.0254162
 3794  0.3806792 -0.0000150  0.0198683
 3795  0.4174772  0.0000143  0.0138058
 3796  0.4104011  0.0000141  0.0138061
 3797  0.3742269 -0.0000148  0.0198686
 3798  0.3379597  0.0000135  0.0254173
 3799  0.3437867  0.0000138  0.0254169
 3800  0.4543700 -0.0000146  0.0071284
 3801  0.4466686 -0.0000144  0.0071286
 3802  0.4793486  0.0016448  0.0035518
 3803  0.4712238  0.0016170  0.0035519
 3804  0.4389670 -0.0000142  0.0071287
 3805  0.4033250  0.0000138  0.0138063
 3806  0.4630988  0.0015891  0.0035519
 3807  0.4549737  0.0015612  0.0035520
 3808  0.4312654 -0.0000139  0.0071288
 3809  0.3962487  0.0000136  0.0138065
 3810  0.3677745 -0.0000146  0.0198689
 3811  0.3613220 -0.0000143  0.0198692
 3812  0.3263056  0.0000130  0.0254180
 3813  0.3321327  0.0000133  0.0254176
 3814  0.3548694 -0.0000141  0.0198696
 3815  0.3891723  0.0000133  0.0138068
 3816  0.3820958  0.0000131  0.0138070
 3817  0.3484168 -0.0000138  0.0198699
 3818  0.3146514  0.0000125  0.0254187
 3819  0.3204785  0.0000128  0.0254183
 3820  0.4235635 -0.0000137  0.0071289
 3821  0.4158616 -0.0000134  0.0071291
 3822  0.4468484  0.0015333  0.0035521
 3823  0.4387230  0.0015054  0.0035521
 3824  0.4081595 -0.0000132  0.0071292
 3825  0.3750193  0.0000128  0.0138073
 3826  0.4305974  0.0014775  0.0035522
 3827  0.4224716  0.0014496  0.0035523
 3828  0.4004572 -0.0000129  0.0071294
 3829  0.3679426  0.0000126  0.0138075
 3830  0.3419642 -0.0000136  0.0198702
 3831  0.3355115 -0.0000133  0.0198705
 3832  0.3029970  0.0000121  0.0254194
 3833  0.3088242  0.0000123  0.0254190
 3834  0.3290587 -0.0000130  0.0198708
 3835  0.3608658  0.0000123  0.0138077
 3836  0.3537890  0.0000121  0.0138079
 3837  0.3226059 -0.0000127  0.0198710
 3838  0.2913426  0.0000117  0.0254199
 3839  0.2971698  0.0000119  0.0254197
 3840  0.3927549 -0.0000127  0.0071295
 3841  0.3850524 -0.0000124  0.0071296
 3842  0.4143456  0.0014217  0.0035523
 3843  0.4062195  0.0013938  0.0035524
 3844  0.3773498 -0.0000122  0.0071297
 3845  0.3467122  0.0000119  0.0138081
 3846  0.3980932  0.0013659  0.0035525
 3847  0.3899668  0.0013380  0.0035525
 3848  0.3696471 -0.0000119  0.0071298
 3849  0.3396353  0.0000117  0.0138082
 3850  0.3161531 -0.0000124  0.0198712
 3851  0.3097004 -0.0000120  0.0198713
 3852  0.2796884  0.0000117  0.0254201
 3853  0.2855155  0.0000117  0.0254200
 3854  0.3032477 -0.0000115  0.0198712
 3855  0.3325584  0.0000116  0.0138082
 3856  0.3254817  0.0000115  0.0138081
 3857  0.2967952 -0.0000110  0.0198710
 3858  0.2680345  0.0000121  0.0254195
 3859  0.2738614  0.0000118  0.0254199
 3860  0.3619444 -0.0000116  0.0071299
 3861  0.3542417 -0.0000113  0.0071298
 3862  0.3818402  0.0013101  0.0035526
 3863  0.3737137  0.0012823  0.0035526
 3864  0.3465390 -0.0000110  0.0071297
 3865  0.3184051  0.0000114  0.0138079
 3866  0.3655871  0.0012544  0.0035525
 3867  0.3574607  0.0012265  0.0035525
 3868  0.3388367 -0.0000107  0.0071295
 3869  0.3113288  0.0000114  0.0138074
 3870  0.2903429 -0.0000103  0.0198705
 3871  0.2838908 -9.55e-006  0.0198697
 3872  0.2563815  0.0000132  0.0254177
 3873  0.2622079  0.0000125  0.0254188
 3874  0.2774392 -8.60e-006  0.0198685
 3875  0.3042529  0.0000115  0.0138066
 3876  0.2971777  0.0000117  0.0138055
 3877  0.2709882 -7.45e-006  0.0198667
 3878  0.2447300  0.0000154  0.0254138
 3879  0.2505555  0.0000141  0.0254161
 3880  0.3311346 -0.0000103  0.0071292
 3881  0.3234331 -9.90e-006  0.0071286
 3882  0.3493345  0.0011986  0.0035523
 3883  0.3412088  0.0011707  0.0035521
 3884  0.3157324 -9.45e-006  0.0071278
 3885  0.2901032  0.0000121  0.0138038
 3886  0.3330838  0.0011428  0.0035517
 3887  0.3249599  0.0011149  0.0035512
 3888  0.3080327 -8.95e-006  0.0071267
 3889  0.2830298  0.0000125  0.0138016
 3890  0.2645379 -6.06e-006  0.0198643
 3891  0.2580886 -4.38e-006  0.0198610
 3892  0.2330810  0.0000192  0.0254065
 3893  0.2389051  0.0000171  0.0254107
 3894  0.2516405 -2.36e-006  0.0198567
 3895  0.2759578  0.0000132  0.0137986
 3896  0.2688876  0.0000140  0.0137947
 3897  0.2451940  7.23e-008  0.0198511
 3898  0.2214359  0.0000253  0.0253940
 3899  0.2272578  0.0000219  0.0254011
 3900  0.3003345 -8.39e-006  0.0071252
 3901  0.2926383 -7.76e-006  0.0071233
 3902  0.3168373  0.0010871  0.0035504
 3903  0.3087167  0.0010592  0.0035495
 3904  0.2849445 -7.04e-006  0.0071207
 3905  0.2618198  0.0000151  0.0137897
 3906  0.3005986  0.0010314  0.0035482
 3907  0.2924838  0.0010037  0.0035466
 3908  0.2772540 -6.21e-006  0.0071174
 3909  0.2547549  0.0000165  0.0137833
 3910  0.2387495  2.98e-006  0.0198439
 3911  0.2323074  6.43e-006  0.0198348
 3912  0.2097970  0.0000344  0.0253739
 3913  0.2156155  0.0000294  0.0253851
 3914  0.2258684  0.0000105  0.0198235
 3915  0.2476937  0.0000182  0.0137752
 3916  0.2406369  0.0000202  0.0137652
 3917  0.2194329  0.0000153  0.0198095
 3918  0.1981668  0.0000476  0.0253429
 3919  0.2039806  0.0000404  0.0253600
 3920  0.2695676 -5.27e-006  0.0071132
 3921  0.2618862 -4.19e-006  0.0071080
 3922  0.2843732  0.0009760  0.0035445
 3923  0.2762680  0.0009483  0.0035419
 3924  0.2542112 -2.95e-006  0.0071015
 3925  0.2335856  0.0000227  0.0137528
 3926  0.2681695  0.0009207  0.0035386
 3927  0.2600793  0.0008932  0.0035346
 3928  0.2465438 -1.54e-006  0.0070935
 3929  0.2265409  0.0000257  0.0137378
 3930  0.2130019  0.0000210  0.0197923
 3931  0.2065760  0.0000276  0.0197714
 3932  0.1865491  0.0000661  0.0252969
 3933  0.1923561  0.0000562  0.0253221
 3934  0.2001563  0.0000351  0.0197463
 3935  0.2195041  0.0000292  0.0137195
 3936  0.2124768  0.0000333  0.0136975
 3937  0.1937438  0.0000438  0.0197162
 3938  0.1749482  0.0000911  0.0252308
 3939  0.1807462  0.0000777  0.0252667
 3940  0.2388859  7.10e-008  0.0070838
 3941  0.2312393  1.90e-006  0.0070721
 3942  0.2519993  0.0008658  0.0035297
 3943  0.2439316  0.0008386  0.0035238
 3944  0.2236064  3.98e-006  0.0070580
 3945  0.2054606  0.0000381  0.0136713
 3946  0.2358789  0.0008115  0.0035166
 3947  0.2278442  0.0007847  0.0035081
 3948  0.2159895  6.31e-006  0.0070413
 3949  0.1984576  0.0000435  0.0136403
 3950  0.1873398  0.0000538  0.0196806
 3951  0.1809455  0.0000650  0.0196386
 3952  0.1633694  0.0001235  0.0251388
 3953  0.1691557  0.0001063  0.0251884
 3954  0.1745622  0.0000775  0.0195896
 3955  0.1914697  0.0000497  0.0136039
 3956  0.1844994  0.0000567  0.0135614
 3957  0.1681913  0.0000915  0.0195328
 3958  0.1518178  0.0001639  0.0250150
 3959  0.1575899  0.0001427  0.0250812
 3960  0.2083917  8.93e-006  0.0070216
 3961  0.2008162  0.0000119  0.0069984
 3962  0.2198309  0.0007581  0.0034979
 3963  0.2118429  0.0007317  0.0034859
 3964  0.1932667  0.0000151  0.0069714
 3965  0.1775491  0.0000644  0.0135121
 3966  0.2038845  0.0007058  0.0034719
 3967  0.1959608  0.0006802  0.0034556
 3968  0.1857471  0.0000186  0.0069401
 3969  0.1706214  0.0000730  0.0134556
 3970  0.1618344  0.0001068  0.0194674
 3971  0.1554927  0.0001235  0.0193930
 3972  0.1402975  0.0002120  0.0248541
 3973  0.1460535  0.0001871  0.0249394
 3974  0.1491676  0.0001412  0.0193089
 3975  0.1637191  0.0000822  0.0133911
 3976  0.1568448  0.0000922  0.0133182
 3977  0.1428598  0.0001599  0.0192149
 3978  0.1288092  0.0002654  0.0246535
 3979  0.1345495  0.0002383  0.0247587
 3980  0.1782618  0.0000225  0.0069042
 3981  0.1708154  0.0000267  0.0068632
 3982  0.1880772  0.0006552  0.0034368
 3983  0.1802399  0.0006307  0.0034152
 3984  0.1634129  0.0000311  0.0068169
 3985  0.1500010  0.0001026  0.0132366
 3986  0.1724553  0.0006070  0.0033905
 3987  0.1647308  0.0005841  0.0033626
 3988  0.1560593  0.0000357  0.0067649
 3989  0.1431899  0.0001134  0.0131462
 3990  0.1365698  0.0001791  0.0191111
 3991  0.1302974  0.0001982  0.0189980
 3992  0.1173456  0.0003181  0.0244169
 3993  0.1230753  0.0002924  0.0245391
 3994  0.1240411  0.0002163  0.0188768
 3995  0.1364129  0.0001241  0.0130472
 3996  0.1296705  0.0001344  0.0129405
 3997  0.1177981  0.0002321  0.0187497
 3998  0.1058837  0.0003577  0.0241607
 3999  0.1116168  0.0003407  0.0242895
 4000  0.1487595  0.0000405  0.0067071
 4001  0.1415185  0.0000453  0.0066435
 4002  0.1570740  0.0005622  0.0033313
 4003  0.1494928  0.0005416  0.0032963
 4004  0.1343404  0.0000500  0.0065743
 4005  0.1229616  0.0001434  0.0128275
 4006  0.1419956  0.0005223  0.0032577
 4007  0.1345908  0.0005049  0.0032154
 4008  0.1272283  0.0000542  0.0065003
 4009  0.1162825  0.0001502  0.0127108
 4010  0.1115630  0.0002439  0.0186201
 4011  0.1053276  0.0002490  0.0184937
 4012  0.0943707  0.0003586  0.0239262
 4013  0.1001387  0.0003654  0.0240367
 4014  0.0990790  0.0002437  0.0183788
 4015  0.1096262  0.0001533  0.0125943
 4016  0.1029803  0.0001505  0.0124845
 4017  0.0927980  0.0002223  0.0182878
 4018  0.0826996  0.0002682  0.0238037
 4019  0.0885647  0.0003299  0.0238423
 4020  0.1201836  0.0000576  0.0064224
 4021  0.1132050  0.0000597  0.0063426
 4022  0.1272866  0.0004896  0.0031695
 4023  0.1200904  0.0004770  0.0031206
 4024  0.1062865  0.0000595  0.0062641
 4025  0.0963245  0.0001381  0.0123913
 4026  0.1130086  0.0004677  0.0030692
 4027  0.1060445  0.0004623  0.0030170
 4028  0.0994162  0.0000553  0.0061917
 4029  0.0896261  0.0001119  0.0123291
 4030  0.0864571  0.0001759  0.0182392
 4031  0.0800010  0.0000897  0.0182684
 4032  0.0706548 -0.0000325  0.0239840
 4033  0.0767463  0.0001572  0.0238374
 4034  0.0733831 -0.0000510  0.0184246
 4035  0.0828262  0.0000603  0.0123195
 4036  0.0758526 -0.0000375  0.0124221
 4037  0.0665118 -0.0002922  0.0187606
 4038  0.0578659 -0.0008302  0.0249097
 4039  0.0643808 -0.0003415  0.0243168
 4040  0.0925561  0.0000443  0.0061403
 4041  0.0856792  0.0000269  0.0061252
 4042  0.0991967  0.0004636  0.0029668
 4043  0.0924638  0.0004738  0.0029158
 4044  0.0787221 -6.17e-006  0.0061497
 4045  0.0685838 -0.0001960  0.0126834
 4046  0.0858302  0.0004902  0.0028783
 4047  0.0792578  0.0005243  0.0028605
 4048  0.0715573 -0.0000739  0.0062620
 4049  0.0608518 -0.0004740  0.0132070
 4050  0.0592787 -0.0007146  0.0193903
 4051  0.0514993 -0.0014160  0.0204902
 4052  0.0437619 -0.0029073  0.0275290
 4053  0.0510232 -0.0016144  0.0259087
 4054  0.0429619 -0.0026470  0.0223965
 4055  0.0522986 -0.0009858  0.0142240
 4056  0.0424328 -0.0019889  0.0161330
 4057  0.0333814 -0.0049218  0.0256123
 4058  0.0279903 -0.0088286  0.0339350
 4059  0.0360647 -0.0050852  0.0300574
 4060  0.0639486 -0.0002040  0.0065486
 4061  0.0554562 -0.0004793  0.0071949
 4062  0.0726744  0.0005805  0.0028850
 4063  0.0659071  0.0006676  0.0029901
 4064  0.0453183 -0.0010877  0.0085553
 4065  0.0303910 -0.0041010  0.0198118
 4066  0.0586956  0.0007687  0.0033249
 4067  0.0501965  0.0010599  0.0040168
 4068  0.0316376 -0.0026255  0.0116768
 4069  0.0150162 -0.0090079  0.0270028
 4070  0.0225792 -0.0093619  0.0310931
 4071  0.0111346 -0.0185299  0.0402830
 4072  0.0138942 -0.0276735  0.0476346
 4073  0.0200648 -0.0154990  0.0397272
 4074  0.0029526 -0.0386724  0.0543003
 4075 -0.0046184 -0.0218960  0.0423005
 4076 -0.0164888 -0.0616504  0.0701526
 4077  0.0062102 -0.0812734  0.0665698
 4078  0.0182646 -0.0818992  0.0569684
 4079  0.0125679 -0.0492472  0.0556595
 4080  0.0103602 -0.0076440  0.0191388
 4081 -0.0305908 -0.0278747  0.0455109
 4082  0.0384770  0.0002040  0.0070008
 4083  0.0104498 -0.0005888  0.0146489
 4084 -0.0470135 -0.1456659  0.0977058
 4085 -0.1001154 -0.1204571  0.1286006
 4086 -0.2734643 -0.5679732  0.0018268
 4087 -0.0821119 -0.4249499  0.0036645
 4088  0.0118412 -0.2544166  0.0070880
 4089 -0.0001732 -0.1659376  0.0803708
 4090  0.0202342 -0.1415805  0.0549320
 4091  0.0266817 -0.1745381  0.0102042
 4092  0.0300366 -0.1323513  0.0130422
 4093  0.0272308 -0.1165391  0.0427102
 4094  0.0137498 -0.1415850 -0.0345279
 4095  0.0213906 -0.1165515 -0.0166338
 4096 -0.0073063 -0.1659425 -0.0661944
 4097 -0.0307457 -0.0616572 -0.0559903
 4098 -0.0067596 -0.0812858 -0.0461710
 4099  0.0065911 -0.0819256 -0.0309213
 4100 -0.0547862 -0.1456646 -0.0903747
 4101 -0.1083156 -0.1204760 -0.1249511
 4102 -0.0059651 -0.0006395 -0.0110217
 4103 -0.0461371 -0.0278778 -0.0381876
 4104 -0.0165220 -0.0386777 -0.0339085
 4105 -0.0049592 -0.0492898 -0.0296455
 4106 -0.0259857 -0.0218861 -0.0281193
 4107 -0.0134842 -0.0090060 -0.0128461
 4108 -0.0148338 -0.0185363 -0.0199113
 4109 -0.0094897 -0.0277299 -0.0216631
 4110 -0.0129688 -0.0076490 -0.0118083
 4111  0.0138246  0.0001143 -0.0033716
 4112  0.0173119  0.0009472 -0.0003845
 4113  0.0005121 -0.0026262 -0.0043596
 4114 -0.0099193 -0.0093898 -0.0107410
 4115 -0.0052877 -0.0040999 -0.0056561
 4116 -0.0004536 -0.0020111 -0.0020213
 4117 -0.0056590 -0.0049785 -0.0052930
 4118 -0.0071566 -0.0089012 -0.0080112
 4119 -0.0092008 -0.0155680 -0.0137914
 4120  0.0064127 -0.0010851 -0.0012207
 4121  0.0087131 -0.0004806  0.0001179
 4122  0.0175840  0.0006306  0.0003043
 4123  0.0165379  0.0004982  0.0006294
 4124  0.0093309 -0.0002140  0.0007488
 4125  0.0022104 -0.0010194 -0.0001273
 4126  0.0150071  0.0003781  0.0007396
 4127  0.0132925  0.0002903  0.0007699
 4128  0.0090864 -0.0000872  0.0010485
 4129  0.0035572 -0.0005057  0.0009076
 4130 -0.0026037 -0.0027107 -0.0020858
 4131 -0.0006012 -0.0014723 -0.0001795
 4132 -0.0031507 -0.0030065 -0.0015998
 4133 -0.0049679 -0.0051709 -0.0041287
 4134  0.0006231 -0.0007720  0.0009387
 4135  0.0040942 -0.0002237  0.0014549
 4136  0.0041334 -0.0000644  0.0017294
 4137  0.0012966 -0.0003558  0.0015838
 4138 -0.0008479 -0.0009192  0.0010243
 4139 -0.0017917 -0.0017164  0.0000148
 4140  0.0083906 -0.0000184  0.0011781
 4141  0.0074630  0.0000186  0.0012147
 4142  0.0115492  0.0002277  0.0007622
 4143  0.0098449  0.0001789  0.0007333
 4144  0.0064330  0.0000400  0.0011990
 4145  0.0038760  0.0000318  0.0018410
 4146  0.0082173  0.0001404  0.0006939
 4147  0.0066854  0.0001098  0.0006487
 4148  0.0053724  0.0000537  0.0011523
 4149  0.0034436  0.0000930  0.0018503
 4150  0.0016031 -0.0000975  0.0019320
 4151  0.0016606  0.0000713  0.0020859
 4152  0.0001573 -0.0000673  0.0019728
 4153 -0.0002206 -0.0004078  0.0016365
 4154  0.0015578  0.0001938  0.0021100
 4155  0.0029188  0.0001394  0.0017933
 4156  0.0023607  0.0001827  0.0016825
 4157  0.0013585  0.0002976  0.0020360
 4158  0.0004364  0.0003741  0.0021221
 4159  0.0003586  0.0001777  0.0021174
 4160  0.0043309  0.0000646  0.0010843
 4161  0.0033455  0.0000759  0.0009982
 4162  0.0052583  0.0000847  0.0005992
 4163  0.0039536  0.0000657  0.0005472
 4164  0.0024396  0.0000922  0.0008915
 4165  0.0018112  0.0002306  0.0015233
 4166  0.0027862  0.0000538  0.0004840
 4167  0.0011100  0.0004010  0.0018838
 4168  0.0004298  0.0005566  0.0020169
 4169 -0.0006063  0.0000660  0.0019043
 4170 -0.0009937 -0.0003401  0.0016332
 4171 -0.0003392  0.0003857  0.0020033
 4172 -0.0009340  0.0003228  0.0017457
 4173 -0.0013102 -0.0001390  0.0015603
 4174 -0.0017795 -0.0007301  0.0011857
 4175 -0.0001638  0.0006675  0.0019672
 4176 -0.0006360  0.0007197  0.0017812
 4177 -0.0009762  0.0007117  0.0015052
 4178 -0.0011922  0.0006522  0.0011767
 4179 -0.0015818  0.0000169  0.0010393
 4180 -0.0013419  0.0001940  0.0014094
 4181 -0.0017619 -0.0004170  0.0011616
 4182 -0.0022312 -0.0011976  0.0007255
 4183 -0.0019969 -0.0007369  0.0007595
 4184 -0.0024154 -0.0016929  0.0003108
 4185 -0.0020606 -0.0010606  0.0003971
 4186 -0.0024027 -0.0021618 -0.0000189
 4187 -0.0016818 -0.0001830  0.0006758
 4188 -0.0016756 -0.0003812  0.0003358
 4189 -0.0020041 -0.0013568  0.0000868
 4190 -0.0022648 -0.0025622 -0.0002597
 4191 -0.0012990  0.0005589  0.0008334
 4192 -0.0013187  0.0004493  0.0004946
 4193 -0.0012764  0.0003424  0.0001759
 4194 -0.0011960  0.0002536 -0.0001149
 4195 -0.0014789 -0.0006839 -0.0002260
 4196 -0.0015978 -0.0005527  0.0000357
 4197 -0.0018735 -0.0015959 -0.0001626
 4198 -0.0020605 -0.0028658 -0.0004164
 4199 -0.0017050 -0.0017645 -0.0003606
 4200 -0.0018338 -0.0030578 -0.0005082
 4201 -0.0015244 -0.0018505 -0.0005155
 4202 -0.0016133 -0.0031305 -0.0005539
 4203 -0.0013374 -0.0007676 -0.0004506
 4204 -0.0011875 -0.0007983 -0.0006423
 4205 -0.0013451 -0.0018571 -0.0006392
 4206 -0.0014120 -0.0030881 -0.0005748
 4207 -0.0010913  0.0001860 -0.0003753
 4208 -0.0009725  0.0001443 -0.0006060
 4209 -0.0008471  0.0001247 -0.0008112
 4210 -0.0007185  0.0001197 -0.0009916
 4211 -0.0008839 -0.0007278 -0.0009591
 4212 -0.0010362 -0.0007821 -0.0008114
 4213 -0.0011734 -0.0017909 -0.0007445
 4214 -0.0012338 -0.0029443 -0.0005897
 4215 -0.0010081 -0.0016587 -0.0008397
 4216 -0.0010719 -0.0027131 -0.0006114
 4217 -0.0008399 -0.0014790 -0.0009322
 4218 -0.0009132 -0.0024158 -0.0006499
 4219 -0.0007260 -0.0006410 -0.0010908
 4220 -0.0005528 -0.0005313 -0.0012059
 4221 -0.0006555 -0.0012624 -0.0010222
 4222 -0.0007374 -0.0020710 -0.0007062
 4223 -0.0005848  0.0001286 -0.0011475
 4224 -0.0004379  0.0001452 -0.0012753
 4225 -0.0002679  0.0001635 -0.0013704
 4226 -0.0000642  0.0001760 -0.0014277
 4227 -0.0001062 -0.0002906 -0.0013646
 4228 -0.0003516 -0.0004102 -0.0012983
 4229 -0.0004367 -0.0010259 -0.0011075
 4230 -0.0005209 -0.0017009 -0.0007806
 4231 -0.0001632 -0.0007870 -0.0011813
 4232 -0.0002390 -0.0013253 -0.0008633
 4233  0.0001817 -0.0005625 -0.0012260
 4234  0.0001342 -0.0009696 -0.0009367
 4235  0.0001951 -0.0001830 -0.0013881
 4236  0.0001826  0.0001760 -0.0014342
 4237  0.0000419 -0.0014115 -0.0005054
 4238 -0.0003391 -0.0019145 -0.0003944
 4239 -0.0001106 -0.0018928  0.0000851
 4240 -0.0004730 -0.0025622  0.0002483
 4241 -0.0003430 -0.0024133  0.0008509
 4242 -0.0006790 -0.0029666  0.0018070
 4243 -0.0009091 -0.0040157  0.0021324
 4244 -0.0006565 -0.0032648  0.0010833
 4245 -0.0011461 -0.0035362  0.0029633
 4246 -0.0012571 -0.0047960  0.0034114
 4247 -0.0017765 -0.0041052  0.0043264
 4248 -0.0017311 -0.0055813  0.0049285
 4249 -0.0026044 -0.0046519  0.0058957
 4250 -0.0036675 -0.0051545  0.0076611
 4251 -0.0032029 -0.0070396  0.0086792
 4252 -0.0023659 -0.0063407  0.0066870
 4253 -0.0049930 -0.0055745  0.0095956
 4254 -0.0042730 -0.0076335  0.0108777
 4255 -0.0066192 -0.0059027  0.0116773
 4256 -0.0056198 -0.0080936  0.0132481
 4257 -0.0085624 -0.0060993  0.0138486
 4258 -0.0072639 -0.0083675  0.0157288
 4259 -0.0108450 -0.0061573  0.0160660
 4260 -0.0092318 -0.0084491  0.0182671
 4261 -0.0055601 -0.0109213  0.0172983
 4262 -0.0042283 -0.0105416  0.0145162
 4263 -0.0072071 -0.0110392  0.0201502
 4264 -0.0048500 -0.0138938  0.0217103
 4265 -0.0035265 -0.0137402  0.0185459
 4266 -0.0025242 -0.0132403  0.0154746
 4267 -0.0091789 -0.0108860  0.0229945
 4268 -0.0065110 -0.0137020  0.0248694
 4269 -0.0115235 -0.0083395  0.0208047
 4270 -0.0141401 -0.0080365  0.0232714
 4271 -0.0114741 -0.0104744  0.0257543
 4272 -0.0084924 -0.0131610  0.0279180
 4273 -0.0134690 -0.0060758  0.0182821
 4274 -0.0164347 -0.0058589  0.0204372
 4275 -0.0197218 -0.0055090  0.0224763
 4276 -0.0233117 -0.0050667  0.0243797
 4277 -0.0202671 -0.0069384  0.0277691
 4278 -0.0170626 -0.0075498  0.0256041
 4279 -0.0140629 -0.0098271  0.0283584
 4280 -0.0169188 -0.0090055  0.0307527
 4281 -0.0133121 -0.0112534  0.0333921
 4282 -0.0107752 -0.0123196  0.0307796
 4283 -0.0199911 -0.0080482  0.0328949
 4284 -0.0160437 -0.0100178  0.0357055
 4285 -0.0237097 -0.0062165  0.0297152
 4286 -0.0273646 -0.0054344  0.0314276
 4287 -0.0232327 -0.0070254  0.0347690
 4288 -0.0189233 -0.0087010  0.0376947
 4289 -0.0271705 -0.0045504  0.0261095
 4290 -0.0312639 -0.0039887  0.0276404
 4291 -0.0266067 -0.0059821  0.0363628
 4292 -0.0311802 -0.0046375  0.0329017
 4293 -0.0351316 -0.0038533  0.0341293
 4294 -0.0300738 -0.0049520  0.0376746
 4295 -0.0249193 -0.0060904  0.0407216
 4296 -0.0218956 -0.0073752  0.0393619
 4297 -0.0355536 -0.0034119  0.0289677
 4298 -0.0400215 -0.0028394  0.0300793
 4299 -0.0446130 -0.0022920  0.0309810
 4300 -0.0391690 -0.0031132  0.0351398
 4301 -0.0493151 -0.0017957  0.0317210
 4302 -0.0432760 -0.0024407  0.0359470
 4303 -0.0540798 -0.0013487  0.0322879
 4304 -0.0589182 -0.0009681  0.0327118
 4305 -0.0516398 -0.0013133  0.0370129
 4306 -0.0474405 -0.0018330  0.0365570
 4307 -0.0637925 -0.0006416  0.0330152
 4308 -0.0558515 -0.0008766  0.0373407
 4309 -0.0687020 -0.0003780  0.0332104
 4310 -0.0600887 -0.0005242  0.0375591
 4311 -0.0736351 -0.0001631  0.0333230
 4312 -0.0785843 -7.21e-006  0.0333768
 4313 -0.0685782 -0.0000274  0.0377509
 4314 -0.0643172 -0.0002415  0.0376829
 4315 -0.0835316  0.0001178  0.0333801
 4316 -0.0728041  0.0001363  0.0377539
 4317 -0.0884982  0.0001950  0.0333491
 4318 -0.0770750  0.0002454  0.0377323
 4319 -0.0934545  0.0002562  0.0332917
 4320 -0.0984272  0.0002801  0.0332195
 4321 -0.0855841  0.0003636  0.0376067
 4322 -0.0813046  0.0003236  0.0376718
 4323 -0.1033844  0.0003003  0.0331366
 4324 -0.0898159  0.0003863  0.0375189
 4325 -0.1083574  0.0002917  0.0330518
 4326 -0.0941027  0.0003829  0.0374407
 4327 -0.1133118  0.0002900  0.0329654
 4328 -0.1182828  0.0002646  0.0328834
 4329 -0.1026317  0.0003525  0.0372729
 4330 -0.0983370  0.0003767  0.0373493
 4331 -0.1232326  0.0002526  0.0328046
 4332 -0.1068672  0.0003307  0.0371880
 4333 -0.1282002  0.0002196  0.0327339
 4334 -0.1111680  0.0002960  0.0371231
 4335 -0.1331452  0.0002060  0.0326681
 4336 -0.1381097  0.0001723  0.0326107
 4337 -0.1197120  0.0002377  0.0369993
 4338 -0.1154049  0.0002722  0.0370518
 4339 -0.1430496  0.0001602  0.0325584
 4340 -0.1239483  0.0002140  0.0369405
 4341 -0.1480109  0.0001278  0.0325148
 4342 -0.1282596  0.0001804  0.0369026
 4343 -0.1529466  0.0001204  0.0324756
 4344 -0.1579056  0.0000915  0.0324433
 4345 -0.1368115  0.0001357  0.0368301
 4346 -0.1324955  0.0001632  0.0368576
 4347 -0.1628371  0.0000882  0.0324145
 4348 -0.1410452  0.0001219  0.0367946
 4349 -0.1677939  0.0000618  0.0323922
 4350 -0.1453638  0.0000969  0.0367781
 4351 -0.1727224  0.0000637  0.0323722
 4352 -0.1776780  0.0000406  0.0323570
 4353 -0.1539184  0.0000716  0.0367419
 4354 -0.1495960  0.0000904  0.0367524
 4355 -0.1826035  0.0000457  0.0323430
 4356 -0.1581475  0.0000674  0.0367213
 4357 -0.1875580  0.0000242  0.0323337
 4358 -0.1624716  0.0000496  0.0367179
 4359 -0.1924816  0.0000334  0.0323247
 4360 -0.1974359  0.0000139  0.0323188
 4361 -0.1710264  0.0000386  0.0367024
 4362 -0.1666989  0.0000516  0.0367035
 4363 -0.2023573  0.0000251  0.0323127
 4364 -0.1752501  0.0000410  0.0366898
 4365 -0.2073113  5.86e-006  0.0323100
 4366 -0.1795791  0.0000272  0.0366931
 4367 -0.2122314  0.0000200  0.0323065
 4368 -0.2171858  1.88e-006  0.0323050
 4369 -0.1881332  0.0000247  0.0366878
 4370 -0.1838009  0.0000346  0.0366844
 4371 -0.2221043  0.0000169  0.0323025
 4372 -0.1923514  0.0000309  0.0366787
 4373 -0.2270589 -1.83e-006  0.0323026
 4374 -0.1966852  0.0000188  0.0366852
 4375 -0.2319766  0.0000155  0.0323015
 4376 -0.2369320 -2.73e-006  0.0323017
 4377 -0.2052387  0.0000205  0.0366841
 4378 -0.2009015  0.0000293  0.0366789
 4379 -0.2418484  0.0000149  0.0323005
 4380 -0.2094514  0.0000288  0.0366764
 4381 -0.2468041 -4.54e-006  0.0323017
 4382 -0.2137900  0.0000170  0.0366840
 4383 -0.2517199  0.0000150  0.0323014
 4384 -0.2566767 -4.15e-006  0.0323021
 4385 -0.2223432  0.0000205  0.0366843
 4386 -0.2180010  0.0000293  0.0366786
 4387 -0.2615912  0.0000154  0.0323013
 4388 -0.2265505  0.0000301  0.0366770
 4389 -0.2665485 -5.32e-006  0.0323029
 4390 -0.2308940  0.0000177  0.0366850
 4391 -0.2714626  0.0000160  0.0323027
 4392 -0.2764209 -4.50e-006  0.0323036
 4393 -0.2394470  0.0000220  0.0366857
 4394 -0.2350998  0.0000313  0.0366799
 4395 -0.2813338  0.0000166  0.0323028
 4396 -0.2436491  0.0000324  0.0366784
 4397 -0.2862926 -5.60e-006  0.0323044
 4398 -0.2479976  0.0000191  0.0366865
 4399 -0.2912052  0.0000173  0.0323043
 4400 -0.2961652 -4.69e-006  0.0323051
 4401 -0.2565505  0.0000237  0.0366872
 4402 -0.2521982  0.0000337  0.0366815
 4403 -0.3010765  0.0000179  0.0323043
 4404 -0.2607473  0.0000348  0.0366798
 4405 -0.3060369 -5.90e-006  0.0323059
 4406 -0.2651009  0.0000205  0.0366880
 4407 -0.3109479  0.0000185  0.0323058
 4408 -0.3159095 -4.97e-006  0.0323067
 4409 -0.2736537  0.0000253  0.0366887
 4410 -0.2692963  0.0000361  0.0366831
 4411 -0.3208192  0.0000191  0.0323058
 4412 -0.2778453  0.0000372  0.0366812
 4413 -0.3257813 -6.23e-006  0.0323075
 4414 -0.2822039  0.0000219  0.0366895
 4415 -0.3306906  0.0000198  0.0323074
 4416 -0.3356539 -5.09e-006  0.0323081
 4417 -0.2907566  0.0000272  0.0366901
 4418 -0.2863941  0.0000385  0.0366846
 4419 -0.3405619  0.0000206  0.0323071
 4420 -0.2949428  0.0000400  0.0366824
 4421 -0.3455254 -6.07e-006  0.0323086
 4422 -0.2993064  0.0000241  0.0366905
 4423 -0.3504331  0.0000218  0.0323083
 4424 -0.3553978 -4.16e-006  0.0323086
 4425 -0.3078589  0.0000305  0.0366904
 4426 -0.3034914  0.0000420  0.0366854
 4427 -0.3603039  0.0000235  0.0323070
 4428 -0.3120397  0.0000447  0.0366820
 4429 -0.3652687 -4.00e-006  0.0323078
 4430 -0.3164081  0.0000287  0.0366894
 4431 -0.3701743  0.0000263  0.0323064
 4432 -0.3751401 -7.44e-008  0.0323053
 4433 -0.3249600  0.0000380  0.0366867
 4434 -0.3205877  0.0000488  0.0366833
 4435 -0.3800440  0.0000304  0.0323020
 4436 -0.3291353  0.0000547  0.0366764
 4437 -0.3850095  3.01e-006  0.0323005
 4438 -0.3335085  0.0000399  0.0366815
 4439 -0.3899125  0.0000369  0.0322963
 4440 -0.3948786  0.0000114  0.0322916
 4441 -0.3420597  0.0000553  0.0366721
 4442 -0.3376825  0.0000636  0.0366725
 4443 -0.3997793  0.0000463  0.0322838
 4444 -0.3462294  0.0000764  0.0366571
 4445 -0.4047446  0.0000207  0.0322769
 4446 -0.3506073  0.0000651  0.0366568
 4447 -0.4096438  0.0000602  0.0322661
 4448 -0.4146090  0.0000379  0.0322535
 4449 -0.3591580  0.0000920  0.0366326
 4450 -0.3547759  0.0000949  0.0366411
 4451 -0.4195051  0.0000796  0.0322361
 4452 -0.3633226  0.0001207  0.0366079
 4453 -0.4244686  0.0000587  0.0322179
 4454 -0.3677057  0.0001165  0.0365962
 4455 -0.4293623  0.0001067  0.0321939
 4456 -0.4343248  0.0000908  0.0321658
 4457 -0.3762581  0.0001625  0.0365433
 4458 -0.3718699  0.0001562  0.0365674
 4459 -0.4392146  0.0001427  0.0321305
 4460 -0.3804192  0.0002029  0.0365009
 4461 -0.4441745  0.0001298  0.0320919
 4462 -0.3848099  0.0002098  0.0364691
 4463 -0.4490614  0.0001896  0.0320448
 4464 -0.4540201  0.0001832  0.0319906
 4465 -0.3933715  0.0002823  0.0363686
 4466 -0.3889729  0.0002631  0.0364178
 4467 -0.4589032  0.0002479  0.0319267
 4468 -0.3975349  0.0003370  0.0362987
 4469 -0.4638604  0.0002449  0.0318568
 4470 -0.4019405  0.0003564  0.0362376
 4471 -0.4687426  0.0003173  0.0317761
 4472 -0.4737019  0.0003196  0.0316868
 4473 -0.4105330  0.0004525  0.0360745
 4474 -0.4061118  0.0004232  0.0361554
 4475 -0.4785857  0.0003938  0.0315871
 4476 -0.4147146  0.0005154  0.0359734
 4477 -0.4835513  0.0003946  0.0314823
 4478 -0.4191551  0.0005367  0.0358839
 4479 -0.4884457  0.0004690  0.0313695
 4480 -0.4934296  0.0004638  0.0312539
 4481 -0.4278367  0.0006140  0.0356818
 4482 -0.4233607  0.0005999  0.0357780
 4483 -0.4983477  0.0005238  0.0311375
 4484 -0.4320773  0.0006486  0.0355783
 4485 -0.5033677  0.0004941  0.0310314
 4486 -0.4366033  0.0006204  0.0355059
 4487 -0.5083363  0.0005219  0.0309398
 4488 -0.5134267  0.0004411  0.0308783
 4489 -0.4455125  0.0005081  0.0354309
 4490 -0.4409057  0.0006088  0.0354443
 4491 -0.5184864  0.0003907  0.0308623
 4492 -0.4499032  0.0003770  0.0354625
 4493 -0.5236980  0.0001942  0.0309219
 4494 -0.4546217  0.0001077  0.0355977
 4495 -0.5289121 -0.0000202  0.0310913
 4496 -0.5342711 -0.0004599  0.0314157
 4497 -0.4639026 -0.0008296  0.0362568
 4498 -0.4591354 -0.0002528  0.0358361
 4499 -0.5396159 -0.0010185  0.0319658
 4500 -0.4684823 -0.0016577  0.0369056
 4501 -0.5453145 -0.0019853  0.0328260
 4502 -0.4732165 -0.0029848  0.0378580
 4503 -0.5508819 -0.0033633  0.0341204
 4504 -0.5567131 -0.0055924  0.0360294
 4505 -0.4825727 -0.0075757  0.0409740
 4506 -0.4779072 -0.0048144  0.0391879
 4507 -0.5622610 -0.0089842  0.0386651
 4508 -0.4866002 -0.0116038  0.0431929
 4509 -0.5674511 -0.0143787  0.0421878
 4510 -0.4897986 -0.0175340  0.0458630
 4511 -0.5712588 -0.0227160  0.0464133
 4512 -0.5727911 -0.0353977  0.0504391
 4513 -0.4913137 -0.0372949  0.0499665
 4514 -0.4914557 -0.0258944  0.0484523
 4515 -0.5707270 -0.0530353  0.0519236
 4516 -0.4888605 -0.0512595  0.0487623
 4517 -0.5660205 -0.0737933  0.0475425
 4518 -0.4853100 -0.0658721  0.0431459
 4519 -0.5613316 -0.0915985  0.0349901
 4520 -0.4825368 -0.0773293  0.0325332
 4521 -0.5608634 -0.0988271  0.0162050
 4522 -0.4828448 -0.0817261  0.0184084
 4523 -0.4053321 -0.0661149  0.0314003
 4524 -0.4071739 -0.0583439  0.0404795
 4525 -0.4057470 -0.0690112  0.0202858
 4526 -0.3295147 -0.0590116  0.0218327
 4527 -0.3291458 -0.0569949  0.0309400
 4528 -0.3305120 -0.0515136  0.0386720
 4529 -0.4089309 -0.0661144  0.0091667
 4530 -0.3320939 -0.0569967  0.0127228
 4531 -0.4867923 -0.0773302  0.0042859
 4532 -0.4938193 -0.0658735 -0.0063271
 4533 -0.4143775 -0.0583505  0.0000730
 4534 -0.3364062 -0.0515133  0.0049725
 4535 -0.5662517 -0.0915975 -0.0025780
 4536 -0.5758666 -0.0737903 -0.0151353
 4537 -0.5854978 -0.0530333 -0.0195468
 4538 -0.5923920 -0.0353892 -0.0180641
 4539 -0.5082073 -0.0373277 -0.0131848
 4540 -0.5015767 -0.0512498 -0.0119747
 4541 -0.4205997 -0.0478417 -0.0058182
 4542 -0.4265511 -0.0370051 -0.0084397
 4543 -0.3467813 -0.0354341 -0.0040201
 4544 -0.3416146 -0.0438140 -0.0006927
 4545 -0.4311169 -0.0273318 -0.0086919
 4546 -0.3511183 -0.0273884 -0.0053843
 4547 -0.5126238 -0.0259374 -0.0116954
 4548 -0.5151773 -0.0175034 -0.0091273
 4549 -0.4342221 -0.0195604 -0.0075756
 4550 -0.3546019 -0.0204533 -0.0053886
 4551 -0.5958528 -0.0226815 -0.0140510
 4552 -0.5968585 -0.0143437 -0.0098403
 4553 -0.4361953 -0.0136674 -0.0058863
 4554 -0.5163600 -0.0116034 -0.0064709
 4555 -0.5165856 -0.0075571 -0.0042572
 4556 -0.4371683 -0.0093040 -0.0042010
 4557 -0.3584581 -0.0105731 -0.0037248
 4558 -0.3569504 -0.0149112 -0.0047067
 4559 -0.5966898 -0.0090297 -0.0063292
 4560 -0.5961117 -0.0055881 -0.0036898
 4561 -0.5952798 -0.0033758 -0.0018092
 4562 -0.5163491 -0.0048181 -0.0024831
 4563 -0.5946573 -0.0019814 -0.0005120
 4564 -0.5159378 -0.0029824 -0.0011533
 4565 -0.5938909 -0.0010149  0.0003514
 4566 -0.5934307 -0.0004612  0.0008916
 4567 -0.5151046 -0.0008024  0.0004306
 4568 -0.5154872 -0.0016545 -0.0002132
 4569 -0.5929947 -0.0000391  0.0012119
 4570 -0.5146623 -0.0002161  0.0008437
 4571 -0.5927397  0.0001921  0.0013843
 4572 -0.5143859  0.0001352  0.0010899
 4573 -0.5925194  0.0003933  0.0014384
 4574 -0.5924032  0.0004382  0.0014272
 4575 -0.5139264  0.0005101  0.0012564
 4576 -0.5140214  0.0003803  0.0012167
 4577 -0.5922426  0.0005266  0.0013653
 4578 -0.5135733  0.0006188  0.0012381
 4579 -0.5922172  0.0004932  0.0012743
 4580 -0.5135690  0.0006285  0.0011814
 4581 -0.5921257  0.0005302  0.0011670
 4582 -0.5921511  0.0004627  0.0010512
 4583 -0.5133534  0.0006224  0.0010053
 4584 -0.5132938  0.0006604  0.0011024
 4585 -0.5920947  0.0004755  0.0009347
 4586 -0.5131261  0.0006124  0.0009023
 4587 -0.5921447  0.0003930  0.0008229
 4588 -0.5132232  0.0005445  0.0008034
 4589 -0.5921060  0.0004011  0.0007174
 4590 -0.5921676  0.0003182  0.0006183
 4591 -0.5131532  0.0004626  0.0006128
 4592 -0.5130292  0.0005292  0.0007077
 4593 -0.5921342  0.0003251  0.0005280
 4594 -0.5129755  0.0004381  0.0005248
 4595 -0.5921981  0.0002430  0.0004484
 4596 -0.5131118  0.0003657  0.0004497
 4597 -0.5921663  0.0002564  0.0003778
 4598 -0.5922302  0.0001816  0.0003145
 4599 -0.5130950  0.0002941  0.0003186
 4600 -0.5129476  0.0003532  0.0003826
 4601 -0.5921957  0.0001987  0.0002593
 4602 -0.5129347  0.0002804  0.0002622
 4603 -0.5922565  0.0001276  0.0002132
 4604 -0.5130846  0.0002205  0.0002181
 4605 -0.5922203  0.0001525  0.0001739
 4606 -0.5922792  0.0000890  0.0001393
 4607 -0.5130850  0.0001760  0.0001439
 4608 -0.5129301  0.0002215  0.0001804
 4609 -0.5922393  0.0001170  0.0001101
 4610 -0.5129299  0.0001758  0.0001126
 4611 -0.5922948  0.0000562  0.0000872
 4612 -0.5130836  0.0001286  0.0000910
 4613 -0.5922534  0.0000906  0.0000683
 4614 -0.5923076  0.0000358  0.0000516
 4615 -0.5130883  0.0001071  0.0000546
 4616 -0.5129316  0.0001417  0.0000735
 4617 -0.5922635  0.0000717  0.0000379
 4618 -0.5129341  0.0001170  0.0000388
 4619 -0.5923152  0.0000179  0.0000282
 4620 -0.5130884  0.0000787  0.0000304
 4621 -0.5922703  0.0000585  0.0000206
 4622 -0.5923216  9.10e-006  0.0000134
 4623 -0.5130933  0.0000721  0.0000151
 4624 -0.5129366  0.0000997  0.0000243
 4625 -0.5922748  0.0000497  7.71e-006
 4626 -0.5129389  0.0000880  7.32e-006
 4627 -0.5923243 -1.62e-007  4.63e-006
 4628 -0.5130929  0.0000549  5.74e-006
 4629 -0.5922777  0.0000439  2.51e-006
 4630 -0.5923274 -2.63e-006 -2.56e-007
 4631 -0.5130970  0.0000565  4.89e-007
 4632 -0.5129407  0.0000804  5.16e-006
 4633 -0.5922794  0.0000404 -2.40e-006
 4634 -0.5129422  0.0000756 -3.55e-006
 4635 -0.5923278 -7.47e-006 -2.63e-006
 4636 -0.5130958  0.0000451 -2.15e-006
 4637 -0.5922803  0.0000383 -2.49e-006
 4638 -0.5923293 -6.95e-006 -3.49e-006
 4639 -0.5130992  0.0000507 -3.19e-006
 4640 -0.5129433  0.0000728 -3.68e-007
 4641 -0.5922808  0.0000371 -4.27e-006
 4642 -0.5129441  0.0000712 -5.79e-006
 4643 -0.5923288 -9.84e-006 -3.47e-006
 4644 -0.5130974  0.0000419 -3.30e-006
 4645 -0.5922809  0.0000366 -2.56e-006
 4646 -0.5923297 -8.11e-006 -3.00e-006
 4647 -0.5131003  0.0000491 -2.90e-006
 4648 -0.5129446  0.0000705 -6.87e-007
 4649 -0.5922810  0.0000364 -3.39e-006
 4650 -0.5129450  0.0000701 -5.06e-006
 4651 -0.5923289 -0.0000103 -2.31e-006
 4652 -0.5130982  0.0000412 -2.27e-006
 4653 -0.5922809  0.0000363 -1.22e-006
 4654 -0.5923297 -8.22e-006 -1.55e-006
 4655 -0.5131008  0.0000489 -1.53e-006
 4656 -0.5129452  0.0000701  5.51e-007
 4657 -0.5922809  0.0000363 -1.88e-006
 4658 -0.5129454  0.0000701 -3.61e-006
 4659 -0.5923288 -0.0000103 -7.76e-007
 4660 -0.5130985  0.0000412 -7.68e-007
 4661 -0.5922809  0.0000364  3.27e-007
 4662 -0.5923296 -8.17e-006  7.94e-012
 4663 -0.5131010  0.0000489  8.15e-012
 4664 -0.5129454  0.0000701  2.07e-006
 4665 -0.5922809  0.0000364 -3.27e-007
 4666 -0.5129454  0.0000701 -2.07e-006
 4667 -0.5923288 -0.0000103  7.77e-007
 4668 -0.5130985  0.0000412  7.68e-007
 4669 -0.5922809  0.0000363  1.88e-006
 4670 -0.5923297 -8.22e-006  1.55e-006
 4671 -0.5131008  0.0000489  1.53e-006
 4672 -0.5129454  0.0000701  3.61e-006
 4673 -0.5922809  0.0000363  1.22e-006
 4674 -0.5129452  0.0000701 -5.51e-007
 4675 -0.5923289 -0.0000103  2.31e-006
 4676 -0.5130982  0.0000412  2.27e-006
 4677 -0.5922810  0.0000364  3.39e-006
 4678 -0.5923297 -8.11e-006  3.00e-006
 4679 -0.5131003  0.0000491  2.90e-006
 4680 -0.5129450  0.0000701  5.06e-006
 4681 -0.5922809  0.0000366  2.56e-006
 4682 -0.5129446  0.0000705  6.87e-007
 4683 -0.5923288 -9.84e-006  3.47e-006
 4684 -0.5130974  0.0000419  3.30e-006
 4685 -0.5922808  0.0000371  4.27e-006
 4686 -0.5923293 -6.95e-006  3.49e-006
 4687 -0.5130992  0.0000507  3.19e-006
 4688 -0.5129441  0.0000712  5.79e-006
 4689 -0.5922803  0.0000383  2.49e-006
 4690 -0.5129433  0.0000728  3.68e-007
 4691 -0.5923278 -7.47e-006  2.63e-006
 4692 -0.5130958  0.0000451  2.15e-006
 4693 -0.5922794  0.0000404  2.40e-006
 4694 -0.5923274 -2.63e-006  2.56e-007
 4695 -0.5130970  0.0000565 -4.89e-007
 4696 -0.5129422  0.0000756  3.55e-006
 4697 -0.5922777  0.0000439 -2.51e-006
 4698 -0.5129407  0.0000804 -5.16e-006
 4699 -0.5923243 -1.62e-007 -4.63e-006
 4700 -0.5130929  0.0000549 -5.74e-006
 4701 -0.5922748  0.0000497 -7.71e-006
 4702 -0.5923216  9.10e-006 -0.0000134
 4703 -0.5130933  0.0000721 -0.0000151
 4704 -0.5129389  0.0000880 -7.32e-006
 4705 -0.5922703  0.0000585 -0.0000206
 4706 -0.5129366  0.0000997 -0.0000243
 4707 -0.5923152  0.0000179 -0.0000282
 4708 -0.5130884  0.0000787 -0.0000304
 4709 -0.5922635  0.0000717 -0.0000379
 4710 -0.5923076  0.0000358 -0.0000516
 4711 -0.5130883  0.0001071 -0.0000546
 4712 -0.5129341  0.0001170 -0.0000388
 4713 -0.5922534  0.0000906 -0.0000683
 4714 -0.5129316  0.0001417 -0.0000735
 4715 -0.5922948  0.0000562 -0.0000872
 4716 -0.5130836  0.0001286 -0.0000910
 4717 -0.5922393  0.0001170 -0.0001101
 4718 -0.5922792  0.0000890 -0.0001393
 4719 -0.5130850  0.0001760 -0.0001439
 4720 -0.5129299  0.0001758 -0.0001126
 4721 -0.5922203  0.0001525 -0.0001739
 4722 -0.5129301  0.0002215 -0.0001804
 4723 -0.5922565  0.0001276 -0.0002132
 4724 -0.5130846  0.0002205 -0.0002181
 4725 -0.5921957  0.0001987 -0.0002593
 4726 -0.5922302  0.0001816 -0.0003145
 4727 -0.5130950  0.0002941 -0.0003186
 4728 -0.5129347  0.0002804 -0.0002622
 4729 -0.5921663  0.0002564 -0.0003778
 4730 -0.5129476  0.0003532 -0.0003826
 4731 -0.5921981  0.0002430 -0.0004484
 4732 -0.5131118  0.0003657 -0.0004497
 4733 -0.5921342  0.0003251 -0.0005280
 4734 -0.5921676  0.0003182 -0.0006183
 4735 -0.5131532  0.0004626 -0.0006128
 4736 -0.5129754  0.0004381 -0.0005248
 4737 -0.5921060  0.0004011 -0.0007174
 4738 -0.5130292  0.0005292 -0.0007077
 4739 -0.5921447  0.0003930 -0.0008229
 4740 -0.5132232  0.0005445 -0.0008034
 4741 -0.5920947  0.0004755 -0.0009348
 4742 -0.5921510  0.0004627 -0.0010513
 4743 -0.5133535  0.0006224 -0.0010055
 4744 -0.5131262  0.0006125 -0.0009023
 4745 -0.5921254  0.0005298 -0.0011670
 4746 -0.5132937  0.0006600 -0.0011029
 4747 -0.5922169  0.0004927 -0.0012738
 4748 -0.5135680  0.0006268 -0.0011814
 4749 -0.5922426  0.0005272 -0.0013644
 4750 -0.5924038  0.0004402 -0.0014268
 4751 -0.5139260  0.0005149 -0.0012564
 4752 -0.5135730  0.0006189 -0.0012361
 4753 -0.5925214  0.0003954 -0.0014422
 4754 -0.5140214  0.0003859 -0.0012185
 4755 -0.5928030  0.0001932 -0.0013833
 4756 -0.5144833  0.0001126 -0.0010894
 4757 -0.5930764 -0.0000160 -0.0012128
 4758 -0.5934951 -0.0004599 -0.0008928
 4759 -0.5152029 -0.0008234 -0.0004295
 4760 -0.5147045 -0.0002457 -0.0008435
 4761 -0.5938921 -0.0010151 -0.0003472
 4762 -0.5154866 -0.0016496  0.0002128
 4763 -0.5946590 -0.0019861  0.0005077
 4764 -0.5159363 -0.0029817  0.0011510
 4765 -0.5952786 -0.0033618  0.0018053
 4766 -0.5961776 -0.0055926  0.0036975
 4767 -0.5167527 -0.0075731  0.0042639
 4768 -0.5163505 -0.0048084  0.0024803
 4769 -0.5967718 -0.0089804  0.0063242
 4770 -0.5164871 -0.0115987  0.0064738
 4771 -0.5970279 -0.0143779  0.0098393
 4772 -0.5154047 -0.0175296  0.0091258
 4773 -0.5958978 -0.0227141  0.0140594
 4774 -0.5924968 -0.0353956  0.0180689
 4775 -0.5083664 -0.0372933  0.0131946
 4776 -0.5127826 -0.0258910  0.0117018
 4777 -0.5854979 -0.0530351  0.0195444
 4778 -0.5016365 -0.0512565  0.0119736
 4779 -0.5758640 -0.0737935  0.0151372
 4780 -0.4938221 -0.0658713  0.0063310
 4781 -0.5662521 -0.0915975  0.0025781
 4782 -0.4867923 -0.0773298 -0.0042863
 4783 -0.5608634 -0.0988271 -0.0162053
 4784 -0.4828448 -0.0817261 -0.0184087
 4785 -0.4089299 -0.0661140 -0.0091665
 4786 -0.4143775 -0.0583446 -0.0000743
 4787 -0.4057470 -0.0690112 -0.0202856
 4788 -0.3295147 -0.0590116 -0.0218321
 4789 -0.3320942 -0.0569963 -0.0127223
 4790 -0.3364070 -0.0515129 -0.0049756
 4791 -0.4053331 -0.0661152 -0.0314000
 4792 -0.3291454 -0.0569952 -0.0309394
 4793 -0.4825369 -0.0773295 -0.0325336
 4794 -0.4853078 -0.0658740 -0.0431421
 4795 -0.4071738 -0.0583497 -0.0404801
 4796 -0.3305105 -0.0515142 -0.0386750
 4797 -0.5613314 -0.0915984 -0.0349900
 4798 -0.5660231 -0.0737899 -0.0475407
 4799 -0.5707266 -0.0530338 -0.0519250
 4800 -0.5726905 -0.0353914 -0.0504321
 4801 -0.4911620 -0.0373298 -0.0499689
 4802 -0.4887995 -0.0512520 -0.0487668
 4803 -0.4097839 -0.0478419 -0.0463475
 4804 -0.4121207 -0.0370054 -0.0489518
 4805 -0.3349616 -0.0354351 -0.0476256
 4806 -0.3327612 -0.0438168 -0.0443176
 4807 -0.4130647 -0.0273325 -0.0491811
 4808 -0.3363281 -0.0273907 -0.0489686
 4809 -0.4913058 -0.0259404 -0.0484589
 4810 -0.4895780 -0.0175068 -0.0458703
 4811 -0.4125506 -0.0195613 -0.0480531
 4812 -0.3368332 -0.0204576 -0.0489537
 4813 -0.5712167 -0.0226841 -0.0464117
 4814 -0.5672858 -0.0143454 -0.0421915
 4815 -0.4109007 -0.0136666 -0.0463550
 4816 -0.4864814 -0.0116083 -0.0432039
 4817 -0.4824181 -0.0075616 -0.0409697
 4818 -0.4082461 -0.0093063 -0.0446481
 4819 -0.3347201 -0.0105735 -0.0472491
 4820 -0.3361985 -0.0149131 -0.0482519
 4821 -0.5621836 -0.0090312 -0.0386787
 4822 -0.5566555 -0.0055884 -0.0360267
 4823 -0.5508823 -0.0033767 -0.0341229
 4824 -0.4779055 -0.0048241 -0.0391898
 4825 -0.5453119 -0.0019819 -0.0328302
 4826 -0.4732177 -0.0029853 -0.0378597
 4827 -0.5396155 -0.0010179 -0.0319626
 4828 -0.5342109 -0.0004598 -0.0314210
 4829 -0.4638148 -0.0008109 -0.0362547
 4830 -0.4684827 -0.0016622 -0.0369053
 4831 -0.5288393 -0.0000408 -0.0311020
 4832 -0.4590978 -0.0002265 -0.0358414
 4833 -0.5236446  0.0001920 -0.0309251
 4834 -0.4545350  0.0001277 -0.0355960
 4835 -0.5184838  0.0003885 -0.0308657
 4836 -0.5134260  0.0004392 -0.0308779
 4837 -0.4455129  0.0005040 -0.0354307
 4838 -0.4499031  0.0003720 -0.0354632
 4839 -0.5083363  0.0005213 -0.0309391
 4840 -0.4409060  0.0006087 -0.0354424
 4841 -0.5033680  0.0004944 -0.0310310
 4842 -0.4366042  0.0006219 -0.0355058
 4843 -0.4983480  0.0005241 -0.0311375
 4844 -0.4934297  0.0004639 -0.0312540
 4845 -0.4278366  0.0006139 -0.0356820
 4846 -0.4320775  0.0006489 -0.0355787
 4847 -0.4884457  0.0004690 -0.0313695
 4848 -0.4233606  0.0005999 -0.0357780
 4849 -0.4835513  0.0003946 -0.0314823
 4850 -0.4191551  0.0005366 -0.0358839
 4851 -0.4785857  0.0003938 -0.0315871
 4852 -0.4737019  0.0003195 -0.0316868
 4853 -0.4105330  0.0004525 -0.0360745
 4854 -0.4147146  0.0005153 -0.0359734
 4855 -0.4687426  0.0003173 -0.0317761
 4856 -0.4061118  0.0004232 -0.0361553
 4857 -0.4638604  0.0002449 -0.0318568
 4858 -0.4019405  0.0003564 -0.0362376
 4859 -0.4589032  0.0002479 -0.0319267
 4860 -0.4540202  0.0001832 -0.0319906
 4861 -0.3933715  0.0002823 -0.0363686
 4862 -0.3975349  0.0003370 -0.0362987
 4863 -0.4490614  0.0001896 -0.0320448
 4864 -0.3889729  0.0002632 -0.0364178
 4865 -0.4441746  0.0001298 -0.0320919
 4866 -0.3848100  0.0002098 -0.0364691
 4867 -0.4392146  0.0001427 -0.0321305
 4868 -0.4343248  0.0000908 -0.0321658
 4869 -0.3762581  0.0001625 -0.0365433
 4870 -0.3804192  0.0002029 -0.0365009
 4871 -0.4293623  0.0001067 -0.0321939
 4872 -0.3718699  0.0001562 -0.0365674
 4873 -0.4244686  0.0000587 -0.0322179
 4874 -0.3677057  0.0001165 -0.0365962
 4875 -0.4195051  0.0000797 -0.0322361
 4876 -0.4146090  0.0000379 -0.0322535
 4877 -0.3591580  0.0000920 -0.0366326
 4878 -0.3633226  0.0001207 -0.0366079
 4879 -0.4096438  0.0000602 -0.0322661
 4880 -0.3547759  0.0000949 -0.0366411
 4881 -0.4047446  0.0000207 -0.0322769
 4882 -0.3506073  0.0000651 -0.0366568
 4883 -0.3997793  0.0000463 -0.0322838
 4884 -0.3948786  0.0000114 -0.0322916
 4885 -0.3420597  0.0000553 -0.0366721
 4886 -0.3462294  0.0000764 -0.0366571
 4887 -0.3899125  0.0000369 -0.0322963
 4888 -0.3376825  0.0000636 -0.0366725
 4889 -0.3850095  3.01e-006 -0.0323005
 4890 -0.3335085  0.0000399 -0.0366815
 4891 -0.3800440  0.0000304 -0.0323020
 4892 -0.3751401 -7.44e-008 -0.0323053
 4893 -0.3249600  0.0000380 -0.0366867
 4894 -0.3291353  0.0000547 -0.0366764
 4895 -0.3701743  0.0000263 -0.0323064
 4896 -0.3205877  0.0000488 -0.0366833
 4897 -0.3652687 -4.00e-006 -0.0323078
 4898 -0.3164081  0.0000287 -0.0366894
 4899 -0.3603039  0.0000235 -0.0323070
 4900 -0.3553978 -4.16e-006 -0.0323086
 4901 -0.3078589  0.0000305 -0.0366904
 4902 -0.3120397  0.0000447 -0.0366820
 4903 -0.3504331  0.0000218 -0.0323083
 4904 -0.3034914  0.0000420 -0.0366854
 4905 -0.3455254 -6.07e-006 -0.0323086
 4906 -0.2993064  0.0000241 -0.0366905
 4907 -0.3405619  0.0000206 -0.0323071
 4908 -0.3356539 -5.09e-006 -0.0323081
 4909 -0.2907566  0.0000272 -0.0366901
 4910 -0.2949428  0.0000400 -0.0366824
 4911 -0.3306906  0.0000198 -0.0323074
 4912 -0.2863941  0.0000385 -0.0366846
 4913 -0.3257813 -6.23e-006 -0.0323075
 4914 -0.2822039  0.0000219 -0.0366895
 4915 -0.3208192  0.0000191 -0.0323058
 4916 -0.3159095 -4.97e-006 -0.0323067
 4917 -0.2736537  0.0000253 -0.0366887
 4918 -0.2778453  0.0000372 -0.0366812
 4919 -0.3109479  0.0000185 -0.0323058
 4920 -0.2692963  0.0000361 -0.0366831
 4921 -0.3060369 -5.90e-006 -0.0323059
 4922 -0.2651009  0.0000205 -0.0366880
 4923 -0.3010765  0.0000179 -0.0323043
 4924 -0.2961652 -4.69e-006 -0.0323051
 4925 -0.2565505  0.0000237 -0.0366872
 4926 -0.2607473  0.0000348 -0.0366798
 4927 -0.2912052  0.0000173 -0.0323043
 4928 -0.2521982  0.0000337 -0.0366815
 4929 -0.2862926 -5.60e-006 -0.0323044
 4930 -0.2479976  0.0000191 -0.0366865
 4931 -0.2813338  0.0000166 -0.0323028
 4932 -0.2764209 -4.50e-006 -0.0323036
 4933 -0.2394470  0.0000220 -0.0366857
 4934 -0.2436491  0.0000324 -0.0366784
 4935 -0.2714626  0.0000160 -0.0323027
 4936 -0.2350998  0.0000313 -0.0366799
 4937 -0.2665485 -5.32e-006 -0.0323029
 4938 -0.2308940  0.0000177 -0.0366850
 4939 -0.2615912  0.0000154 -0.0323013
 4940 -0.2566767 -4.15e-006 -0.0323021
 4941 -0.2223432  0.0000205 -0.0366843
 4942 -0.2265505  0.0000301 -0.0366770
 4943 -0.2517199  0.0000150 -0.0323014
 4944 -0.2180010  0.0000293 -0.0366786
 4945 -0.2468041 -4.54e-006 -0.0323017
 4946 -0.2137900  0.0000170 -0.0366840
 4947 -0.2418484  0.0000149 -0.0323005
 4948 -0.2369320 -2.73e-006 -0.0323017
 4949 -0.2052387  0.0000205 -0.0366841
 4950 -0.2094514  0.0000288 -0.0366764
 4951 -0.2319766  0.0000155 -0.0323015
 4952 -0.2009015  0.0000293 -0.0366789
 4953 -0.2270589 -1.83e-006 -0.0323026
 4954 -0.1966852  0.0000188 -0.0366852
 4955 -0.2221043  0.0000169 -0.0323025
 4956 -0.2171858  1.88e-006 -0.0323050
 4957 -0.1881332  0.0000247 -0.0366878
 4958 -0.1923514  0.0000309 -0.0366787
 4959 -0.2122314  0.0000200 -0.0323065
 4960 -0.1838009  0.0000346 -0.0366844
 4961 -0.2073113  5.86e-006 -0.0323100
 4962 -0.1795791  0.0000272 -0.0366931
 4963 -0.2023573  0.0000251 -0.0323127
 4964 -0.1974359  0.0000139 -0.0323188
 4965 -0.1710264  0.0000386 -0.0367024
 4966 -0.1752501  0.0000410 -0.0366898
 4967 -0.1924816  0.0000334 -0.0323247
 4968 -0.1666989  0.0000516 -0.0367035
 4969 -0.1875580  0.0000242 -0.0323337
 4970 -0.1624716  0.0000496 -0.0367179
 4971 -0.1826035  0.0000457 -0.0323430
 4972 -0.1776780  0.0000406 -0.0323570
 4973 -0.1539184  0.0000716 -0.0367419
 4974 -0.1581475  0.0000674 -0.0367213
 4975 -0.1727224  0.0000637 -0.0323722
 4976 -0.1495960  0.0000904 -0.0367524
 4977 -0.1677939  0.0000618 -0.0323922
 4978 -0.1453638  0.0000969 -0.0367781
 4979 -0.1628371  0.0000882 -0.0324145
 4980 -0.1579056  0.0000915 -0.0324433
 4981 -0.1368115  0.0001357 -0.0368301
 4982 -0.1410452  0.0001219 -0.0367946
 4983 -0.1529466  0.0001204 -0.0324756
 4984 -0.1324955  0.0001632 -0.0368576
 4985 -0.1480109  0.0001278 -0.0325148
 4986 -0.1282596  0.0001804 -0.0369026
 4987 -0.1430496  0.0001602 -0.0325584
 4988 -0.1381097  0.0001723 -0.0326107
 4989 -0.1197120  0.0002377 -0.0369993
 4990 -0.1239483  0.0002140 -0.0369405
 4991 -0.1331452  0.0002060 -0.0326681
 4992 -0.1154049  0.0002722 -0.0370518
 4993 -0.1282002  0.0002196 -0.0327339
 4994 -0.1111680  0.0002960 -0.0371231
 4995 -0.1232326  0.0002526 -0.0328046
 4996 -0.1182828  0.0002646 -0.0328834
 4997 -0.1026317  0.0003525 -0.0372729
 4998 -0.1068672  0.0003307 -0.0371880
 4999 -0.1133118  0.0002900 -0.0329654
 5000 -0.0983370  0.0003767 -0.0373493
 5001 -0.1083574  0.0002917 -0.0330518
 5002 -0.0941027  0.0003829 -0.0374407
 5003 -0.1033844  0.0003004 -0.0331366
 5004 -0.0984272  0.0002801 -0.0332195
 5005 -0.0855841  0.0003637 -0.0376067
 5006 -0.0898159  0.0003863 -0.0375189
 5007 -0.0934545  0.0002561 -0.0332917
 5008 -0.0813046  0.0003236 -0.0376719
 5009 -0.0884982  0.0001949 -0.0333491
 5010 -0.0770750  0.0002452 -0.0377323
 5011 -0.0835315  0.0001179 -0.0333801
 5012 -0.0785842 -7.04e-006 -0.0333769
 5013 -0.0685782 -0.0000268 -0.0377510
 5014 -0.0728041  0.0001363 -0.0377538
 5015 -0.0736345 -0.0001631 -0.0333233
 5016 -0.0643170 -0.0002409 -0.0376839
 5017 -0.0687115 -0.0003788 -0.0332063
 5018 -0.0600987 -0.0005268 -0.0375600
 5019 -0.0638007 -0.0006387 -0.0330056
 5020 -0.0589216 -0.0009667 -0.0327075
 5021 -0.0516497 -0.0013156 -0.0370136
 5022 -0.0558556 -0.0008794 -0.0373353
 5023 -0.0540806 -0.0013483 -0.0322870
 5024 -0.0474404 -0.0018327 -0.0365576
 5025 -0.0493143 -0.0017967 -0.0317212
 5026 -0.0432758 -0.0024403 -0.0359475
 5027 -0.0446124 -0.0022917 -0.0309823
 5028 -0.0400295 -0.0028383 -0.0300754
 5029 -0.0351442 -0.0038543 -0.0341272
 5030 -0.0391687 -0.0031134 -0.0351408
 5031 -0.0355579 -0.0034069 -0.0289603
 5032 -0.0311872 -0.0046323 -0.0328894
 5033 -0.0312685 -0.0039897 -0.0276367
 5034 -0.0273719 -0.0054330 -0.0314202
 5035 -0.0271725 -0.0045492 -0.0261038
 5036 -0.0233165 -0.0050683 -0.0243810
 5037 -0.0202746 -0.0069310 -0.0277609
 5038 -0.0237188 -0.0062094 -0.0297059
 5039 -0.0197217 -0.0055093 -0.0224771
 5040 -0.0170624 -0.0075477 -0.0256003
 5041 -0.0164347 -0.0058587 -0.0204371
 5042 -0.0141405 -0.0080363 -0.0232714
 5043 -0.0134691 -0.0060758 -0.0182821
 5044 -0.0115237 -0.0083394 -0.0208048
 5045 -0.0108451 -0.0061573 -0.0160661
 5046 -0.0092319 -0.0084490 -0.0182671
 5047 -0.0091790 -0.0108859 -0.0229946
 5048 -0.0114743 -0.0104744 -0.0257548
 5049 -0.0072071 -0.0110391 -0.0201502
 5050 -0.0048501 -0.0138937 -0.0217103
 5051 -0.0065109 -0.0137020 -0.0248695
 5052 -0.0084918 -0.0131612 -0.0279181
 5053 -0.0055601 -0.0109213 -0.0172983
 5054 -0.0035264 -0.0137401 -0.0185461
 5055 -0.0072640 -0.0083674 -0.0157288
 5056 -0.0056201 -0.0080935 -0.0132482
 5057 -0.0042283 -0.0105416 -0.0145160
 5058 -0.0025237 -0.0132409 -0.0154748
 5059 -0.0085626 -0.0060991 -0.0138486
 5060 -0.0066192 -0.0059027 -0.0116773
 5061 -0.0049926 -0.0055745 -0.0095953
 5062 -0.0036666 -0.0051530 -0.0076603
 5063 -0.0032026 -0.0070474 -0.0086831
 5064 -0.0042717 -0.0076349 -0.0108771
 5065 -0.0031810 -0.0099283 -0.0118727
 5066 -0.0023991 -0.0091405 -0.0094441
 5067 -0.0013426 -0.0114045 -0.0099286
 5068 -0.0018087 -0.0124355 -0.0125761
 5069 -0.0018234 -0.0082051 -0.0072553
 5070 -0.0010576 -0.0101954 -0.0075714
 5071 -0.0023658 -0.0063476 -0.0066909
 5072 -0.0017309 -0.0055820 -0.0049282
 5073 -0.0014180 -0.0071993 -0.0053402
 5074 -0.0009144 -0.0089039 -0.0055388
 5075 -0.0026051 -0.0046538 -0.0058968
 5076 -0.0017759 -0.0041045 -0.0043259
 5077 -0.0011376 -0.0061679 -0.0037080
 5078 -0.0012573 -0.0047959 -0.0034115
 5079 -0.0009090 -0.0040156 -0.0021323
 5080 -0.0009429 -0.0051459 -0.0023458
 5081 -0.0008381 -0.0063059 -0.0024190
 5082 -0.0008534 -0.0075879 -0.0038239
 5083 -0.0011459 -0.0035360 -0.0029632
 5084 -0.0006785 -0.0029654 -0.0018061
 5085 -0.0003423 -0.0024114 -0.0008501
 5086 -0.0006566 -0.0032650 -0.0010834
 5087 -0.0001097 -0.0018917 -0.0000847
 5088 -0.0004730 -0.0025620 -0.0002483
 5089  0.0000430 -0.0014105  0.0005056
 5090  0.0001351 -0.0009689  0.0009369
 5091 -0.0002379 -0.0013241  0.0008637
 5092 -0.0003385 -0.0019150  0.0003938
 5093  0.0001820 -0.0005620  0.0012263
 5094 -0.0001625 -0.0007858  0.0011818
 5095  0.0001956 -0.0001828  0.0013878
 5096 -0.0001058 -0.0002892  0.0013648
 5097  0.0001831  0.0001770  0.0014341
 5098 -0.0000635  0.0001763  0.0014281
 5099 -0.0004358 -0.0010250  0.0011075
 5100 -0.0003506 -0.0004098  0.0012982
 5101 -0.0005523 -0.0005317  0.0012055
 5102 -0.0006548 -0.0012613  0.0010224
 5103 -0.0007365 -0.0020680  0.0007078
 5104 -0.0005198 -0.0016988  0.0007813
 5105 -0.0002669  0.0001639  0.0013710
 5106 -0.0004373  0.0001451  0.0012753
 5107 -0.0008396 -0.0014796  0.0009315
 5108 -0.0007261 -0.0006403  0.0010909
 5109 -0.0008836 -0.0007284  0.0009592
 5110 -0.0010077 -0.0016592  0.0008397
 5111 -0.0010717 -0.0027125  0.0006120
 5112 -0.0009128 -0.0024145  0.0006506
 5113 -0.0005844  0.0001291  0.0011478
 5114 -0.0007185  0.0001202  0.0009926
 5115 -0.0011734 -0.0017909  0.0007444
 5116 -0.0010360 -0.0007821  0.0008108
 5117 -0.0011873 -0.0007978  0.0006435
 5118 -0.0013448 -0.0018580  0.0006394
 5119 -0.0014120 -0.0030881  0.0005748
 5120 -0.0012338 -0.0029444  0.0005897
 5121 -0.0008469  0.0001247  0.0008116
 5122 -0.0009724  0.0001449  0.0006072
 5123 -0.0015242 -0.0018505  0.0005149
 5124 -0.0013373 -0.0007676  0.0004510
 5125 -0.0014789 -0.0006841  0.0002270
 5126 -0.0017053 -0.0017647  0.0003607
 5127 -0.0018342 -0.0030595  0.0005083
 5128 -0.0016132 -0.0031305  0.0005539
 5129 -0.0010911  0.0001860  0.0003746
 5130 -0.0011958  0.0002528  0.0001152
 5131 -0.0018735 -0.0015972  0.0001631
 5132 -0.0015975 -0.0005527 -0.0000358
 5133 -0.0016756 -0.0003804 -0.0003361
 5134 -0.0020043 -0.0013581 -0.0000863
 5135 -0.0022655 -0.0025650  0.0002608
 5136 -0.0020609 -0.0028675  0.0004168
 5137 -0.0012764  0.0003423 -0.0001758
 5138 -0.0013187  0.0004496 -0.0004957
 5139 -0.0020608 -0.0010608 -0.0003969
 5140 -0.0016819 -0.0001830 -0.0006753
 5141 -0.0015817  0.0000161 -0.0010400
 5142 -0.0019966 -0.0007370 -0.0007610
 5143 -0.0024153 -0.0016895 -0.0003140
 5144 -0.0024034 -0.0021607  0.0000193
 5145 -0.0012990  0.0005590 -0.0008340
 5146 -0.0011916  0.0006529 -0.0011784
 5147 -0.0017621 -0.0004174 -0.0011606
 5148 -0.0013414  0.0001940 -0.0014090
 5149 -0.0009329  0.0003236 -0.0017463
 5150 -0.0013100 -0.0001382 -0.0015615
 5151 -0.0017776 -0.0007302 -0.0011872
 5152 -0.0022311 -0.0011978 -0.0007251
 5153 -0.0009765  0.0007113 -0.0015044
 5154 -0.0006357  0.0007185 -0.0017819
 5155 -0.0006058  0.0000655 -0.0019043
 5156 -0.0003386  0.0003857 -0.0020032
 5157 -0.0009927 -0.0003393 -0.0016348
 5158 -0.0001634  0.0006673 -0.0019675
 5159 -0.0015300 -0.0009014 -0.0011309
 5160 -0.0022499 -0.0017279 -0.0003039
 5161 -0.0029871 -0.0026962  0.0003807
 5162 -0.0023397 -0.0015392 -0.0005655
 5163 -0.0031659 -0.0029796  0.0009662
 5164 -0.0036780 -0.0043945  0.0017461
 5165 -0.0042562 -0.0049183  0.0028517
 5166 -0.0042999 -0.0069189  0.0036341
 5167 -0.0053980 -0.0079981  0.0055717
 5168 -0.0062378 -0.0129686  0.0093296
 5169 -0.0042548 -0.0163910  0.0091994
 5170 -0.0046321 -0.0107075  0.0061321
 5171 -0.0060143 -0.0210439  0.0141401
 5172 -0.0024898 -0.0248312  0.0124864
 5173 -0.0033605 -0.0338895  0.0192051
 5174  0.0014259 -0.0367144  0.0149236
 5175  0.0030839 -0.0527574  0.0220836
 5176  0.0132207 -0.0760860  0.0185928
 5177  0.0161373 -0.0685385  0.0092648
 5178  0.0078907 -0.0519650  0.0146108
 5179  0.0004058 -0.0268526  0.0098080
 5180  0.0045778 -0.0371630  0.0103148
 5181  0.0063721 -0.0361120  0.0060435
 5182  0.0024373 -0.0274667  0.0068158
 5183 -0.0003211 -0.0202265  0.0062353
 5184 -0.0021252 -0.0188220  0.0080147
 5185  0.0103483 -0.0491501  0.0082200
 5186  0.0168908 -0.0610030  0.0023199
 5187  0.0163784 -0.0539773 -0.0028517
 5188  0.0112336 -0.0454284  0.0030782
 5189  0.0226791 -0.0700098 -0.0075167
 5190  0.0238679 -0.0819975 -0.0021361
 5191  0.0283583 -0.0872848 -0.0178265
 5192  0.0261088 -0.0734121 -0.0197887
 5193  0.0233407 -0.0623174 -0.0214710
 5194  0.0207506 -0.0600154 -0.0115027
 5195  0.0238186 -0.0970894  0.0054111
 5196  0.0298882 -0.1058378 -0.0155733
 5197  0.0290059 -0.0970616 -0.0365652
 5198  0.0283966 -0.0819762 -0.0335126
 5199  0.0235984 -0.0760561 -0.0497051
 5200  0.0252011 -0.0684904 -0.0448666
 5201  0.0265541 -0.0699895 -0.0320194
 5202  0.0246819 -0.0609406 -0.0417740
 5203  0.0229010 -0.0539036 -0.0398643
 5204  0.0239447 -0.0599836 -0.0313890
 5205  0.0220962 -0.0490490 -0.0475599
 5206  0.0211157 -0.0453154 -0.0456228
 5207  0.0215469 -0.0519095 -0.0501223
 5208  0.0196350 -0.0365826 -0.0503563
 5209  0.0202707 -0.0370339 -0.0495630
 5210  0.0195674 -0.0359735 -0.0484872
 5211  0.0186703 -0.0526786 -0.0531430
 5212  0.0174266 -0.0337833 -0.0502063
 5213  0.0200259 -0.0267033 -0.0489955
 5214  0.0203184 -0.0246857 -0.0478534
 5215  0.0231460 -0.0162505 -0.0445453
 5216  0.0214339 -0.0186467 -0.0471592
 5217  0.0194198 -0.0200084 -0.0485928
 5218  0.0189119 -0.0273043 -0.0492025
 5219  0.0200238 -0.0209425 -0.0450998
 5220  0.0250226 -0.0128583 -0.0402748
 5221  0.0311025 -0.0078738 -0.0364971
 5222  0.0273494 -0.0105400 -0.0414658
 5223  0.0374995 -0.0047762 -0.0337554
 5224  0.0322825 -0.0067319 -0.0389372
 5225  0.0438102 -0.0028329 -0.0318812
 5226  0.0499674 -0.0016054 -0.0306296
 5227  0.0427423 -0.0025327 -0.0357112
 5228  0.0374821 -0.0042126 -0.0370646
 5229  0.0559210 -0.0008106 -0.0298091
 5230  0.0479851 -0.0014222 -0.0347680
 5231  0.0616957 -0.0002977 -0.0292986
 5232  0.0531178 -0.0006771 -0.0341462
 5233  0.0673158  0.0000289 -0.0290134
 5234  0.0728015  0.0002330 -0.0288839
 5235  0.0630887  0.0001420 -0.0335535
 5236  0.0581494 -0.0001788 -0.0337690
 5237  0.0781940  0.0003555 -0.0288544
 5238  0.0679497  0.0003447 -0.0334545
 5239  0.0835170  0.0004225 -0.0288905
 5240  0.0727451  0.0004655 -0.0334369
 5241  0.0887889  0.0004518 -0.0289685
 5242  0.0940243  0.0004556 -0.0290714
 5243  0.0821877  0.0005540 -0.0335462
 5244  0.0774875  0.0005293 -0.0334739
 5245  0.0992341  0.0004424 -0.0291874
 5246  0.0868549  0.0005519 -0.0336397
 5247  0.1044268  0.0004183 -0.0293080
 5248  0.0914969  0.0005320 -0.0337441
 5249  0.1096084  0.0003877 -0.0294277
 5250  0.1147835  0.0003535 -0.0295426
 5251  0.1007275  0.0004627 -0.0339595
 5252  0.0961195  0.0005007 -0.0338524
 5253  0.1199555  0.0003180 -0.0296501
 5254  0.1053248  0.0004213 -0.0340621
 5255  0.1251265  0.0002827 -0.0297491
 5256  0.1099142  0.0003790 -0.0341580
 5257  0.1302982  0.0002486 -0.0298387
 5258  0.1354716  0.0002164 -0.0299188
 5259  0.1190777  0.0002974 -0.0343256
 5260  0.1144979  0.0003373 -0.0342461
 5261  0.1406473  0.0001866 -0.0299896
 5262  0.1236547  0.0002601 -0.0343966
 5263  0.1458256  0.0001593 -0.0300516
 5264  0.1282301  0.0002257 -0.0344592
 5265  0.1510066  0.0001347 -0.0301053
 5266  0.1561903  0.0001127 -0.0301515
 5267  0.1373780  0.0001666 -0.0345610
 5268  0.1328043  0.0001945 -0.0345138
 5269  0.1613766  0.0000933 -0.0301908
 5270  0.1419514  0.0001418 -0.0346015
 5271  0.1665654  0.0000763 -0.0302241
 5272  0.1465250  0.0001200 -0.0346358
 5273  0.1717563  0.0000615 -0.0302519
 5274  0.1769491  0.0000487 -0.0302751
 5275  0.1556727  0.0000849 -0.0346889
 5276  0.1510987  0.0001012 -0.0346647
 5277  0.1821437  0.0000378 -0.0302942
 5278  0.1602470  0.0000710 -0.0347089
 5279  0.1873398  0.0000285 -0.0303098
 5280  0.1648217  0.0000592 -0.0347253
 5281  0.1925372  0.0000206 -0.0303224
 5282  0.1977358  0.0000141 -0.0303326
 5283  0.1739723  0.0000412 -0.0347494
 5284  0.1693968  0.0000494 -0.0347386
 5285  0.2029352  8.58e-006 -0.0303406
 5286  0.1785480  0.0000344 -0.0347579
 5287  0.2081355  4.05e-006 -0.0303469
 5288  0.1831241  0.0000289 -0.0347647
 5289  0.2133364  3.31e-007 -0.0303517
 5290  0.2185378 -2.71e-006 -0.0303553
 5291  0.1922771  0.0000210 -0.0347739
 5292  0.1877005  0.0000245 -0.0347699
 5293  0.2237397 -5.18e-006 -0.0303581
 5294  0.1968540  0.0000182 -0.0347769
 5295  0.2289419 -7.17e-006 -0.0303600
 5296  0.2014310  0.0000161 -0.0347790
 5297  0.2341444 -8.78e-006 -0.0303614
 5298  0.2393472 -0.0000101 -0.0303623
 5299  0.2105855  0.0000133 -0.0347816
 5300  0.2060082  0.0000145 -0.0347806
 5301  0.2445500 -0.0000111 -0.0303628
 5302  0.2151630  0.0000125 -0.0347822
 5303  0.2497531 -0.0000119 -0.0303630
 5304  0.2197405  0.0000119 -0.0347826
 5305  0.2549562 -0.0000126 -0.0303631
 5306  0.2601594 -0.0000131 -0.0303630
 5307  0.2288958  0.0000115 -0.0347826
 5308  0.2243182  0.0000116 -0.0347827
 5309  0.2653626 -0.0000135 -0.0303628
 5310  0.2334736  0.0000114 -0.0347825
 5311  0.2705659 -0.0000139 -0.0303625
 5312  0.2380514  0.0000115 -0.0347822
 5313  0.2757692 -0.0000142 -0.0303621
 5314  0.2809725 -0.0000145 -0.0303618
 5315  0.2472070  0.0000119 -0.0347816
 5316  0.2426292  0.0000117 -0.0347819
 5317  0.2861758 -0.0000147 -0.0303614
 5318  0.2517849  0.0000121 -0.0347812
 5319  0.2913791 -0.0000149 -0.0303610
 5320  0.2563628  0.0000123 -0.0347808
 5321  0.2965823 -0.0000152 -0.0303607
 5322  0.3017856 -0.0000154 -0.0303603
 5323  0.2655185  0.0000129 -0.0347800
 5324  0.2609406  0.0000126 -0.0347804
 5325  0.3069889 -0.0000157 -0.0303599
 5326  0.2700964  0.0000131 -0.0347797
 5327  0.3121921 -0.0000159 -0.0303595
 5328  0.2746744  0.0000134 -0.0347793
 5329  0.3173953 -0.0000161 -0.0303591
 5330  0.3225985 -0.0000164 -0.0303587
 5331  0.2838302  0.0000138 -0.0347785
 5332  0.2792523  0.0000136 -0.0347789
 5333  0.3278017 -0.0000167 -0.0303584
 5334  0.2884081  0.0000141 -0.0347781
 5335  0.3330048 -0.0000169 -0.0303580
 5336  0.2929860  0.0000143 -0.0347777
 5337  0.3382080 -0.0000172 -0.0303576
 5338  0.3434111 -0.0000174 -0.0303572
 5339  0.3021420  0.0000148 -0.0347770
 5340  0.2975640  0.0000146 -0.0347773
 5341  0.3486142 -0.0000176 -0.0303569
 5342  0.3067199  0.0000151 -0.0347766
 5343  0.3538174 -0.0000178 -0.0303565
 5344  0.3112979  0.0000155 -0.0347763
 5345  0.3590205 -0.0000180 -0.0303563
 5346  0.3642237 -0.0000180 -0.0303561
 5347  0.3204541  0.0000164 -0.0347759
 5348  0.3158760  0.0000159 -0.0347761
 5349  0.3694270 -0.0000180 -0.0303560
 5350  0.3250322  0.0000171 -0.0347758
 5351  0.3746303 -0.0000178 -0.0303560
 5352  0.3296104  0.0000179 -0.0347760
 5353  0.3798337 -0.0000175 -0.0303563
 5354  0.3850372 -0.0000169 -0.0303568
 5355  0.3387670  0.0000203 -0.0347769
 5356  0.3341886  0.0000189 -0.0347763
 5357  0.3902409 -0.0000161 -0.0303577
 5358  0.3433455  0.0000219 -0.0347780
 5359  0.3954448 -0.0000150 -0.0303590
 5360  0.3479241  0.0000240 -0.0347795
 5361  0.4006490 -0.0000135 -0.0303610
 5362  0.4058535 -0.0000115 -0.0303637
 5363  0.3570818  0.0000299 -0.0347847
 5364  0.3525028  0.0000267 -0.0347817
 5365  0.4110585 -8.97e-006 -0.0303674
 5366  0.3616609  0.0000340 -0.0347887
 5367  0.4162639 -5.74e-006 -0.0303722
 5368  0.3662403  0.0000389 -0.0347939
 5369  0.4214701 -1.72e-006 -0.0303785
 5370  0.4266769  3.21e-006 -0.0303865
 5371  0.3753999  0.0000520 -0.0348091
 5372  0.3708199  0.0000448 -0.0348006
 5373  0.4318847  9.20e-006 -0.0303965
 5374  0.3799801  0.0000606 -0.0348198
 5375  0.4370936  0.0000164 -0.0304091
 5376  0.3845608  0.0000707 -0.0348330
 5377  0.4423038  0.0000249 -0.0304245
 5378  0.4475155  0.0000349 -0.0304433
 5379  0.3937232  0.0000964 -0.0348689
 5380  0.3891418  0.0000826 -0.0348492
 5381  0.4527289  0.0000465 -0.0304660
 5382  0.3983050  0.0001124 -0.0348926
 5383  0.4579443  0.0000598 -0.0304931
 5384  0.4028873  0.0001305 -0.0349209
 5385  0.4631619  0.0000749 -0.0305252
 5386  0.4683820  0.0000917 -0.0305628
 5387  0.4120530  0.0001734 -0.0349933
 5388  0.4074699  0.0001508 -0.0349543
 5389  0.4736050  0.0001101 -0.0306065
 5390  0.4166365  0.0001981 -0.0350385
 5391  0.4788311  0.0001298 -0.0306567
 5392  0.4212203  0.0002244 -0.0350903
 5393  0.4840605  0.0001505 -0.0307137
 5394  0.4892936  0.0001715 -0.0307776
 5395  0.4303885  0.0002796 -0.0352145
 5396  0.4258043  0.0002519 -0.0351489
 5397  0.4945303  0.0001920 -0.0308481
 5398  0.4349727  0.0003064 -0.0352867
 5399  0.4997710  0.0002105 -0.0309247
 5400  0.4395569  0.0003305 -0.0353650
 5401  0.5050155  0.0002255 -0.0310063
 5402  0.5102636  0.0002348 -0.0310909
 5403  0.4487243  0.0003611 -0.0355340
 5404  0.4441408  0.0003497 -0.0354481
 5405  0.5155148  0.0002357 -0.0311758
 5406  0.4533071  0.0003612 -0.0356198
 5407  0.5207686  0.0002248 -0.0312573
 5408  0.4578889  0.0003453 -0.0357016
 5409  0.5260236  0.0001983 -0.0313301
 5410  0.5312781  0.0001516 -0.0313876
 5411  0.4670476  0.0002443 -0.0358295
 5412  0.4624693  0.0003084 -0.0357739
 5413  0.5365296  0.0000797 -0.0314213
 5414  0.4716229  0.0001460 -0.0358595
 5415  0.5417745 -0.0000228 -0.0314207
 5416  0.4761937  6.36e-006 -0.0358524
 5417  0.5470080 -0.0001614 -0.0313732
 5418  0.5522232 -0.0003410 -0.0312639
 5419  0.4853114 -0.0004273 -0.0356698
 5420  0.4807577 -0.0001823 -0.0357946
 5421  0.5574099 -0.0005664 -0.0310756
 5422  0.4898520 -0.0007350 -0.0354586
 5423  0.5624446 -0.0008392 -0.0307970
 5424  0.4942739 -0.0011409 -0.0351390
 5425  0.5673447 -0.0011691 -0.0304116
 5426  0.5721422 -0.0015506 -0.0298835
 5427  0.5026810 -0.0021125 -0.0341213
 5428  0.4986426 -0.0016060 -0.0347396
 5429  0.5765706 -0.0019408 -0.0292218
 5430  0.5066606 -0.0027143 -0.0333588
 5431  0.5809468 -0.0024268 -0.0283773
 5432  0.5104691 -0.0033856 -0.0324110
 5433  0.5850154 -0.0029392 -0.0273509
 5434  0.5887804 -0.0034419 -0.0261633
 5435  0.5170410 -0.0047260 -0.0298950
 5436  0.5138744 -0.0040403 -0.0312717
 5437  0.5921572 -0.0039343 -0.0247713
 5438  0.5197859 -0.0054478 -0.0282991
 5439  0.5950805 -0.0044304 -0.0231979
 5440  0.5219088 -0.0061336 -0.0265324
 5441  0.5977545 -0.0048697 -0.0214380
 5442  0.6000236 -0.0051551 -0.0194650
 5443  0.5249998 -0.0072009 -0.0222836
 5444  0.5236257 -0.0067394 -0.0244986
 5445  0.4479710 -0.0071244 -0.0314685
 5446  0.4493840 -0.0079713 -0.0295279
 5447  0.3778797 -0.0099498 -0.0321690
 5448  0.3770184 -0.0089061 -0.0343556
 5449  0.3752853 -0.0077174 -0.0362769
 5450  0.4459152 -0.0061733 -0.0332470
 5451  0.4499940 -0.0087725 -0.0273557
 5452  0.4501797 -0.0095681 -0.0248301
 5453  0.3755526 -0.0120903 -0.0270177
 5454  0.3776009 -0.0109821 -0.0297598
 5455  0.4504371 -0.0096721 -0.0220902
 5456  0.5266260 -0.0073196 -0.0199834
 5457  0.5284663 -0.0073189 -0.0176836
 5458  0.4516197 -0.0095335 -0.0196507
 5459  0.3726518 -0.0115157 -0.0213440
 5460  0.3728305 -0.0127472 -0.0238022
 5461  0.6024348 -0.0052800 -0.0174418
 5462  0.6048034 -0.0053512 -0.0154383
 5463  0.6076077 -0.0052858 -0.0134195
 5464  0.5311637 -0.0073295 -0.0153633
 5465  0.6103725 -0.0051379 -0.0113412
 5466  0.5341855 -0.0071857 -0.0129444
 5467  0.4543322 -0.0096892 -0.0171651
 5468  0.4581869 -0.0095996 -0.0143187
 5469  0.3822322 -0.0120875 -0.0154287
 5470  0.3760537 -0.0127586 -0.0188352
 5471  0.4620385 -0.0087882 -0.0117161
 5472  0.3876957 -0.0109746 -0.0124881
 5473  0.5373726 -0.0067259 -0.0106696
 5474  0.5403256 -0.0061276 -0.0085024
 5475  0.4652606 -0.0079177 -0.0093721
 5476  0.3913795 -0.0099417 -0.0099650
 5477  0.6133611 -0.0048861 -0.0093563
 5478  0.6159220 -0.0044671 -0.0074645
 5479  0.4677842 -0.0071092 -0.0073613
 5480  0.5426602 -0.0054563 -0.0067075
 5481  0.5443817 -0.0047193 -0.0050480
 5482  0.4695818 -0.0061961 -0.0054727
 5483  0.3953798 -0.0077531 -0.0057187
 5484  0.3937770 -0.0089111 -0.0077034
 5485  0.6180914 -0.0039332 -0.0058312
 5486  0.6199238 -0.0034390 -0.0043873
 5487  0.6214316 -0.0029406 -0.0031566
 5488  0.5459481 -0.0040207 -0.0036739
 5489  0.6226534 -0.0024702 -0.0020802
 5490  0.5471446 -0.0033838 -0.0024381
 5491  0.6234103 -0.0019403 -0.0012486
 5492  0.6240852 -0.0015351 -0.0005217
 5493  0.5483737 -0.0020919 -0.0006809
 5494  0.5479226 -0.0026957 -0.0014645
 5495  0.6245546 -0.0011719  0.0000246
 5496  0.5489937 -0.0016061 -0.0000922
 5497  0.6248709 -0.0008426  0.0004293
 5498  0.5492539 -0.0011610  0.0003628
 5499  0.6250515 -0.0005689  0.0007166
 5500  0.6250684 -0.0003441  0.0009047
 5501  0.5494024 -0.0004236  0.0008906
 5502  0.5493644 -0.0007301  0.0006799
 5503  0.6250566 -0.0001650  0.0010138
 5504  0.5494265 -0.0001786  0.0010156
 5505  0.6250262 -0.0000267  0.0010613
 5506  0.5494404  0.0000104  0.0010734
 5507  0.6249844  0.0000755  0.0010619
 5508  0.6249361  0.0001472  0.0010282
 5509  0.5494501  0.0002487  0.0010504
 5510  0.5494475  0.0001503  0.0010804
 5511  0.6248848  0.0001936  0.0009706
 5512  0.5494496  0.0003131  0.0009947
 5513  0.6248330  0.0002199  0.0008978
 5514  0.5494471  0.0003503  0.0009224
 5515  0.6247825  0.0002305  0.0008163
 5516  0.6247344  0.0002294  0.0007314
 5517  0.5494384  0.0003666  0.0007547
 5518  0.5494432  0.0003664  0.0008406
 5519  0.6246895  0.0002198  0.0006468
 5520  0.5494328  0.0003554  0.0006688
 5521  0.6246483  0.0002046  0.0005652
 5522  0.5494268  0.0003364  0.0005858
 5523  0.6246108  0.0001858  0.0004886
 5524  0.6245773  0.0001651  0.0004181
 5525  0.5494142  0.0002861  0.0004352
 5526  0.5494205  0.0003126  0.0005075
 5527  0.6245475  0.0001439  0.0003542
 5528  0.5494079  0.0002586  0.0003696
 5529  0.6245212  0.0001229  0.0002972
 5530  0.5494018  0.0002313  0.0003110
 5531  0.6244984  0.0001029  0.0002470
 5532  0.6244786  0.0000843  0.0002033
 5533  0.5493904  0.0001808  0.0002140
 5534  0.5493959  0.0002052  0.0002592
 5535  0.6244617  0.0000672  0.0001656
 5536  0.5493852  0.0001585  0.0001750
 5537  0.6244473  0.0000519  0.0001335
 5538  0.5493804  0.0001384  0.0001416
 5539  0.6244351  0.0000384  0.0001064
 5540  0.6244249  0.0000265  0.0000837
 5541  0.5493722  0.0001048  0.0000896
 5542  0.5493761  0.0001205  0.0001133
 5543  0.6244165  0.0000163  0.0000649
 5544  0.5493687  0.0000912  0.0000699
 5545  0.6244095  7.49e-006  0.0000495
 5546  0.5493656  0.0000796  0.0000537
 5547  0.6244038  5.52e-008  0.0000370
 5548  0.6243992 -6.18e-006  0.0000269
 5549  0.5493605  0.0000614  0.0000298
 5550  0.5493629  0.0000697  0.0000404
 5551  0.6243956 -0.0000114  0.0000189
 5552  0.5493585  0.0000544  0.0000213
 5553  0.6243927 -0.0000156  0.0000127
 5554  0.5493568  0.0000487  0.0000146
 5555  0.6243904 -0.0000191  7.84e-006
 5556  0.6243887 -0.0000219  4.18e-006
 5557  0.5493541  0.0000403  5.37e-006
 5558  0.5493553  0.0000441  9.35e-006
 5559  0.6243874 -0.0000241  1.46e-006
 5560  0.5493531  0.0000373  2.39e-006
 5561  0.6243864 -0.0000259 -5.04e-007
 5562  0.5493522  0.0000349  2.16e-007
 5563  0.6243857 -0.0000273 -1.86e-006
 5564  0.6243853 -0.0000283 -2.75e-006
 5565  0.5493510  0.0000316 -2.35e-006
 5566  0.5493515  0.0000330 -1.32e-006
 5567  0.6243849 -0.0000291 -3.28e-006
 5568  0.5493505  0.0000305 -2.99e-006
 5569  0.6243848 -0.0000297 -3.53e-006
 5570  0.5493501  0.0000297 -3.33e-006
 5571  0.6243847 -0.0000301 -3.58e-006
 5572  0.6243846 -0.0000304 -3.48e-006
 5573  0.5493496  0.0000287 -3.39e-006
 5574  0.5493499  0.0000291 -3.44e-006
 5575  0.6243847 -0.0000306 -3.27e-006
 5576  0.5493495  0.0000284 -3.22e-006
 5577  0.6243847 -0.0000307 -2.98e-006
 5578  0.5493494  0.0000283 -2.96e-006
 5579  0.6243848 -0.0000307 -2.65e-006
 5580  0.6243849 -0.0000308 -2.30e-006
 5581  0.5493492  0.0000281 -2.30e-006
 5582  0.5493493  0.0000282 -2.65e-006
 5583  0.6243850 -0.0000308 -1.92e-006
 5584  0.5493491  0.0000281 -1.93e-006
 5585  0.6243850 -0.0000308 -1.54e-006
 5586  0.5493491  0.0000281 -1.55e-006
 5587  0.6243851 -0.0000308 -1.15e-006
 5588  0.6243851 -0.0000307 -7.67e-007
 5589  0.5493491  0.0000281 -7.78e-007
 5590  0.5493491  0.0000281 -1.17e-006
 5591  0.6243852 -0.0000307 -3.83e-007
 5592  0.5493491  0.0000281 -3.89e-007
 5593  0.6243852 -0.0000307 -8.58e-012
 5594  0.5493491  0.0000281 -8.67e-012
 5595  0.6243852 -0.0000307  3.83e-007
 5596  0.6243851 -0.0000307  7.67e-007
 5597  0.5493491  0.0000281  7.78e-007
 5598  0.5493491  0.0000281  3.89e-007
 5599  0.6243851 -0.0000308  1.15e-006
 5600  0.5493491  0.0000281  1.17e-006
 5601  0.6243850 -0.0000308  1.54e-006
 5602  0.5493491  0.0000281  1.55e-006
 5603  0.6243850 -0.0000308  1.92e-006
 5604  0.6243849 -0.0000308  2.30e-006
 5605  0.5493492  0.0000281  2.30e-006
 5606  0.5493491  0.0000281  1.93e-006
 5607  0.6243848 -0.0000307  2.65e-006
 5608  0.5493493  0.0000282  2.65e-006
 5609  0.6243847 -0.0000307  2.98e-006
 5610  0.5493494  0.0000283  2.96e-006
 5611  0.6243847 -0.0000306  3.27e-006
 5612  0.6243846 -0.0000304  3.48e-006
 5613  0.5493496  0.0000287  3.39e-006
 5614  0.5493495  0.0000284  3.22e-006
 5615  0.6243847 -0.0000301  3.58e-006
 5616  0.5493499  0.0000291  3.44e-006
 5617  0.6243848 -0.0000297  3.53e-006
 5618  0.5493501  0.0000297  3.33e-006
 5619  0.6243849 -0.0000291  3.28e-006
 5620  0.6243853 -0.0000283  2.75e-006
 5621  0.5493510  0.0000316  2.35e-006
 5622  0.5493505  0.0000305  2.99e-006
 5623  0.6243857 -0.0000273  1.86e-006
 5624  0.5493515  0.0000330  1.32e-006
 5625  0.6243864 -0.0000259  5.04e-007
 5626  0.5493522  0.0000349 -2.16e-007
 5627  0.6243874 -0.0000241 -1.46e-006
 5628  0.6243887 -0.0000219 -4.18e-006
 5629  0.5493541  0.0000403 -5.37e-006
 5630  0.5493531  0.0000373 -2.39e-006
 5631  0.6243904 -0.0000191 -7.84e-006
 5632  0.5493553  0.0000441 -9.35e-006
 5633  0.6243927 -0.0000156 -0.0000127
 5634  0.5493568  0.0000487 -0.0000146
 5635  0.6243956 -0.0000114 -0.0000189
 5636  0.6243992 -6.18e-006 -0.0000269
 5637  0.5493605  0.0000614 -0.0000298
 5638  0.5493585  0.0000544 -0.0000213
 5639  0.6244038  5.43e-008 -0.0000370
 5640  0.5493629  0.0000697 -0.0000404
 5641  0.6244095  7.49e-006 -0.0000495
 5642  0.5493656  0.0000796 -0.0000537
 5643  0.6244165  0.0000163 -0.0000649
 5644  0.6244249  0.0000265 -0.0000837
 5645  0.5493722  0.0001048 -0.0000896
 5646  0.5493687  0.0000912 -0.0000699
 5647  0.6244351  0.0000384 -0.0001064
 5648  0.5493761  0.0001205 -0.0001133
 5649  0.6244473  0.0000519 -0.0001335
 5650  0.5493804  0.0001384 -0.0001416
 5651  0.6244617  0.0000672 -0.0001656
 5652  0.6244786  0.0000843 -0.0002033
 5653  0.5493904  0.0001808 -0.0002140
 5654  0.5493852  0.0001585 -0.0001750
 5655  0.6244984  0.0001029 -0.0002470
 5656  0.5493959  0.0002052 -0.0002592
 5657  0.6245212  0.0001229 -0.0002972
 5658  0.5494018  0.0002313 -0.0003110
 5659  0.6245475  0.0001439 -0.0003542
 5660  0.6245773  0.0001651 -0.0004180
 5661  0.5494142  0.0002860 -0.0004352
 5662  0.5494079  0.0002585 -0.0003696
 5663  0.6246108  0.0001858 -0.0004886
 5664  0.5494206  0.0003126 -0.0005075
 5665  0.6246483  0.0002046 -0.0005652
 5666  0.5494268  0.0003365 -0.0005858
 5667  0.6246895  0.0002198 -0.0006468
 5668  0.6247344  0.0002294 -0.0007314
 5669  0.5494384  0.0003666 -0.0007547
 5670  0.5494328  0.0003554 -0.0006688
 5671  0.6247825  0.0002305 -0.0008163
 5672  0.5494433  0.0003664 -0.0008406
 5673  0.6248330  0.0002199 -0.0008978
 5674  0.5494472  0.0003503 -0.0009224
 5675  0.6248848  0.0001937 -0.0009707
 5676  0.6249361  0.0001472 -0.0010282
 5677  0.5494501  0.0002488 -0.0010504
 5678  0.5494496  0.0003132 -0.0009947
 5679  0.6249844  0.0000756 -0.0010619
 5680  0.5494475  0.0001503 -0.0010804
 5681  0.6250262 -0.0000266 -0.0010613
 5682  0.5494404  0.0000105 -0.0010734
 5683  0.6250565 -0.0001649 -0.0010139
 5684  0.6250685 -0.0003442 -0.0009048
 5685  0.5494021 -0.0004235 -0.0008908
 5686  0.5494264 -0.0001784 -0.0010157
 5687  0.6250515 -0.0005691 -0.0007163
 5688  0.5493650 -0.0007311 -0.0006800
 5689  0.6248710 -0.0008411 -0.0004294
 5690  0.5491992 -0.0011407 -0.0003610
 5691  0.6245540 -0.0011707 -0.0000253
 5692  0.6241389 -0.0015567  0.0005222
 5693  0.5484298 -0.0021107  0.0006844
 5694  0.5489960 -0.0016070  0.0000430
 5695  0.6233454 -0.0019400  0.0012037
 5696  0.5478232 -0.0027149  0.0014662
 5697  0.6225136 -0.0024269  0.0020856
 5698  0.5470448 -0.0033918  0.0024423
 5699  0.6213688 -0.0029420  0.0031530
 5700  0.6199223 -0.0034419  0.0043858
 5701  0.5444363 -0.0047302  0.0050464
 5702  0.5458526 -0.0040431  0.0036234
 5703  0.6180896 -0.0039364  0.0058315
 5704  0.5425960 -0.0054520  0.0067062
 5705  0.6158020 -0.0044338  0.0074754
 5706  0.5401380 -0.0061366  0.0085541
 5707  0.6132833 -0.0048744  0.0093082
 5708  0.6103650 -0.0051596  0.0113425
 5709  0.5340791 -0.0072083  0.0129865
 5710  0.5372675 -0.0067443  0.0106849
 5711  0.4676803 -0.0071306  0.0073567
 5712  0.4651425 -0.0079756  0.0093856
 5713  0.3911987 -0.0099527  0.0099672
 5714  0.3936545 -0.0089092  0.0077005
 5715  0.3952382 -0.0077168  0.0057290
 5716  0.4695819 -0.0061764  0.0055133
 5717  0.4617833 -0.0087733  0.0116733
 5718  0.4580067 -0.0095750  0.0143238
 5719  0.3821370 -0.0121035  0.0154243
 5720  0.3875861 -0.0109889  0.0124969
 5721  0.4543289 -0.0096864  0.0171637
 5722  0.5311646 -0.0073246  0.0153611
 5723  0.5284664 -0.0073188  0.0176833
 5724  0.4516197 -0.0095334  0.0196485
 5725  0.3726519 -0.0115157  0.0213427
 5726  0.3760554 -0.0127562  0.0188313
 5727  0.6076034 -0.0052838  0.0134227
 5728  0.6048033 -0.0053511  0.0154373
 5729  0.6024376 -0.0052815  0.0174446
 5730  0.5266259 -0.0073240  0.0199818
 5731  0.6000298 -0.0051325  0.0194646
 5732  0.5250928 -0.0071796  0.0223257
 5733  0.4504402 -0.0096748  0.0220886
 5734  0.4503529 -0.0095924  0.0248273
 5735  0.3756459 -0.0120745  0.0270141
 5736  0.3728289 -0.0127497  0.0237989
 5737  0.4502442 -0.0087855  0.0272985
 5738  0.3777055 -0.0109685  0.0297625
 5739  0.5237253 -0.0067224  0.0245052
 5740  0.5220794 -0.0061249  0.0265749
 5741  0.4494946 -0.0079147  0.0295314
 5742  0.3780552 -0.0099395  0.0321638
 5743  0.5978337 -0.0048797  0.0213807
 5744  0.5951898 -0.0044640  0.0232025
 5745  0.4480720 -0.0071036  0.0314650
 5746  0.5198455 -0.0054524  0.0282948
 5747  0.5169868 -0.0047162  0.0298967
 5748  0.4459067 -0.0061932  0.0332868
 5749  0.3754148 -0.0077511  0.0362781
 5750  0.3771390 -0.0089059  0.0343472
 5751  0.5921585 -0.0039305  0.0247713
 5752  0.5887812 -0.0034393  0.0261616
 5753  0.5850776 -0.0029363  0.0273430
 5754  0.5139665 -0.0040180  0.0312260
 5755  0.5810725 -0.0024674  0.0283690
 5756  0.5105589 -0.0033785  0.0324071
 5757  0.5766308 -0.0019404  0.0291759
 5758  0.5720889 -0.0015314  0.0298867
 5759  0.5026261 -0.0020960  0.0341276
 5760  0.5067531 -0.0026957  0.0333616
 5761  0.5673453 -0.0011695  0.0304112
 5762  0.4986428 -0.0016036  0.0346948
 5763  0.5624446 -0.0008408  0.0307971
 5764  0.4943197 -0.0011592  0.0351383
 5765  0.5574098 -0.0005662  0.0310760
 5766  0.5522231 -0.0003409  0.0312638
 5767  0.4853116 -0.0004274  0.0356695
 5768  0.4898511 -0.0007340  0.0354585
 5769  0.5470081 -0.0001614  0.0313731
 5770  0.4807578 -0.0001825  0.0357946
 5771  0.5417745 -0.0000229  0.0314206
 5772  0.4761938  6.27e-006  0.0358524
 5773  0.5365296  0.0000797  0.0314212
 5774  0.5312781  0.0001516  0.0313876
 5775  0.4670476  0.0002442  0.0358295
 5776  0.4716229  0.0001460  0.0358594
 5777  0.5260236  0.0001983  0.0313301
 5778  0.4624693  0.0003084  0.0357739
 5779  0.5207686  0.0002248  0.0312572
 5780  0.4578889  0.0003453  0.0357016
 5781  0.5155148  0.0002356  0.0311758
 5782  0.5102635  0.0002348  0.0310909
 5783  0.4487243  0.0003611  0.0355340
 5784  0.4533071  0.0003611  0.0356198
 5785  0.5050155  0.0002255  0.0310063
 5786  0.4441408  0.0003497  0.0354481
 5787  0.4997710  0.0002105  0.0309247
 5788  0.4395569  0.0003305  0.0353650
 5789  0.4945303  0.0001920  0.0308481
 5790  0.4892936  0.0001715  0.0307776
 5791  0.4303885  0.0002796  0.0352145
 5792  0.4349727  0.0003064  0.0352867
 5793  0.4840605  0.0001505  0.0307137
 5794  0.4258043  0.0002519  0.0351489
 5795  0.4788311  0.0001298  0.0306567
 5796  0.4212203  0.0002244  0.0350903
 5797  0.4736050  0.0001101  0.0306065
 5798  0.4683820  0.0000917  0.0305628
 5799  0.4120530  0.0001734  0.0349933
 5800  0.4166365  0.0001981  0.0350385
 5801  0.4631619  0.0000749  0.0305252
 5802  0.4074699  0.0001509  0.0349543
 5803  0.4579443  0.0000598  0.0304931
 5804  0.4028872  0.0001305  0.0349209
 5805  0.4527289  0.0000465  0.0304660
 5806  0.4475155  0.0000349  0.0304433
 5807  0.3937232  0.0000964  0.0348689
 5808  0.3983050  0.0001124  0.0348926
 5809  0.4423038  0.0000249  0.0304245
 5810  0.3891418  0.0000826  0.0348492
 5811  0.4370936  0.0000164  0.0304091
 5812  0.3845608  0.0000707  0.0348330
 5813  0.4318847  9.20e-006  0.0303965
 5814  0.4266769  3.21e-006  0.0303865
 5815  0.3753999  0.0000520  0.0348091
 5816  0.3799801  0.0000606  0.0348198
 5817  0.4214701 -1.72e-006  0.0303785
 5818  0.3708199  0.0000448  0.0348006
 5819  0.4162639 -5.74e-006  0.0303722
 5820  0.3662403  0.0000389  0.0347939
 5821  0.4110585 -8.97e-006  0.0303674
 5822  0.4058535 -0.0000115  0.0303637
 5823  0.3570818  0.0000299  0.0347847
 5824  0.3616609  0.0000340  0.0347887
 5825  0.4006490 -0.0000135  0.0303610
 5826  0.3525028  0.0000267  0.0347817
 5827  0.3954448 -0.0000150  0.0303590
 5828  0.3479241  0.0000240  0.0347795
 5829  0.3902409 -0.0000161  0.0303577
 5830  0.3850372 -0.0000169  0.0303568
 5831  0.3387670  0.0000203  0.0347769
 5832  0.3433455  0.0000219  0.0347780
 5833  0.3798337 -0.0000175  0.0303563
 5834  0.3341886  0.0000189  0.0347763
 5835  0.3746303 -0.0000178  0.0303560
 5836  0.3296104  0.0000179  0.0347760
 5837  0.3694270 -0.0000180  0.0303560
 5838  0.3642237 -0.0000180  0.0303561
 5839  0.3204541  0.0000164  0.0347759
 5840  0.3250322  0.0000171  0.0347758
 5841  0.3590205 -0.0000180  0.0303563
 5842  0.3158760  0.0000159  0.0347761
 5843  0.3538174 -0.0000178  0.0303565
 5844  0.3112979  0.0000155  0.0347763
 5845  0.3486142 -0.0000176  0.0303569
 5846  0.3434111 -0.0000174  0.0303572
 5847  0.3021420  0.0000148  0.0347770
 5848  0.3067199  0.0000151  0.0347766
 5849  0.3382080 -0.0000172  0.0303576
 5850  0.2975640  0.0000146  0.0347773
 5851  0.3330048 -0.0000169  0.0303580
 5852  0.2929860  0.0000143  0.0347777
 5853  0.3278017 -0.0000167  0.0303584
 5854  0.3225985 -0.0000164  0.0303587
 5855  0.2838302  0.0000138  0.0347785
 5856  0.2884081  0.0000141  0.0347781
 5857  0.3173953 -0.0000161  0.0303591
 5858  0.2792523  0.0000136  0.0347789
 5859  0.3121921 -0.0000159  0.0303595
 5860  0.2746744  0.0000134  0.0347793
 5861  0.3069889 -0.0000157  0.0303599
 5862  0.3017856 -0.0000154  0.0303603
 5863  0.2655185  0.0000129  0.0347800
 5864  0.2700964  0.0000131  0.0347797
 5865  0.2965823 -0.0000152  0.0303607
 5866  0.2609406  0.0000126  0.0347804
 5867  0.2913791 -0.0000149  0.0303610
 5868  0.2563628  0.0000123  0.0347808
 5869  0.2861758 -0.0000147  0.0303614
 5870  0.2809725 -0.0000145  0.0303618
 5871  0.2472070  0.0000119  0.0347816
 5872  0.2517849  0.0000121  0.0347812
 5873  0.2757692 -0.0000142  0.0303621
 5874  0.2426292  0.0000117  0.0347819
 5875  0.2705659 -0.0000139  0.0303625
 5876  0.2380514  0.0000115  0.0347822
 5877  0.2653626 -0.0000135  0.0303628
 5878  0.2601594 -0.0000131  0.0303630
 5879  0.2288958  0.0000115  0.0347826
 5880  0.2334736  0.0000114  0.0347825
 5881  0.2549562 -0.0000126  0.0303631
 5882  0.2243182  0.0000116  0.0347827
 5883  0.2497531 -0.0000119  0.0303630
 5884  0.2197405  0.0000119  0.0347826
 5885  0.2445500 -0.0000111  0.0303628
 5886  0.2393472 -0.0000101  0.0303623
 5887  0.2105855  0.0000133  0.0347816
 5888  0.2151630  0.0000125  0.0347822
 5889  0.2341444 -8.78e-006  0.0303614
 5890  0.2060082  0.0000145  0.0347806
 5891  0.2289419 -7.17e-006  0.0303600
 5892  0.2014310  0.0000161  0.0347790
 5893  0.2237397 -5.18e-006  0.0303581
 5894  0.2185378 -2.71e-006  0.0303553
 5895  0.1922771  0.0000210  0.0347739
 5896  0.1968540  0.0000182  0.0347769
 5897  0.2133364  3.31e-007  0.0303517
 5898  0.1877005  0.0000245  0.0347699
 5899  0.2081355  4.05e-006  0.0303469
 5900  0.1831241  0.0000289  0.0347647
 5901  0.2029352  8.58e-006  0.0303406
 5902  0.1977358  0.0000141  0.0303326
 5903  0.1739723  0.0000412  0.0347494
 5904  0.1785480  0.0000344  0.0347579
 5905  0.1925372  0.0000206  0.0303224
 5906  0.1693968  0.0000494  0.0347386
 5907  0.1873398  0.0000285  0.0303098
 5908  0.1648217  0.0000592  0.0347253
 5909  0.1821437  0.0000378  0.0302942
 5910  0.1769491  0.0000487  0.0302751
 5911  0.1556727  0.0000849  0.0346889
 5912  0.1602470  0.0000710  0.0347089
 5913  0.1717563  0.0000615  0.0302519
 5914  0.1510987  0.0001012  0.0346647
 5915  0.1665654  0.0000763  0.0302241
 5916  0.1465250  0.0001200  0.0346358
 5917  0.1613766  0.0000933  0.0301908
 5918  0.1561903  0.0001127  0.0301515
 5919  0.1373780  0.0001666  0.0345610
 5920  0.1419514  0.0001418  0.0346015
 5921  0.1510066  0.0001347  0.0301053
 5922  0.1328043  0.0001945  0.0345138
 5923  0.1458256  0.0001593  0.0300516
 5924  0.1282301  0.0002257  0.0344592
 5925  0.1406473  0.0001866  0.0299896
 5926  0.1354716  0.0002164  0.0299188
 5927  0.1190777  0.0002974  0.0343256
 5928  0.1236547  0.0002601  0.0343966
 5929  0.1302982  0.0002486  0.0298387
 5930  0.1144979  0.0003373  0.0342461
 5931  0.1251265  0.0002827  0.0297491
 5932  0.1099142  0.0003790  0.0341580
 5933  0.1199555  0.0003180  0.0296502
 5934  0.1147835  0.0003535  0.0295426
 5935  0.1007275  0.0004627  0.0339595
 5936  0.1053248  0.0004213  0.0340621
 5937  0.1096084  0.0003877  0.0294277
 5938  0.0961195  0.0005007  0.0338524
 5939  0.1044268  0.0004183  0.0293081
 5940  0.0914969  0.0005320  0.0337441
 5941  0.0992341  0.0004424  0.0291874
 5942  0.0940243  0.0004556  0.0290714
 5943  0.0821877  0.0005540  0.0335462
 5944  0.0868549  0.0005519  0.0336397
 5945  0.0887889  0.0004518  0.0289685
 5946  0.0774875  0.0005293  0.0334739
 5947  0.0835170  0.0004225  0.0288905
 5948  0.0727452  0.0004655  0.0334369
 5949  0.0781940  0.0003555  0.0288544
 5950  0.0728014  0.0002331  0.0288839
 5951  0.0630887  0.0001420  0.0335535
 5952  0.0679497  0.0003447  0.0334546
 5953  0.0673157  0.0000288  0.0290133
 5954  0.0581491 -0.0001790  0.0337691
 5955  0.0616957 -0.0002977  0.0292984
 5956  0.0531075 -0.0006758  0.0341496
 5957  0.0559207 -0.0008096  0.0298088
 5958  0.0499685 -0.0016088  0.0306277
 5959  0.0427442 -0.0025360  0.0357090
 5960  0.0479876 -0.0014218  0.0347632
 5961  0.0438048 -0.0028361  0.0318830
 5962  0.0374760 -0.0042122  0.0370619
 5963  0.0374817 -0.0047802  0.0337750
 5964  0.0322715 -0.0067393  0.0389485
 5965  0.0311025 -0.0078729  0.0365002
 5966  0.0250225 -0.0128592  0.0402744
 5967  0.0231468 -0.0162544  0.0445442
 5968  0.0273460 -0.0105449  0.0414591
 5969  0.0200220 -0.0209406  0.0451002
 5970  0.0203223 -0.0246945  0.0478563
 5971  0.0174354 -0.0338125  0.0502110
 5972  0.0196481 -0.0365978  0.0503503
 5973  0.0186668 -0.0526979  0.0531467
 5974  0.0235955 -0.0760581  0.0497033
 5975  0.0252156 -0.0685092  0.0448462
 5976  0.0215441 -0.0519026  0.0501165
 5977  0.0200279 -0.0267032  0.0489870
 5978  0.0202699 -0.0370382  0.0495590
 5979  0.0195631 -0.0359715  0.0484858
 5980  0.0189038 -0.0272920  0.0492025
 5981  0.0194123 -0.0200134  0.0485995
 5982  0.0214305 -0.0186536  0.0471651
 5983  0.0220903 -0.0490531  0.0475574
 5984  0.0246863 -0.0609387  0.0417633
 5985  0.0228979 -0.0539087  0.0398586
 5986  0.0211205 -0.0453179  0.0456189
 5987  0.0265533 -0.0699885  0.0320197
 5988  0.0283979 -0.0819765  0.0335145
 5989  0.0283600 -0.0872857  0.0178265
 5990  0.0261087 -0.0734125  0.0197889
 5991  0.0233404 -0.0623174  0.0214706
 5992  0.0239435 -0.0599827  0.0313888
 5993  0.0290071 -0.0970628  0.0365651
 5994  0.0298898 -0.1058363  0.0155763
 5995  0.0238167 -0.0970799 -0.0054210
 5996  0.0238587 -0.0819996  0.0021213
 5997  0.0132216 -0.0761129 -0.0186096
 5998  0.0161300 -0.0685542 -0.0092837
 5999  0.0226789 -0.0700102  0.0075161
 6000  0.0168832 -0.0609983 -0.0023271
 6001  0.0163782 -0.0539766  0.0028517
 6002  0.0207507 -0.0600163  0.0115024
 6003  0.0103448 -0.0491584 -0.0082334
 6004  0.0112262 -0.0454230 -0.0030828
 6005  0.0078992 -0.0519941 -0.0146291
 6006  0.0014049 -0.0367011 -0.0149381
 6007  0.0045803 -0.0371744 -0.0103267
 6008  0.0063747 -0.0361225 -0.0060507
 6009  0.0030728 -0.0527602 -0.0221027
 6010 -0.0033786 -0.0338805 -0.0192102
 6011  0.0003993 -0.0268523 -0.0098123
 6012 -0.0025010 -0.0248100 -0.0124852
 6013 -0.0042531 -0.0163959 -0.0092048
 6014 -0.0021292 -0.0188233 -0.0080162
 6015 -0.0003318 -0.0202123 -0.0062365
 6016  0.0024395 -0.0274741 -0.0068237
 6017 -0.0060134 -0.0210396 -0.0141412
 6018 -0.0062451 -0.0129730 -0.0093360
 6019 -0.0053971 -0.0079942 -0.0055687
 6020 -0.0046334 -0.0107025 -0.0061327
 6021 -0.0042569 -0.0049151 -0.0028516
 6022 -0.0043017 -0.0069069 -0.0036281
 6023 -0.0031648 -0.0029728 -0.0009627
 6024 -0.0022471 -0.0017245  0.0003071
 6025 -0.0029862 -0.0026950 -0.0003776
 6026 -0.0036764 -0.0043869 -0.0017409
 6027 -0.0015298 -0.0009024  0.0011300
 6028 -0.0023413 -0.0015398  0.0005647
 6029 -0.0027266 -0.0022473  0.0000588
 6030 -0.0027969 -0.0029517 -0.0003324
 6031 -0.0030788 -0.0046566 -0.0012020
 6032 -0.0032079 -0.0037075 -0.0008969
 6033 -0.0035876 -0.0057726 -0.0021938
 6034 -0.0037193 -0.0087245 -0.0038645
 6035 -0.0031531 -0.0069935 -0.0023072
 6036 -0.0028711 -0.0101866 -0.0036147
 6037 -0.0025757 -0.0079428 -0.0021300
 6038 -0.0020041 -0.0112065 -0.0030163
 6039 -0.0027503 -0.0054563 -0.0012928
 6040 -0.0023426 -0.0060596 -0.0012094
 6041 -0.0019951 -0.0085824 -0.0017438
 6042 -0.0012543 -0.0117834 -0.0022083
 6043 -0.0026575 -0.0035829 -0.0005817
 6044 -0.0024022 -0.0040931 -0.0006988
 6045 -0.0021051 -0.0044465 -0.0007060
 6046 -0.0018167 -0.0046346 -0.0006403
 6047 -0.0015975 -0.0065716 -0.0007172
 6048 -0.0019415 -0.0064299 -0.0009980
 6049 -0.0014968 -0.0089019 -0.0012320
 6050 -0.0006899 -0.0119470 -0.0013099
 6051 -0.0011177 -0.0089308 -0.0006738
 6052 -0.0003292 -0.0117512 -0.0004153
 6053 -0.0008728 -0.0086949 -0.0001270
 6054 -0.0001587 -0.0112605  0.0004095
 6055 -0.0013308 -0.0065015 -0.0004142
 6056 -0.0011441 -0.0062456 -0.0001254
 6057 -0.0007464 -0.0082415  0.0003632
 6058 -0.0001481 -0.0105327  0.0011215
 6059 -0.0015631 -0.0046623 -0.0005352
 6060 -0.0013563 -0.0045370 -0.0004192
 6061 -0.0011930 -0.0042806 -0.0003169
 6062 -0.0010584 -0.0039189 -0.0002452
 6063 -0.0009520 -0.0052960  0.0002964
 6064 -0.0010253 -0.0058328  0.0001174
 6065 -0.0007133 -0.0076157  0.0007670
 6066 -0.0002573 -0.0096243  0.0016897
 6067 -0.0007466 -0.0068559  0.0010608
 6068 -0.0004431 -0.0085876  0.0020968
 6069 -0.0008018 -0.0060016  0.0012371
 6070 -0.0006528 -0.0074692  0.0023413
 6071 -0.0008964 -0.0046676  0.0003993
 6072 -0.0008247 -0.0039811  0.0004216
 6073 -0.0008353 -0.0050949  0.0012943
 6074 -0.0008381 -0.0063058  0.0024190
 6075 -0.0009339 -0.0034743 -0.0002176
 6076 -0.0007930 -0.0029723 -0.0002357
 6077 -0.0006059 -0.0024440 -0.0002983
 6078 -0.0006974 -0.0032684  0.0003671
 6079 -0.0008041 -0.0041726  0.0012401
 6080 -0.0009429 -0.0051459  0.0023458
 6081 -0.0011378 -0.0061679  0.0037078
 6082 -0.0008535 -0.0075878  0.0038239
 6083 -0.0014184 -0.0071991  0.0053402
 6084 -0.0009145 -0.0089041  0.0055389
 6085 -0.0004719 -0.0090390  0.0037479
 6086 -0.0002895 -0.0106676  0.0054961
 6087  0.0003876 -0.0124421  0.0051969
 6088 -0.0000539 -0.0104711  0.0034615
 6089 -0.0001473 -0.0122825  0.0076114
 6090 -0.0010605 -0.0101961  0.0075730
 6091 -0.0013426 -0.0113964  0.0099265
 6092 -0.0001048 -0.0138090  0.0101003
 6093  0.0012409 -0.0163382  0.0099357
 6094  0.0008431 -0.0144303  0.0073524
 6095 -0.0018261 -0.0082043  0.0072544
 6096 -0.0023990 -0.0091321  0.0094417
 6097 -0.0031843 -0.0099287  0.0118744
 6098 -0.0018122 -0.0124343  0.0125753
 6099 -0.0002216 -0.0151425  0.0129478
 6100 -0.0005773 -0.0161886  0.0161005
 6101  0.0015569 -0.0193989  0.0163721
 6102  0.0015136 -0.0180426  0.0129606
 6103 -0.0012295 -0.0168477  0.0194802
 6104 -0.0022188 -0.0170569  0.0229670
 6105  0.0006326 -0.0205309  0.0239155
 6106  0.0012834 -0.0202552  0.0200777
 6107  0.0033215 -0.0211019  0.0125686
 6108  0.0038186 -0.0228716  0.0162479
 6109  0.0061363 -0.0266079  0.0156507
 6110  0.0050860 -0.0242380  0.0117306
 6111  0.0039241 -0.0215620  0.0084830
 6112  0.0026130 -0.0189467  0.0094018
 6113  0.0039707 -0.0240146  0.0203220
 6114  0.0036836 -0.0243906  0.0245596
 6115  0.0069479 -0.0287962  0.0248955
 6116  0.0068214 -0.0282724  0.0201458
 6117  0.0029221 -0.0239693  0.0287879
 6118  0.0064294 -0.0282230  0.0296298
 6119 -0.0004160 -0.0202099  0.0277437
 6120 -0.0018617 -0.0193060  0.0314206
 6121  0.0016844 -0.0227700  0.0328302
 6122  0.0053020 -0.0265031  0.0341039
 6123 -0.0035697 -0.0168045  0.0264454
 6124 -0.0052722 -0.0161030  0.0297971
 6125  0.0000731 -0.0209503  0.0364685
 6126 -0.0036414 -0.0179021  0.0347904
 6127 -0.0056775 -0.0161555  0.0377710
 6128 -0.0017821 -0.0187482  0.0395998
 6129  0.0020543 -0.0213640  0.0412276
 6130  0.0037409 -0.0240862  0.0379985
 6131 -0.0072814 -0.0150134  0.0329084
 6132 -0.0095467 -0.0136423  0.0357119
 6133 -0.0119755 -0.0120813  0.0381603
 6134 -0.0078364 -0.0142137  0.0403170
 6135 -0.0145141 -0.0104438  0.0402395
 6136 -0.0100675 -0.0122023  0.0424418
 6137 -0.0037086 -0.0163650  0.0422019
 6138 -0.0056502 -0.0139353  0.0443177
 6139 -0.0013079 -0.0155924  0.0459008
 6140  0.0003398 -0.0184913  0.0438449
 6141 -0.0075191 -0.0115648  0.0459728
 6142 -0.0122882 -0.0102119  0.0441481
 6143 -0.0144867 -0.0083209  0.0454753
 6144 -0.0092965 -0.0093454  0.0472166
 6145 -0.0041681 -0.0102400  0.0485495
 6146 -0.0028259 -0.0128094  0.0474457
 6147 -0.0171063 -0.0087984  0.0419484
 6148 -0.0197071 -0.0072253  0.0433154
 6149 -0.0222581 -0.0057785  0.0443906
 6150 -0.0165812 -0.0066050  0.0464827
 6151 -0.0279540 -0.0048882  0.0418088
 6152 -0.0309937 -0.0038103  0.0426526
 6153 -0.0247814 -0.0044805  0.0452019
 6154 -0.0185774 -0.0050904  0.0472281
 6155 -0.0335942 -0.0039909  0.0387456
 6156 -0.0371579 -0.0031249  0.0395860
 6157 -0.0272300 -0.0033476  0.0457951
 6158 -0.0339901 -0.0028649  0.0432841
 6159 -0.0369821 -0.0020582  0.0437440
 6160 -0.0296285 -0.0023993  0.0462167
 6161 -0.0222922 -0.0026845  0.0481094
 6162 -0.0204729 -0.0037743  0.0477567
 6163 -0.0407277 -0.0023541  0.0402239
 6164 -0.0443159 -0.0016961  0.0406987
 6165 -0.0478858 -0.0011407  0.0410340
 6166 -0.0399363 -0.0013810  0.0440608
 6167 -0.0514628 -0.0006944  0.0412506
 6168 -0.0428664 -0.0008428  0.0442679
 6169 -0.0319607 -0.0016074  0.0464956
 6170 -0.0342725 -0.0009796  0.0466754
 6171 -0.0256986 -0.0010784  0.0484641
 6172 -0.0240101 -0.0017878  0.0483314
 6173 -0.0365087 -0.0004794  0.0467678
 6174 -0.0457634 -0.0004086  0.0443889
 6175 -0.0486575 -0.0000880  0.0444420
 6176 -0.0387645 -0.0001070  0.0468064
 6177 -0.0288869 -0.0001136  0.0485397
 6178 -0.0272967 -0.0005237  0.0485245
 6179 -0.0550233 -0.0003320  0.0413773
 6180 -0.0585878 -0.0000647  0.0414399
 6181 -0.0621363  0.0001430  0.0414486
 6182 -0.0515287  0.0001587  0.0444477
 6183 -0.0656965  0.0002778  0.0414233
 6184 -0.0544083  0.0003217  0.0444191
 6185 -0.0409540  0.0001710  0.0467997
 6186 -0.0431766  0.0003613  0.0467709
 6187 -0.0319755  0.0003993  0.0484841
 6188 -0.0304317  0.0001925  0.0485213
 6189 -0.0453671  0.0004864  0.0467173
 6190 -0.0572798  0.0004403  0.0443667
 6191 -0.0601657  0.0005016  0.0442984
 6192 -0.0475822  0.0005550  0.0466560
 6193 -0.0350590  0.0006181  0.0483718
 6194 -0.0335138  0.0005387  0.0484301
 6195 -0.0692440  0.0003771  0.0413705
 6196 -0.0728092  0.0004284  0.0413038
 6197 -0.0763635  0.0004579  0.0412232
 6198 -0.0630348  0.0005359  0.0442284
 6199 -0.0799374  0.0004524  0.0411439
 6200 -0.0659161  0.0005330  0.0441552
 6201 -0.0497706  0.0005947  0.0465894
 6202 -0.0519951  0.0006007  0.0465249
 6203 -0.0381420  0.0006540  0.0482580
 6204 -0.0365911  0.0006548  0.0483143
 6205 -0.0542095  0.0005819  0.0464548
 6206 -0.0688096  0.0005271  0.0440780
 6207 -0.0717253  0.0004941  0.0440023
 6208 -0.0564626  0.0005441  0.0463915
 6209 -0.0413000  0.0006030  0.0481455
 6210 -0.0397113  0.0006377  0.0481991
 6211 -0.0835001  0.0004470  0.0410617
 6212 -0.0870865  0.0004183  0.0409843
 6213 -0.0906603  0.0003925  0.0409067
 6214 -0.0746231  0.0004630  0.0439371
 6215 -0.0942574  0.0003475  0.0408404
 6216 -0.0775366  0.0004139  0.0438772
 6217 -0.0586874  0.0005103  0.0463324
 6218 -0.0609559  0.0004666  0.0462820
 6219 -0.0444787  0.0005040  0.0480582
 6220 -0.0428777  0.0005593  0.0480993
 6221 -0.0632108  0.0004166  0.0462297
 6222 -0.0804631  0.0003820  0.0438184
 6223 -0.0834126  0.0003337  0.0437644
 6224 -0.0655083  0.0003615  0.0461864
 6225 -0.0477394  0.0004039  0.0479809
 6226 -0.0460994  0.0004556  0.0480164
 6227 -0.0978397  0.0003203  0.0407776
 6228 -0.1014479  0.0002785  0.0407231
 6229 -0.1050388  0.0002497  0.0406703
 6230 -0.0863376  0.0002986  0.0437223
 6231 -0.1086544  0.0002053  0.0406297
 6232 -0.0892777  0.0002503  0.0436859
 6233 -0.0677685  0.0003237  0.0461482
 6234 -0.0700745  0.0002829  0.0461185
 6235 -0.0510046  0.0003024  0.0479290
 6236 -0.0493614  0.0003551  0.0479527
 6237 -0.0723599  0.0002409  0.0460860
 6238 -0.0922289  0.0002273  0.0436500
 6239 -0.0952023  0.0001886  0.0436175
 6240 -0.0746896  0.0001965  0.0460614
 6241 -0.0543413  0.0002253  0.0478832
 6242 -0.0526647  0.0002640  0.0479036
 6243 -0.1122502  0.0001861  0.0405919
 6244 -0.1158731  0.0001527  0.0405611
 6245 -0.1194738  0.0001355  0.0405304
 6246 -0.0981440  0.0001669  0.0435956
 6247 -0.1231006  0.0001012  0.0405102
 6248 -0.1011000  0.0001304  0.0435775
 6249 -0.0769717  0.0001737  0.0460405
 6250 -0.0793015  0.0001482  0.0460265
 6251 -0.0576608  0.0001546  0.0478576
 6252 -0.0559918  0.0001918  0.0478689
 6253 -0.0816038  0.0001210  0.0460080
 6254 -0.1040655  0.0001224  0.0435582
 6255 -0.1070529  0.0000960  0.0435403
 6256 -0.0839528  0.0000902  0.0459959
 6257 -0.0610422  0.0001107  0.0478325
 6258 -0.0593443  0.0001335  0.0478432
 6259 -0.1267029  0.0000952  0.0404909
 6260 -0.1303340  0.0000723  0.0404762
 6261 -0.1339387  0.0000668  0.0404596
 6262 -0.1100020  0.0000876  0.0435312
 6263 -0.1375714  0.0000409  0.0404519
 6264 -0.1129656  0.0000611  0.0435245
 6265 -0.0862449  0.0000825  0.0459859
 6266 -0.0885877  0.0000702  0.0459814
 6267 -0.0643890  0.0000687  0.0478228
 6268 -0.0627069  0.0000925  0.0478268
 6269 -0.0908973  0.0000545  0.0459711
 6270 -0.1159381  0.0000651  0.0435148
 6271 -0.1189329  0.0000473  0.0435052
 6272 -0.0932570  0.0000330  0.0459660
 6273 -0.0677933  0.0000497  0.0478094
 6274 -0.0660843  0.0000611  0.0478147
 6275 -0.1411756  0.0000455  0.0404435
 6276 -0.1448110  0.0000298  0.0404377
 6277 -0.1484162  0.0000322  0.0404287
 6278 -0.1218840  0.0000480  0.0435030
 6279 -0.1520521  0.0000111  0.0404276
 6280 -0.1248504  0.0000273  0.0435021
 6281 -0.0955518  0.0000358  0.0459619
 6282 -0.0979012  0.0000320  0.0459624
 6283 -0.0711508  0.0000260  0.0478081
 6284 -0.0694634  0.0000417  0.0478083
 6285 -0.1002126  0.0000231  0.0459562
 6286 -0.1278258  0.0000391  0.0434974
 6287 -0.1308248  0.0000258  0.0434918
 6288 -0.1025785  6.54e-006  0.0459545
 6289 -0.0745661  0.0000220  0.0478005
 6290 -0.0728514  0.0000268  0.0478031
 6291 -0.1556559  0.0000225  0.0404247
 6292 -0.1592936  0.0000106  0.0404232
 6293 -0.1628979  0.0000177  0.0404177
 6294 -0.1337751  0.0000319  0.0434928
 6295 -0.1665356 -1.68e-006  0.0404196
 6296 -0.1367421  0.0000135  0.0434946
 6297 -0.1048722  0.0000156  0.0459531
 6298 -0.1072250  0.0000163  0.0459559
 6299 -0.0779258  7.95e-006  0.0478030
 6300 -0.0762369  0.0000196  0.0478015
 6301 -0.1095357  0.0000107  0.0459515
 6302 -0.1397186  0.0000299  0.0434920
 6303 -0.1427202  0.0000184  0.0434880
 6304 -0.1119057 -4.02e-006  0.0459512
 6305 -0.0813463  0.0000117  0.0477979
 6306 -0.0796285  0.0000134  0.0477993
 6307 -0.1701381  0.0000140  0.0404191
 6308 -0.1737773  3.36e-006  0.0404194
 6309 -0.1773800  0.0000132  0.0404151
 6310 -0.1456685  0.0000274  0.0434904
 6311 -0.1810192 -6.30e-006  0.0404183
 6312 -0.1486352  9.24e-006  0.0434932
 6313 -0.1141966  8.54e-006  0.0459510
 6314 -0.1165516  0.0000115  0.0459546
 6315 -0.0847046  1.75e-006  0.0478020
 6316 -0.0830159  0.0000120  0.0477998
 6317 -0.1188605  7.10e-006  0.0459509
 6318 -0.1516121  0.0000285  0.0434915
 6319 -0.1546159  0.0000173  0.0434880
 6320 -0.1212338 -7.49e-006  0.0459511
 6321 -0.0881280  9.22e-006  0.0477978
 6322 -0.0864081  9.58e-006  0.0477988
 6323 -0.1846200  0.0000120  0.0404188
 6324 -0.1882607  1.45e-006  0.0404195
 6325 -0.1918617  0.0000128  0.0404155
 6326 -0.1575618  0.0000280  0.0434907
 6327 -0.1955022 -7.67e-006  0.0404191
 6328 -0.1605280  8.86e-006  0.0434939
 6329 -0.1235213  7.11e-006  0.0459513
 6330 -0.1258780  0.0000111  0.0459551
 6331 -0.0914836  3.74e-007  0.0478023
 6332 -0.0897955  0.0000105  0.0478000
 6333 -0.1281850  6.91e-006  0.0459516
 6334 -0.1635051  0.0000301  0.0434924
 6335 -0.1665109  0.0000183  0.0434890
 6336 -0.1305613 -8.44e-006  0.0459519
 6337 -0.0949092  9.48e-006  0.0477984
 6338 -0.0931875  9.49e-006  0.0477993
 6339 -0.1991013  0.0000125  0.0404200
 6340 -0.2027433  1.38e-006  0.0404207
 6341 -0.2063426  0.0000137  0.0404167
 6342 -0.1694544  0.0000301  0.0434918
 6343 -0.2099845 -8.14e-006  0.0404205
 6344 -0.1724199  9.60e-006  0.0434951
 6345 -0.1328453  7.53e-006  0.0459522
 6346 -0.1352036  0.0000120  0.0459561
 6347 -0.0982616  4.41e-007  0.0478031
 6348 -0.0965744  0.0000111  0.0478008
 6349 -0.1375084  7.57e-006  0.0459526
 6350 -0.1753973  0.0000324  0.0434937
 6351 -0.1784051  0.0000198  0.0434903
 6352 -0.1398878 -8.86e-006  0.0459530
 6353 -0.1016892  0.0000103  0.0477992
 6354 -0.0999658  0.0000104  0.0478000
 6355 -0.2135819  0.0000136  0.0404215
 6356 -0.2172253  1.64e-006  0.0404221
 6357 -0.2208230  0.0000148  0.0404180
 6358 -0.1813462  0.0000324  0.0434931
 6359 -0.2244663 -8.57e-006  0.0404219
 6360 -0.1843111  0.0000104  0.0434964
 6361 -0.1421682  8.24e-006  0.0459532
 6362 -0.1445281  0.0000130  0.0459571
 6363 -0.1050384  6.59e-007  0.0478039
 6364 -0.1033521  0.0000121  0.0478016
 6365 -0.1468308  8.25e-006  0.0459536
 6366 -0.1872886  0.0000347  0.0434950
 6367 -0.1902984  0.0000213  0.0434916
 6368 -0.1492133 -9.29e-006  0.0459540
 6369 -0.1084680  0.0000112  0.0478000
 6370 -0.1067429  0.0000113  0.0478008
 6371 -0.2280620  0.0000146  0.0404231
 6372 -0.2317068  1.85e-006  0.0404235
 6373 -0.2353027  0.0000159  0.0404192
 6374 -0.1932371  0.0000347  0.0434943
 6375 -0.2389474 -8.96e-006  0.0404233
 6376 -0.1962013  0.0000113  0.0434976
 6377 -0.1514901  8.96e-006  0.0459543
 6378 -0.1538516  0.0000141  0.0459581
 6379 -0.1118140  1.02e-006  0.0478046
 6380 -0.1101286  0.0000131  0.0478024
 6381 -0.1561522  9.21e-006  0.0459546
 6382 -0.1991791  0.0000372  0.0434962
 6383 -0.2021909  0.0000231  0.0434926
 6384 -0.1585377 -9.20e-006  0.0459548
 6385 -0.1152457  0.0000127  0.0478006
 6386 -0.1135188  0.0000125  0.0478014
 6387 -0.2425415  0.0000158  0.0404246
 6388 -0.2461876  2.39e-006  0.0404247
 6389 -0.2497819  0.0000175  0.0404202
 6390 -0.2051271  0.0000377  0.0434951
 6391 -0.2534279 -8.46e-006  0.0404242
 6392 -0.2080908  0.0000133  0.0434983
 6393 -0.1608111  0.0000105  0.0459550
 6394 -0.1631741  0.0000165  0.0459587
 6395 -0.1185887  2.82e-006  0.0478050
 6396 -0.1169041  0.0000150  0.0478030
 6397 -0.1654728  0.0000120  0.0459548
 6398 -0.2110688  0.0000413  0.0434966
 6399 -0.2140827  0.0000272  0.0434926
 6400 -0.1678615 -6.61e-006  0.0459547
 6401 -0.1220228  0.0000169  0.0478005
 6402 -0.1202940  0.0000158  0.0478015
 6403 -0.2570202  0.0000184  0.0404252
 6404 -0.2606677  4.74e-006  0.0404248
 6405 -0.2642603  0.0000216  0.0404195
 6406 -0.2170166  0.0000437  0.0434945
 6407 -0.2679077 -4.76e-006  0.0404228
 6408 -0.2199798  0.0000191  0.0434969
 6409 -0.1701315  0.0000154  0.0459544
 6410 -0.1724966  0.0000233  0.0459574
 6411 -0.1253635  9.41e-006  0.0478039
 6412 -0.1236793  0.0000206  0.0478025
 6413 -0.1747937  0.0000204  0.0459527
 6414 -0.2229583  0.0000503  0.0434943
 6415 -0.2259747  0.0000375  0.0434889
 6416 -0.1771862  3.03e-006  0.0459514
 6417 -0.1288014  0.0000289  0.0477978
 6418 -0.1270698  0.0000252  0.0477997
 6419 -0.2714984  0.0000250  0.0404230
 6420 -0.2751473  0.0000123  0.0404210
 6421 -0.2787384  0.0000322  0.0404137
 6422 -0.2289068  0.0000574  0.0434890
 6423 -0.2823875  7.05e-006  0.0404148
 6424 -0.2318703  0.0000345  0.0434894
 6425 -0.1794537  0.0000291  0.0459496
 6426 -0.1818216  0.0000408  0.0459508
 6427 -0.1321420  0.0000278  0.0477988
 6428 -0.1304568  0.0000358  0.0477988
 6429 -0.1841185  0.0000419  0.0459438
 6430 -0.2348501  0.0000709  0.0434841
 6431 -0.2378701  0.0000618  0.0434754
 6432 -0.1865164  0.0000286  0.0459398
 6433 -0.1355873  0.0000583  0.0477888
 6434 -0.1338510  0.0000491  0.0477928
 6435 -0.2859770  0.0000416  0.0404122
 6436 -0.2896280  0.0000319  0.0404065
 6437 -0.2932183  0.0000573  0.0403946
 6438 -0.2408018  0.0000880  0.0434715
 6439 -0.2968700  0.0000361  0.0403906
 6440 -0.2437674  0.0000700  0.0434670
 6441 -0.1887834  0.0000619  0.0459347
 6442 -0.1911569  0.0000811  0.0459317
 6443 -0.1389336  0.0000709  0.0477840
 6444 -0.1372443  0.0000719  0.0477872
 6445 -0.1934566  0.0000901  0.0459198
 6446 -0.2467509  0.0001153  0.0434560
 6447 -0.2497773  0.0001139  0.0434402
 6448 -0.1958639  0.0000853  0.0459099
 6449 -0.1423948  0.0001213  0.0477658
 6450 -0.1406490  0.0001019  0.0477742
 6451 -0.3004595  0.0000784  0.0403816
 6452 -0.3041141  0.0000754  0.0403680
 6453 -0.3077057  0.0001100  0.0403468
 6454 -0.2527122  0.0001507  0.0434281
 6455 -0.3113626  0.0000969  0.0403321
 6456 -0.2556840  0.0001422  0.0434140
 6457 -0.1981351  0.0001306  0.0458979
 6458 -0.2005198  0.0001623  0.0458870
 6459 -0.1457592  0.0001583  0.0477498
 6460 -0.1440591  0.0001468  0.0477590
 6461 -0.2028293  0.0001848  0.0458658
 6462 -0.2586763  0.0002015  0.0433918
 6463 -0.2617153  0.0002129  0.0433633
 6464 -0.2052538  0.0001939  0.0458454
 6465 -0.1492538  0.0002401  0.0477168
 6466 -0.1474892  0.0002047  0.0477330
 6467 -0.3149552  0.0001515  0.0403108
 6468 -0.3186173  0.0001596  0.0402826
 6469 -0.3222150  0.0002082  0.0402447
 6470 -0.2646608  0.0002654  0.0433365
 6471 -0.3258830  0.0002077  0.0402115
 6472 -0.2676478  0.0002715  0.0433063
 6473 -0.2075389  0.0002566  0.0458216
 6474 -0.2099458  0.0003061  0.0457975
 6475 -0.1526600  0.0003121  0.0476826
 6476 -0.1509364  0.0002830  0.0477014
 6477 -0.2122778  0.0003462  0.0457620
 6478 -0.2706594  0.0003489  0.0432663
 6479 -0.2737232  0.0003765  0.0432182
 6480 -0.2147346  0.0003723  0.0457263
 6481 -0.1562192  0.0004320  0.0476287
 6482 -0.1544191  0.0003780  0.0476556
 6483 -0.3294860  0.0002788  0.0401696
 6484 -0.3331644  0.0003016  0.0401184
 6485 -0.3367787  0.0003665  0.0400559
 6486 -0.2766936  0.0004466  0.0431708
 6487 -0.3404704  0.0003795  0.0399969
 6488 -0.2797124  0.0004668  0.0431194
 6489 -0.2170504  0.0004535  0.0456866
 6490 -0.2194989  0.0005189  0.0456466
 6491 -0.1597068  0.0005361  0.0475734
 6492 -0.1579387  0.0004924  0.0476025
 6493 -0.2218752  0.0005710  0.0455957
 6494 -0.2827623  0.0005587  0.0430581
 6495 -0.2858729  0.0005946  0.0429898
 6496 -0.2243881  0.0006031  0.0455466
 6497 -0.1633782  0.0006722  0.0475031
 6498 -0.1615179  0.0006136  0.0475370
 6499 -0.3440990  0.0004652  0.0399284
 6500 -0.3478117  0.0004976  0.0398509
 6501 -0.3514644  0.0005689  0.0397636
 6502 -0.2888933  0.0006683  0.0429251
 6503 -0.3552054  0.0005792  0.0396840
 6504 -0.2919720  0.0006806  0.0428612
 6505 -0.2267611  0.0006846  0.0454966
 6506 -0.2292795  0.0007381  0.0454519
 6507 -0.1670001  0.0007530  0.0474463
 6508 -0.1651607  0.0007280  0.0474736
 6509 -0.2317300  0.0007620  0.0454040
 6510 -0.2950916  0.0007547  0.0427948
 6511 -0.2982835  0.0007525  0.0427327
 6512 -0.2343297  0.0007435  0.0453691
 6513 -0.1708354  0.0007927  0.0474048
 6514 -0.1688901  0.0007950  0.0474192
 6515 -0.3588900  0.0006551  0.0396016
 6516 -0.3626725  0.0006614  0.0395200
 6517 -0.3664048  0.0006888  0.0394439
 6518 -0.3013908  0.0007650  0.0426902
 6519 -0.3702422  0.0006262  0.0393974
 6520 -0.3045677  0.0006810  0.0426707
 6521 -0.2367896  0.0007475  0.0453487
 6522 -0.2394044  0.0006837  0.0453541
 6523 -0.1746263  0.0006420  0.0474315
 6524 -0.1727020  0.0007550  0.0474083
 6525 -0.2419484  0.0005380  0.0453822
 6526 -0.3077943  0.0006170  0.0426782
 6527 -0.3111023  0.0004167  0.0427292
 6528 -0.2446403  0.0002804  0.0454606
 6529 -0.1786095  0.0002172  0.0475590
 6530 -0.1765971  0.0004908  0.0474760
 6531 -0.3740361  0.0005961  0.0393780
 6532 -0.3779470  0.0004455  0.0393994
 6533 -0.3818186  0.0002481  0.0394791
 6534 -0.3143182  0.0001539  0.0428447
 6535 -0.3858117 -0.0001334  0.0396630
 6536 -0.3175993 -0.0003352  0.0430560
 6537 -0.2471202 -0.0000419  0.0455893
 6538 -0.2497670 -0.0005710  0.0458035
 6539 -0.1823954 -0.0007534  0.0478759
 6540 -0.1804274 -0.0001594  0.0476895
 6541 -0.2521783 -0.0012664  0.0460815
 6542 -0.3208484 -0.0009015  0.0433617
 6543 -0.3241098 -0.0018715  0.0437981
 6544 -0.2547420 -0.0023179  0.0464676
 6545 -0.1858547 -0.0026340  0.0484243
 6546 -0.1840465 -0.0015306  0.0481113
 6547 -0.3897597 -0.0005983  0.0399524
 6548 -0.3937515 -0.0013954  0.0404114
 6549 -0.3975486 -0.0024628  0.0410781
 6550 -0.3271002 -0.0031151  0.0444096
 6551 -0.4013794 -0.0040225  0.0419942
 6552 -0.3301013 -0.0048513  0.0451960
 6553 -0.2570000 -0.0036639  0.0469675
 6554 -0.2591507 -0.0055979  0.0475515
 6555 -0.1886593 -0.0060791  0.0491463
 6556 -0.1873117 -0.0040640  0.0487628
 6557 -0.2607757 -0.0081125  0.0482070
 6558 -0.3327083 -0.0072479  0.0461293
 6559 -0.3348472 -0.0105803  0.0472072
 6560 -0.2621235 -0.0113585  0.0488205
 6561 -0.1902011 -0.0115806  0.0496693
 6562 -0.1896635 -0.0085115  0.0494751
 6563 -0.4050537 -0.0061586  0.0431823
 6564 -0.4084571 -0.0093175  0.0446499
 6565 -0.4110160 -0.0136546  0.0463437
 6566 -0.3363527 -0.0148506  0.0482418
 6567 -0.4127114 -0.0195808  0.0480468
 6568 -0.3369590 -0.0204581  0.0489558
 6569 -0.2625418 -0.0154741  0.0492548
 6570 -0.2623375 -0.0205700  0.0492749
 6571 -0.1889239 -0.0199873  0.0490120
 6572 -0.1897969 -0.0154383  0.0495568
 6573 -0.2612149 -0.0264931  0.0484557
 6574 -0.3363918 -0.0273921  0.0489645
 6575 -0.3350441 -0.0354168  0.0476250
 6576 -0.2594713 -0.0330671  0.0464547
 6577 -0.1851415 -0.0303786  0.0452767
 6578 -0.1873497 -0.0250347  0.0476116
 6579 -0.4131631 -0.0273334  0.0491851
 6580 -0.4121644 -0.0370420  0.0489577
 6581 -0.4098802 -0.0478635  0.0463518
 6582 -0.3328276 -0.0438149  0.0443238
 6583 -0.2570893 -0.0396352  0.0428126
 6584 -0.2548049 -0.0454083  0.0374892
 6585 -0.1796822 -0.0398634  0.0365736
 6586 -0.1823314 -0.0354892  0.0415407
 6587 -0.2534405 -0.0494082  0.0306623
 6588 -0.2536305 -0.0508680  0.0230697
 6589 -0.1777851 -0.0440399  0.0239936
 6590 -0.1779344 -0.0429133  0.0305095
 6591 -0.1083607 -0.0315476  0.0403887
 6592 -0.1049276 -0.0347193  0.0357171
 6593 -0.0303071 -0.0301664  0.0348259
 6594 -0.0357699 -0.0278658  0.0392559
 6595 -0.0399460 -0.0246764  0.0427951
 6596 -0.1118262 -0.0275798  0.0440424
 6597 -0.1020508 -0.0371780  0.0301598
 6598 -0.1012266 -0.0382663  0.0246100
 6599 -0.0226785 -0.0337005  0.0249096
 6600 -0.0247369 -0.0316760  0.0295235
 6601 -0.1030358 -0.0371743  0.0190478
 6602 -0.0250499 -0.0316643  0.0202850
 6603 -0.1795773 -0.0429122  0.0174679
 6604 -0.1829833 -0.0398629  0.0113782
 6605 -0.1069320 -0.0347135  0.0134580
 6606 -0.0309977 -0.0301620  0.0149641
 6607 -0.2557319 -0.0494084  0.0154696
 6608 -0.2594022 -0.0454079  0.0086204
 6609 -0.1114618 -0.0315488  0.0087625
 6610 -0.1873064 -0.0354939  0.0063854
 6611 -0.1918118 -0.0303644  0.0026136
 6612 -0.1160242 -0.0275668  0.0050760
 6613 -0.0415678 -0.0247129  0.0069606
 6614 -0.0369869 -0.0278803  0.0105180
 6615 -0.2639990 -0.0396275  0.0032741
 6616 -0.2687134 -0.0330782 -0.0004040
 6617 -0.2727845 -0.0264851 -0.0024332
 6618 -0.1957173 -0.0250372  0.0002480
 6619 -0.2761466 -0.0205413 -0.0032505
 6620 -0.1989299 -0.0199926 -0.0011533
 6621 -0.1198914 -0.0232160  0.0024839
 6622 -0.1229707 -0.0189145  0.0006551
 6623 -0.0478479 -0.0175188  0.0022099
 6624 -0.0452507 -0.0211185  0.0042213
 6625 -0.1253309 -0.0149842 -0.0003387
 6626 -0.2014909 -0.0154635 -0.0017168
 6627 -0.2036406 -0.0115720 -0.0018490
 6628 -0.1272235 -0.0115076 -0.0008920
 6629 -0.0513886 -0.0111174  0.0001411
 6630 -0.0498815 -0.0141933  0.0009682
 6631 -0.2787476 -0.0154620 -0.0032558
 6632 -0.2806764 -0.0113073 -0.0028419
 6633 -0.2817044 -0.0081127 -0.0021833
 6634 -0.2048635 -0.0085103 -0.0016585
 6635 -0.3594211 -0.0072402 -0.0026204
 6636 -0.3598025 -0.0048466 -0.0017236
 6637 -0.2823735 -0.0056176 -0.0015840
 6638 -0.2055574 -0.0060828 -0.0013343
 6639 -0.4375986 -0.0061555 -0.0026911
 6640 -0.4376037 -0.0040009 -0.0015560
 6641 -0.2826079 -0.0036570 -0.0010044
 6642 -0.3597775 -0.0031118 -0.0009091
 6643 -0.3597746 -0.0018639 -0.0002962
 6644 -0.2826898 -0.0023184 -0.0005035
 6645 -0.2061569 -0.0026317 -0.0006139
 6646 -0.2059042 -0.0040567 -0.0009491
 6647 -0.4373441 -0.0024631 -0.0006524
 6648 -0.4371295 -0.0014000  0.0000144
 6649 -0.4367369 -0.0006185  0.0004672
 6650 -0.3594912 -0.0009089  0.0001341
 6651 -0.4364346 -0.0001341  0.0007577
 6652 -0.3592163 -0.0003298  0.0004384
 6653 -0.2824528 -0.0012674 -0.0001257
 6654 -0.2823940 -0.0005769  0.0001550
 6655 -0.2061067 -0.0007528 -0.0000741
 6656 -0.2060358 -0.0015270 -0.0003079
 6657 -0.2819743 -0.0000173  0.0003661
 6658 -0.3588465  0.0001647  0.0006492
 6659 -0.3585943  0.0003997  0.0007610
 6660 -0.2819013  0.0003099  0.0004924
 6661 -0.2056457  0.0001975  0.0002394
 6662 -0.2057686 -0.0001555  0.0001116
 6663 -0.4361166  0.0002564  0.0009408
 6664 -0.4358759  0.0004304  0.0010226
 6665 -0.4355771  0.0006071  0.0010448
 6666 -0.3582711  0.0006247  0.0008164
 6667 -0.4354109  0.0006263  0.0010223
 6668 -0.3580761  0.0006830  0.0008221
 6669 -0.2814704  0.0005616  0.0005711
 6670 -0.2813653  0.0006823  0.0006026
 6671 -0.2051203  0.0006414  0.0003751
 6672 -0.2053361  0.0004946  0.0003234
 6673 -0.2810744  0.0007501  0.0006043
 6674 -0.3578740  0.0007759  0.0008038
 6675 -0.3577526  0.0007597  0.0007578
 6676 -0.2809601  0.0007413  0.0005839
 6677 -0.2047328  0.0007970  0.0003943
 6678 -0.2048958  0.0007581  0.0003919
 6679 -0.4351846  0.0006932  0.0009761
 6680 -0.4350811  0.0006624  0.0009022
 6681 -0.4349116  0.0006611  0.0008176
 6682 -0.3575240  0.0007662  0.0006984
 6683 -0.4348551  0.0005769  0.0007373
 6684 -0.3573733  0.0006852  0.0006346
 6685 -0.2806737  0.0007659  0.0005490
 6686 -0.2805646  0.0007437  0.0005048
 6687 -0.2042729  0.0007542  0.0003571
 6688 -0.2044705  0.0008005  0.0003818
 6689 -0.2803674  0.0006885  0.0004563
 6690 -0.3572681  0.0006822  0.0005686
 6691 -0.3572355  0.0006034  0.0005005
 6692 -0.2803440  0.0006006  0.0004064
 6693 -0.2040548  0.0006775  0.0002960
 6694 -0.2041322  0.0007328  0.0003269
 6695 -0.4347252  0.0005748  0.0006570
 6696 -0.4347022  0.0004990  0.0005713
 6697 -0.4346008  0.0004724  0.0004905
 6698 -0.3570860  0.0005726  0.0004351
 6699 -0.4346017  0.0003767  0.0004244
 6700 -0.3570047  0.0004721  0.0003764
 6701 -0.2801412  0.0005756  0.0003572
 6702 -0.2801083  0.0005254  0.0003100
 6703 -0.2037562  0.0005375  0.0002301
 6704 -0.2038757  0.0006201  0.0002640
 6705 -0.2799793  0.0004581  0.0002663
 6706 -0.3569599  0.0004629  0.0003228
 6707 -0.3569795  0.0003868  0.0002721
 6708 -0.2800164  0.0003694  0.0002266
 6709 -0.2036752  0.0004381  0.0001705
 6710 -0.2036875  0.0004981  0.0001980
 6711 -0.4345197  0.0003735  0.0003648
 6712 -0.4345365  0.0003033  0.0003036
 6713 -0.4344680  0.0002870  0.0002492
 6714 -0.3568746  0.0003650  0.0002268
 6715 -0.4344961  0.0002046  0.0002097
 6716 -0.3568313  0.0002776  0.0001894
 6717 -0.2798665  0.0003514  0.0001909
 6718 -0.2798797  0.0003136  0.0001591
 6719 -0.2034862  0.0003138  0.0001209
 6720 -0.2035542  0.0003853  0.0001455
 6721 -0.2797903  0.0002619  0.0001313
 6722 -0.3568186  0.0002839  0.0001571
 6723 -0.3568654  0.0002247  0.0001270
 6724 -0.2798616  0.0001905  0.0001075
 6725 -0.2034892  0.0002471  0.0000824
 6726 -0.2034625  0.0002896  0.0000991
 6727 -0.4344362  0.0002162  0.0001761
 6728 -0.4344712  0.0001615  0.0001395
 6729 -0.4344174  0.0001608  0.0001078
 6730 -0.3567830  0.0002199  0.0001012
 6731 -0.4344574  0.0000933  0.0000891
 6732 -0.3567586  0.0001492  0.0000817
 6733 -0.2797406  0.0001907  0.0000871
 6734 -0.2797782  0.0001709  0.0000696
 6735 -0.2033621  0.0001602  0.0000537
 6736 -0.2034016  0.0002130  0.0000681
 6737 -0.2797093  0.0001365  0.0000550
 6738 -0.3567615  0.0001715  0.0000657
 6739 -0.3568210  0.0001271  0.0000500
 6740 -0.2797976  0.0000815  0.0000430
 6741 -0.2034096  0.0001292  0.0000334
 6742 -0.2033626  0.0001543  0.0000414
 6743 -0.4344070  0.0001191  0.0000741
 6744 -0.4344496  0.0000775  0.0000540
 6745 -0.4344018  0.0000887  0.0000368
 6746 -0.3567491  0.0001361  0.0000370
 6747 -0.4344465  0.0000320  0.0000306
 6748 -0.3567330  0.0000777  0.0000287
 6749 -0.2796906  0.0000967  0.0000331
 6750 -0.2797398  0.0000906  0.0000249
 6751 -0.2033134  0.0000730  0.0000195
 6752 -0.2033389  0.0001111  0.0000269
 6753 -0.2796802  0.0000685  0.0000182
 6754 -0.3567427  0.0001111  0.0000223
 6755 -0.3568076  0.0000765  0.0000149
 6756 -0.2797761  0.0000244  0.0000131
 6757 -0.2033815  0.0000670  0.0000104
 6758 -0.2033253  0.0000803  0.0000132
 6759 -0.4343998  0.0000674  0.0000265
 6760 -0.4344452  0.0000343  0.0000156
 6761 -0.4343996  0.0000529  6.06e-006
 6762 -0.3567399  0.0000940  8.81e-006
 6763 -0.4344458  2.55e-006  6.35e-006
 6764 -0.3567270  0.0000430  6.36e-006
 6765 -0.2796751  0.0000492  9.10e-006
 6766 -0.2797290  0.0000513  5.79e-006
 6767 -0.2032986  0.0000301  4.69e-006
 6768 -0.2033182  0.0000592  8.38e-006
 6769 -0.2796731  0.0000364  3.22e-006
 6770 -0.3567392  0.0000828  4.79e-006
 6771 -0.3568060  0.0000536  1.42e-006
 6772 -0.2797718 -1.64e-006  1.51e-006
 6773 -0.2033750  0.0000385  1.34e-006
 6774 -0.2033152  0.0000452  1.58e-006
 6775 -0.4344002  0.0000434  7.60e-006
 6776 -0.4344464  0.0000149  1.08e-006
 6777 -0.4344012  0.0000374 -4.82e-006
 6778 -0.3567396  0.0000757 -1.37e-006
 6779 -0.4344477 -9.68e-006 -1.64e-006
 6780 -0.3567277  0.0000285 -1.16e-006
 6781 -0.2796730  0.0000283  2.93e-007
 6782 -0.2797284  0.0000348 -7.64e-007
 6783 -0.2032969  0.0000119 -4.55e-007
 6784 -0.2033145  0.0000363  1.49e-006
 6785 -0.2796737  0.0000234 -1.51e-006
 6786 -0.3567405  0.0000714 -6.05e-007
 6787 -0.3568077  0.0000448 -2.29e-006
 6788 -0.2797731 -0.0000117 -1.78e-006
 6789 -0.2033759  0.0000274 -1.28e-006
 6790 -0.2033150  0.0000309 -2.16e-006
 6791 -0.4344022  0.0000339  1.93e-006
 6792 -0.4344485  7.59e-006 -2.77e-006
 6793 -0.4344032  0.0000319 -7.24e-006
 6794 -0.3567416  0.0000690 -3.76e-006
 6795 -0.4344496 -0.0000138 -2.97e-006
 6796 -0.3567298  0.0000235 -2.55e-006
 6797 -0.2796748  0.0000206 -1.87e-006
 6798 -0.2797305  0.0000290 -2.05e-006
 6799 -0.2032990  5.53e-006 -1.51e-006
 6800 -0.2033161  0.0000278 -2.54e-007
 6801 -0.2796759  0.0000192 -2.13e-006
 6802 -0.3567426  0.0000677 -1.21e-006
 6803 -0.3568097  0.0000422 -2.32e-006
 6804 -0.2797753 -0.0000147 -1.89e-006
 6805 -0.2033782  0.0000240 -1.42e-006
 6806 -0.2033172  0.0000262 -2.69e-006
 6807 -0.4344040  0.0000309  1.42e-006
 6808 -0.4344501  5.47e-006 -2.66e-006
 6809 -0.4344047  0.0000304 -6.69e-006
 6810 -0.3567434  0.0000672 -3.37e-006
 6811 -0.4344509 -0.0000147 -2.10e-006
 6812 -0.3567315  0.0000223 -1.85e-006
 6813 -0.2796769  0.0000186 -1.61e-006
 6814 -0.2797325  0.0000276 -1.52e-006
 6815 -0.2033011  3.96e-006 -1.14e-006
 6816 -0.2033183  0.0000255 -9.63e-008
 6817 -0.2796776  0.0000183 -1.41e-006
 6818 -0.3567440  0.0000670 -2.99e-007
 6819 -0.3568109  0.0000418 -1.26e-006
 6820 -0.2797769 -0.0000152 -1.04e-006
 6821 -0.2033799  0.0000234 -7.88e-007
 6822 -0.2033192  0.0000252 -2.17e-006
 6823 -0.4344051  0.0000303  2.51e-006
 6824 -0.4344510  5.17e-006 -1.43e-006
 6825 -0.4344054  0.0000303 -5.36e-006
 6826 -0.3567445  0.0000670 -2.22e-006
 6827 -0.4344515 -0.0000148 -7.19e-007
 6828 -0.3567323  0.0000223 -6.37e-007
 6829 -0.2796782  0.0000183 -6.70e-007
 6830 -0.2797335  0.0000275 -5.28e-007
 6831 -0.2033023  3.81e-006 -3.99e-007
 6832 -0.2033198  0.0000251  6.02e-007
 6833 -0.2796784  0.0000183 -3.83e-007
 6834 -0.3567447  0.0000670  9.44e-007
 6835 -0.3568114  0.0000419  7.19e-012
 6836 -0.2797774 -0.0000152  6.21e-012
 6837 -0.2033805  0.0000234  4.96e-012
 6838 -0.2033201  0.0000252 -1.40e-006
 6839 -0.4344055  0.0000303  3.93e-006
 6840 -0.4344513  5.20e-006  7.89e-012
 6841 -0.4344055  0.0000303 -3.93e-006
 6842 -0.3567447  0.0000670 -9.44e-007
 6843 -0.4344515 -0.0000148  7.19e-007
 6844 -0.3567323  0.0000223  6.37e-007
 6845 -0.2796784  0.0000183  3.83e-007
 6846 -0.2797335  0.0000275  5.28e-007
 6847 -0.2033023  3.81e-006  3.99e-007
 6848 -0.2033201  0.0000252  1.40e-006
 6849 -0.2796782  0.0000183  6.70e-007
 6850 -0.3567445  0.0000670  2.22e-006
 6851 -0.3568109  0.0000418  1.26e-006
 6852 -0.2797769 -0.0000152  1.04e-006
 6853 -0.2033799  0.0000234  7.88e-007
 6854 -0.2033198  0.0000251 -6.02e-007
 6855 -0.4344054  0.0000303  5.36e-006
 6856 -0.4344510  5.17e-006  1.43e-006
 6857 -0.4344051  0.0000303 -2.51e-006
 6858 -0.3567440  0.0000670  2.99e-007
 6859 -0.4344509 -0.0000147  2.10e-006
 6860 -0.3567315  0.0000223  1.85e-006
 6861 -0.2796776  0.0000183  1.41e-006
 6862 -0.2797325  0.0000276  1.52e-006
 6863 -0.2033011  3.96e-006  1.14e-006
 6864 -0.2033192  0.0000252  2.17e-006
 6865 -0.2796769  0.0000186  1.61e-006
 6866 -0.3567434  0.0000672  3.37e-006
 6867 -0.3568097  0.0000422  2.32e-006
 6868 -0.2797753 -0.0000147  1.89e-006
 6869 -0.2033782  0.0000240  1.42e-006
 6870 -0.2033183  0.0000255  9.63e-008
 6871 -0.4344047  0.0000304  6.69e-006
 6872 -0.4344501  5.47e-006  2.66e-006
 6873 -0.4344040  0.0000309 -1.42e-006
 6874 -0.3567426  0.0000677  1.21e-006
 6875 -0.4344496 -0.0000138  2.97e-006
 6876 -0.3567298  0.0000235  2.55e-006
 6877 -0.2796759  0.0000192  2.13e-006
 6878 -0.2797305  0.0000290  2.05e-006
 6879 -0.2032990  5.53e-006  1.51e-006
 6880 -0.2033172  0.0000262  2.69e-006
 6881 -0.2796748  0.0000206  1.87e-006
 6882 -0.3567416  0.0000690  3.76e-006
 6883 -0.3568077  0.0000448  2.29e-006
 6884 -0.2797731 -0.0000117  1.78e-006
 6885 -0.2033759  0.0000274  1.28e-006
 6886 -0.2033161  0.0000278  2.54e-007
 6887 -0.4344032  0.0000319  7.24e-006
 6888 -0.4344485  7.59e-006  2.77e-006
 6889 -0.4344022  0.0000339 -1.93e-006
 6890 -0.3567405  0.0000714  6.05e-007
 6891 -0.4344477 -9.68e-006  1.64e-006
 6892 -0.3567277  0.0000285  1.16e-006
 6893 -0.2796737  0.0000234  1.51e-006
 6894 -0.2797284  0.0000348  7.64e-007
 6895 -0.2032969  0.0000119  4.55e-007
 6896 -0.2033150  0.0000309  2.16e-006
 6897 -0.2796730  0.0000283 -2.93e-007
 6898 -0.3567396  0.0000757  1.37e-006
 6899 -0.3568060  0.0000536 -1.42e-006
 6900 -0.2797718 -1.64e-006 -1.51e-006
 6901 -0.2033750  0.0000385 -1.34e-006
 6902 -0.2033145  0.0000363 -1.49e-006
 6903 -0.4344012  0.0000374  4.82e-006
 6904 -0.4344464  0.0000149 -1.08e-006
 6905 -0.4344002  0.0000434 -7.60e-006
 6906 -0.3567392  0.0000828 -4.79e-006
 6907 -0.4344458  2.55e-006 -6.35e-006
 6908 -0.3567270  0.0000430 -6.36e-006
 6909 -0.2796731  0.0000364 -3.22e-006
 6910 -0.2797290  0.0000513 -5.79e-006
 6911 -0.2032986  0.0000301 -4.69e-006
 6912 -0.2033152  0.0000452 -1.58e-006
 6913 -0.2796751  0.0000492 -9.10e-006
 6914 -0.3567399  0.0000940 -8.81e-006
 6915 -0.3568076  0.0000765 -0.0000149
 6916 -0.2797761  0.0000244 -0.0000131
 6917 -0.2033815  0.0000670 -0.0000104
 6918 -0.2033182  0.0000592 -8.38e-006
 6919 -0.4343996  0.0000529 -6.06e-006
 6920 -0.4344452  0.0000343 -0.0000156
 6921 -0.4343998  0.0000674 -0.0000265
 6922 -0.3567427  0.0001111 -0.0000223
 6923 -0.4344465  0.0000320 -0.0000306
 6924 -0.3567330  0.0000777 -0.0000287
 6925 -0.2796802  0.0000685 -0.0000182
 6926 -0.2797398  0.0000906 -0.0000249
 6927 -0.2033134  0.0000730 -0.0000195
 6928 -0.2033253  0.0000803 -0.0000132
 6929 -0.2796906  0.0000967 -0.0000331
 6930 -0.3567491  0.0001361 -0.0000370
 6931 -0.3568210  0.0001271 -0.0000500
 6932 -0.2797976  0.0000815 -0.0000430
 6933 -0.2034096  0.0001292 -0.0000334
 6934 -0.2033389  0.0001111 -0.0000269
 6935 -0.4344018  0.0000887 -0.0000368
 6936 -0.4344496  0.0000775 -0.0000540
 6937 -0.4344070  0.0001191 -0.0000741
 6938 -0.3567615  0.0001715 -0.0000657
 6939 -0.4344574  0.0000933 -0.0000891
 6940 -0.3567586  0.0001492 -0.0000817
 6941 -0.2797093  0.0001365 -0.0000550
 6942 -0.2797782  0.0001709 -0.0000696
 6943 -0.2033621  0.0001602 -0.0000537
 6944 -0.2033626  0.0001543 -0.0000414
 6945 -0.2797406  0.0001907 -0.0000871
 6946 -0.3567830  0.0002199 -0.0001012
 6947 -0.3568654  0.0002247 -0.0001270
 6948 -0.2798616  0.0001905 -0.0001075
 6949 -0.2034892  0.0002471 -0.0000824
 6950 -0.2034016  0.0002130 -0.0000681
 6951 -0.4344174  0.0001608 -0.0001078
 6952 -0.4344712  0.0001615 -0.0001395
 6953 -0.4344362  0.0002162 -0.0001761
 6954 -0.3568186  0.0002839 -0.0001572
 6955 -0.4344961  0.0002046 -0.0002097
 6956 -0.3568313  0.0002776 -0.0001894
 6957 -0.2797903  0.0002619 -0.0001313
 6958 -0.2798797  0.0003136 -0.0001591
 6959 -0.2034862  0.0003138 -0.0001209
 6960 -0.2034625  0.0002896 -0.0000991
 6961 -0.2798665  0.0003514 -0.0001909
 6962 -0.3568745  0.0003650 -0.0002268
 6963 -0.3569795  0.0003868 -0.0002721
 6964 -0.2800164  0.0003694 -0.0002266
 6965 -0.2036752  0.0004381 -0.0001705
 6966 -0.2035542  0.0003853 -0.0001455
 6967 -0.4344680  0.0002870 -0.0002492
 6968 -0.4345365  0.0003033 -0.0003036
 6969 -0.4345197  0.0003734 -0.0003648
 6970 -0.3569599  0.0004629 -0.0003228
 6971 -0.4346017  0.0003767 -0.0004244
 6972 -0.3570047  0.0004721 -0.0003764
 6973 -0.2799792  0.0004581 -0.0002663
 6974 -0.2801083  0.0005254 -0.0003101
 6975 -0.2037562  0.0005375 -0.0002301
 6976 -0.2036875  0.0004981 -0.0001980
 6977 -0.2801412  0.0005756 -0.0003572
 6978 -0.3570860  0.0005726 -0.0004351
 6979 -0.3572355  0.0006034 -0.0005005
 6980 -0.2803440  0.0006006 -0.0004064
 6981 -0.2040548  0.0006775 -0.0002961
 6982 -0.2038756  0.0006201 -0.0002640
 6983 -0.4346008  0.0004724 -0.0004905
 6984 -0.4347021  0.0004990 -0.0005713
 6985 -0.4347252  0.0005748 -0.0006570
 6986 -0.3572681  0.0006822 -0.0005686
 6987 -0.4348550  0.0005769 -0.0007372
 6988 -0.3573732  0.0006852 -0.0006346
 6989 -0.2803673  0.0006885 -0.0004563
 6990 -0.2805645  0.0007437 -0.0005048
 6991 -0.2042728  0.0007543 -0.0003572
 6992 -0.2041322  0.0007328 -0.0003270
 6993 -0.2806735  0.0007659 -0.0005490
 6994 -0.3575239  0.0007663 -0.0006984
 6995 -0.3577524  0.0007599 -0.0007577
 6996 -0.2809597  0.0007415 -0.0005840
 6997 -0.2047327  0.0007972 -0.0003945
 6998 -0.2044705  0.0008005 -0.0003819
 6999 -0.4349116  0.0006612 -0.0008175
 7000 -0.4350812  0.0006626 -0.0009021
 7001 -0.4351854  0.0006935 -0.0009766
 7002 -0.3578742  0.0007766 -0.0008035
 7003 -0.4354101  0.0006243 -0.0010239
 7004 -0.3580779  0.0006847 -0.0008252
 7005 -0.2810732  0.0007507 -0.0006043
 7006 -0.2813650  0.0006882 -0.0006026
 7007 -0.2051224  0.0006430 -0.0003720
 7008 -0.2048961  0.0007588 -0.0003923
 7009 -0.2815693  0.0005410 -0.0005708
 7010 -0.3583350  0.0006261 -0.0008151
 7011 -0.3586775  0.0004226 -0.0007611
 7012 -0.2819446  0.0002784 -0.0004922
 7013 -0.2057277  0.0002197 -0.0002400
 7014 -0.2054004  0.0004952 -0.0003250
 7015 -0.4355775  0.0006010 -0.0010412
 7016 -0.4358740  0.0004465 -0.0010228
 7017 -0.4361188  0.0002517 -0.0009413
 7018 -0.3589096  0.0001634 -0.0006494
 7019 -0.4364976 -0.0001353 -0.0007580
 7020 -0.3592187 -0.0003343 -0.0004391
 7021 -0.2820722 -0.0000396 -0.0003657
 7022 -0.2823937 -0.0005711 -0.0001568
 7023 -0.2061089 -0.0007506  0.0000705
 7024 -0.2058326 -0.0001546 -0.0001107
 7025 -0.2824524 -0.0012623  0.0001258
 7026 -0.3594894 -0.0008926 -0.0001343
 7027 -0.3597748 -0.0018698  0.0002996
 7028 -0.2826898 -0.0023180  0.0005056
 7029 -0.2061571 -0.0026307  0.0006149
 7030 -0.2060366 -0.0015247  0.0003085
 7031 -0.4368195 -0.0005945 -0.0004676
 7032 -0.4371929 -0.0013980 -0.0000132
 7033 -0.4373459 -0.0024603  0.0006488
 7034 -0.3597763 -0.0031132  0.0009082
 7035 -0.4375491 -0.0040207  0.0015540
 7036 -0.3598026 -0.0048466  0.0016847
 7037 -0.2826071 -0.0036590  0.0010041
 7038 -0.2824280 -0.0055979  0.0015828
 7039 -0.2055573 -0.0060820  0.0013339
 7040 -0.2059043 -0.0040566  0.0009495
 7041 -0.2817042 -0.0081145  0.0022332
 7042 -0.3594244 -0.0072403  0.0026132
 7043 -0.3585856 -0.0105798  0.0036852
 7044 -0.2807206 -0.0113593  0.0028370
 7045 -0.2037023 -0.0115757  0.0018457
 7046 -0.2048644 -0.0085116  0.0016612
 7047 -0.4376012 -0.0061518  0.0027407
 7048 -0.4373889 -0.0093137  0.0042072
 7049 -0.4363173 -0.0136551  0.0058878
 7050 -0.3571146 -0.0148456  0.0047084
 7051 -0.4343927 -0.0195836  0.0075710
 7052 -0.3547359 -0.0204536  0.0053961
 7053 -0.2787912 -0.0154721  0.0032587
 7054 -0.2762474 -0.0205685  0.0032600
 7055 -0.1989981 -0.0199878  0.0011615
 7056 -0.2015740 -0.0154360  0.0017194
 7057 -0.2727832 -0.0264887  0.0024255
 7058 -0.3511830 -0.0273887  0.0053832
 7059 -0.3468666 -0.0354150  0.0040264
 7060 -0.2687107 -0.0330652  0.0004018
 7061 -0.1918157 -0.0303750 -0.0026132
 7062 -0.1957169 -0.0250310 -0.0002566
 7063 -0.4312177 -0.0273329  0.0086933
 7064 -0.4265969 -0.0370422  0.0084503
 7065 -0.4206993 -0.0478640  0.0058217
 7066 -0.3416845 -0.0438130  0.0007018
 7067 -0.2640004 -0.0396339 -0.0032683
 7068 -0.2594017 -0.0454103 -0.0086220
 7069 -0.1829823 -0.0398657 -0.0113809
 7070 -0.1873069 -0.0354875 -0.0063815
 7071 -0.2557320 -0.0494095 -0.0154700
 7072 -0.2536304 -0.0508680 -0.0230688
 7073 -0.1777851 -0.0440399 -0.0239914
 7074 -0.1795751 -0.0429164 -0.0174677
 7075 -0.1114056 -0.0315449 -0.0087612
 7076 -0.1069285 -0.0347189 -0.0134629
 7077 -0.0309992 -0.0301676 -0.0149649
 7078 -0.0368928 -0.0278645 -0.0105177
 7079 -0.0415228 -0.0246762 -0.0069675
 7080 -0.1159436 -0.0275788 -0.0050807
 7081 -0.1030335 -0.0371842 -0.0190469
 7082 -0.1012265 -0.0382663 -0.0246039
 7083 -0.0226784 -0.0337005 -0.0249116
 7084 -0.0250598 -0.0316797 -0.0202825
 7085 -0.1020530 -0.0371682 -0.0301588
 7086 -0.0247270 -0.0316608 -0.0295208
 7087 -0.1779365 -0.0429091 -0.0305093
 7088 -0.1796832 -0.0398606 -0.0365762
 7089 -0.1049309 -0.0347140 -0.0357219
 7090 -0.0303057 -0.0301609 -0.0348267
 7091 -0.2534403 -0.0494071 -0.0306627
 7092 -0.2548055 -0.0454060 -0.0374909
 7093 -0.1084157 -0.0315516 -0.0403867
 7094 -0.1823310 -0.0354954 -0.0415369
 7095 -0.1851378 -0.0303684 -0.0452764
 7096 -0.1119040 -0.0275685 -0.0440456
 7097 -0.0399895 -0.0247120 -0.0428012
 7098 -0.0358608 -0.0278810 -0.0392557
 7099 -0.2570884 -0.0396285 -0.0428071
 7100 -0.2594740 -0.0330797 -0.0464561
 7101 -0.2612158 -0.0264899 -0.0484630
 7102 -0.1873496 -0.0250407 -0.0476199
 7103 -0.2622428 -0.0205439 -0.0492653
 7104 -0.1888599 -0.0199927 -0.0490056
 7105 -0.1146984 -0.0232172 -0.0466190
 7106 -0.1167001 -0.0189158 -0.0484337
 7107 -0.0453602 -0.0175202 -0.0475389
 7108 -0.0432108 -0.0211190 -0.0455337
 7109 -0.1179882 -0.0149838 -0.0494216
 7110 -0.1897185 -0.0154642 -0.0495585
 7111 -0.1901424 -0.0115762 -0.0496738
 7112 -0.1187976 -0.0115089 -0.0499649
 7113 -0.0480163 -0.0111165 -0.0496077
 7114 -0.0469490 -0.0141911 -0.0487829
 7115 -0.2625006 -0.0154646 -0.0492539
 7116 -0.2620784 -0.0113102 -0.0488231
 7117 -0.2607770 -0.0081116 -0.0481606
 7118 -0.1896633 -0.0085105 -0.0494726
 7119 -0.3327020 -0.0072462 -0.0461363
 7120 -0.3300941 -0.0048505 -0.0452317
 7121 -0.2590984 -0.0056159 -0.0475538
 7122 -0.1886594 -0.0060795 -0.0491466
 7123 -0.4050540 -0.0061628 -0.0431359
 7124 -0.4014267 -0.0040039 -0.0419937
 7125 -0.2570006 -0.0036621 -0.0469679
 7126 -0.3271020 -0.0031141 -0.0444106
 7127 -0.3241104 -0.0018657 -0.0437952
 7128 -0.2547421 -0.0023183 -0.0464657
 7129 -0.1858544 -0.0026349 -0.0484234
 7130 -0.1873116 -0.0040640 -0.0487625
 7131 -0.3975459 -0.0024656 -0.0410814
 7132 -0.3936966 -0.0013986 -0.0404137
 7133 -0.3896862 -0.0006197 -0.0399615
 7134 -0.3208502 -0.0009160 -0.0433609
 7135 -0.3857538 -0.0001311 -0.0396667
 7136 -0.3175971 -0.0003316 -0.0430569
 7137 -0.2521787 -0.0012708 -0.0460813
 7138 -0.2497673 -0.0005761 -0.0458047
 7139 -0.1823930 -0.0007555 -0.0478791
 7140 -0.1840458 -0.0015326 -0.0481107
 7141 -0.2470354 -0.0000226 -0.0455883
 7142 -0.3142615  0.0001557 -0.0428475
 7143 -0.3110304  0.0003969 -0.0427352
 7144 -0.2446028  0.0003076 -0.0454634
 7145 -0.1785385  0.0001978 -0.0475639
 7146 -0.1803725 -0.0001609 -0.0476904
 7147 -0.3818170  0.0002521 -0.0394796
 7148 -0.3779488  0.0004316 -0.0393989
 7149 -0.3740362  0.0006017 -0.0393750
 7150 -0.3077411  0.0006151 -0.0426795
 7151 -0.3702430  0.0006279 -0.0393990
 7152 -0.3045657  0.0006794 -0.0426734
 7153 -0.2418628  0.0005558 -0.0453813
 7154 -0.2394046  0.0006786 -0.0453537
 7155 -0.1746250  0.0006408 -0.0474289
 7156 -0.1765408  0.0004909 -0.0474790
 7157 -0.2367905  0.0007470 -0.0453486
 7158 -0.3013906  0.0007644 -0.0426899
 7159 -0.2982837  0.0007523 -0.0427326
 7160 -0.2343300  0.0007434 -0.0453691
 7161 -0.1708355  0.0007926 -0.0474049
 7162 -0.1727018  0.0007544 -0.0474086
 7163 -0.3664041  0.0006885 -0.0394444
 7164 -0.3626724  0.0006612 -0.0395200
 7165 -0.3588900  0.0006551 -0.0396015
 7166 -0.2950917  0.0007546 -0.0427948
 7167 -0.3552054  0.0005792 -0.0396840
 7168 -0.2919721  0.0006806 -0.0428612
 7169 -0.2317302  0.0007620 -0.0454040
 7170 -0.2292796  0.0007381 -0.0454519
 7171 -0.1670002  0.0007530 -0.0474464
 7172 -0.1688901  0.0007949 -0.0474192
 7173 -0.2267612  0.0006846 -0.0454966
 7174 -0.2888933  0.0006683 -0.0429251
 7175 -0.2858729  0.0005946 -0.0429898
 7176 -0.2243881  0.0006031 -0.0455466
 7177 -0.1633782  0.0006722 -0.0475032
 7178 -0.1651608  0.0007280 -0.0474737
 7179 -0.3514645  0.0005689 -0.0397636
 7180 -0.3478118  0.0004976 -0.0398509
 7181 -0.3440991  0.0004652 -0.0399284
 7182 -0.2827623  0.0005587 -0.0430581
 7183 -0.3404704  0.0003795 -0.0399969
 7184 -0.2797124  0.0004668 -0.0431194
 7185 -0.2218752  0.0005710 -0.0455957
 7186 -0.2194989  0.0005189 -0.0456466
 7187 -0.1597068  0.0005361 -0.0475734
 7188 -0.1615179  0.0006136 -0.0475370
 7189 -0.2170504  0.0004535 -0.0456866
 7190 -0.2766936  0.0004466 -0.0431708
 7191 -0.2737232  0.0003765 -0.0432182
 7192 -0.2147346  0.0003723 -0.0457264
 7193 -0.1562192  0.0004320 -0.0476287
 7194 -0.1579387  0.0004924 -0.0476025
 7195 -0.3367787  0.0003665 -0.0400559
 7196 -0.3331644  0.0003016 -0.0401184
 7197 -0.3294860  0.0002788 -0.0401696
 7198 -0.2706594  0.0003489 -0.0432663
 7199 -0.3258830  0.0002078 -0.0402115
 7200 -0.2676478  0.0002715 -0.0433063
 7201 -0.2122778  0.0003462 -0.0457620
 7202 -0.2099458  0.0003061 -0.0457975
 7203 -0.1526600  0.0003121 -0.0476826
 7204 -0.1544191  0.0003780 -0.0476556
 7205 -0.2075389  0.0002566 -0.0458216
 7206 -0.2646608  0.0002654 -0.0433365
 7207 -0.2617153  0.0002129 -0.0433633
 7208 -0.2052538  0.0001939 -0.0458454
 7209 -0.1492538  0.0002401 -0.0477168
 7210 -0.1509364  0.0002830 -0.0477014
 7211 -0.3222150  0.0002082 -0.0402447
 7212 -0.3186173  0.0001596 -0.0402826
 7213 -0.3149552  0.0001515 -0.0403108
 7214 -0.2586763  0.0002015 -0.0433918
 7215 -0.3113626  0.0000969 -0.0403321
 7216 -0.2556840  0.0001422 -0.0434140
 7217 -0.2028293  0.0001848 -0.0458658
 7218 -0.2005198  0.0001623 -0.0458870
 7219 -0.1457592  0.0001583 -0.0477498
 7220 -0.1474892  0.0002047 -0.0477330
 7221 -0.1981351  0.0001306 -0.0458979
 7222 -0.2527122  0.0001507 -0.0434281
 7223 -0.2497773  0.0001139 -0.0434402
 7224 -0.1958639  0.0000853 -0.0459099
 7225 -0.1423948  0.0001213 -0.0477658
 7226 -0.1440591  0.0001468 -0.0477590
 7227 -0.3077057  0.0001100 -0.0403468
 7228 -0.3041141  0.0000754 -0.0403680
 7229 -0.3004595  0.0000784 -0.0403816
 7230 -0.2467509  0.0001153 -0.0434560
 7231 -0.2968700  0.0000361 -0.0403906
 7232 -0.2437674  0.0000700 -0.0434670
 7233 -0.1934566  0.0000901 -0.0459198
 7234 -0.1911569  0.0000811 -0.0459317
 7235 -0.1389336  0.0000709 -0.0477840
 7236 -0.1406490  0.0001019 -0.0477742
 7237 -0.1887834  0.0000619 -0.0459347
 7238 -0.2408018  0.0000880 -0.0434715
 7239 -0.2378701  0.0000618 -0.0434754
 7240 -0.1865164  0.0000286 -0.0459398
 7241 -0.1355873  0.0000583 -0.0477888
 7242 -0.1372443  0.0000719 -0.0477872
 7243 -0.2932183  0.0000573 -0.0403946
 7244 -0.2896280  0.0000319 -0.0404065
 7245 -0.2859770  0.0000416 -0.0404122
 7246 -0.2348501  0.0000709 -0.0434841
 7247 -0.2823875  7.05e-006 -0.0404148
 7248 -0.2318703  0.0000345 -0.0434894
 7249 -0.1841185  0.0000419 -0.0459438
 7250 -0.1818216  0.0000408 -0.0459508
 7251 -0.1321420  0.0000278 -0.0477988
 7252 -0.1338510  0.0000491 -0.0477928
 7253 -0.1794537  0.0000291 -0.0459496
 7254 -0.2289068  0.0000574 -0.0434890
 7255 -0.2259747  0.0000375 -0.0434889
 7256 -0.1771862  3.03e-006 -0.0459514
 7257 -0.1288014  0.0000289 -0.0477978
 7258 -0.1304568  0.0000358 -0.0477988
 7259 -0.2787384  0.0000322 -0.0404137
 7260 -0.2751473  0.0000123 -0.0404210
 7261 -0.2714984  0.0000250 -0.0404230
 7262 -0.2229583  0.0000503 -0.0434943
 7263 -0.2679077 -4.76e-006 -0.0404228
 7264 -0.2199798  0.0000191 -0.0434969
 7265 -0.1747937  0.0000204 -0.0459527
 7266 -0.1724966  0.0000233 -0.0459574
 7267 -0.1253635  9.41e-006 -0.0478039
 7268 -0.1270698  0.0000252 -0.0477997
 7269 -0.1701315  0.0000154 -0.0459544
 7270 -0.2170166  0.0000437 -0.0434945
 7271 -0.2140827  0.0000272 -0.0434926
 7272 -0.1678615 -6.61e-006 -0.0459547
 7273 -0.1220228  0.0000169 -0.0478005
 7274 -0.1236793  0.0000206 -0.0478025
 7275 -0.2642603  0.0000216 -0.0404195
 7276 -0.2606677  4.74e-006 -0.0404248
 7277 -0.2570202  0.0000184 -0.0404252
 7278 -0.2110688  0.0000413 -0.0434966
 7279 -0.2534279 -8.46e-006 -0.0404242
 7280 -0.2080908  0.0000133 -0.0434983
 7281 -0.1654728  0.0000120 -0.0459548
 7282 -0.1631741  0.0000165 -0.0459587
 7283 -0.1185887  2.82e-006 -0.0478050
 7284 -0.1202940  0.0000158 -0.0478015
 7285 -0.1608111  0.0000105 -0.0459550
 7286 -0.2051271  0.0000377 -0.0434951
 7287 -0.2021909  0.0000231 -0.0434926
 7288 -0.1585377 -9.20e-006 -0.0459548
 7289 -0.1152457  0.0000127 -0.0478006
 7290 -0.1169041  0.0000150 -0.0478030
 7291 -0.2497819  0.0000175 -0.0404202
 7292 -0.2461876  2.39e-006 -0.0404247
 7293 -0.2425415  0.0000158 -0.0404246
 7294 -0.1991791  0.0000372 -0.0434962
 7295 -0.2389474 -8.96e-006 -0.0404233
 7296 -0.1962013  0.0000113 -0.0434976
 7297 -0.1561522  9.21e-006 -0.0459546
 7298 -0.1538516  0.0000141 -0.0459581
 7299 -0.1118140  1.02e-006 -0.0478046
 7300 -0.1135188  0.0000125 -0.0478014
 7301 -0.1514901  8.96e-006 -0.0459543
 7302 -0.1932371  0.0000347 -0.0434943
 7303 -0.1902984  0.0000213 -0.0434916
 7304 -0.1492133 -9.29e-006 -0.0459540
 7305 -0.1084680  0.0000112 -0.0478000
 7306 -0.1101286  0.0000131 -0.0478024
 7307 -0.2353027  0.0000159 -0.0404192
 7308 -0.2317068  1.85e-006 -0.0404235
 7309 -0.2280620  0.0000146 -0.0404231
 7310 -0.1872886  0.0000347 -0.0434950
 7311 -0.2244663 -8.57e-006 -0.0404219
 7312 -0.1843111  0.0000104 -0.0434964
 7313 -0.1468308  8.25e-006 -0.0459536
 7314 -0.1445281  0.0000130 -0.0459571
 7315 -0.1050384  6.59e-007 -0.0478039
 7316 -0.1067429  0.0000113 -0.0478008
 7317 -0.1421682  8.24e-006 -0.0459532
 7318 -0.1813462  0.0000324 -0.0434931
 7319 -0.1784051  0.0000198 -0.0434903
 7320 -0.1398878 -8.86e-006 -0.0459530
 7321 -0.1016892  0.0000103 -0.0477992
 7322 -0.1033521  0.0000121 -0.0478016
 7323 -0.2208230  0.0000148 -0.0404180
 7324 -0.2172253  1.64e-006 -0.0404221
 7325 -0.2135819  0.0000136 -0.0404215
 7326 -0.1753973  0.0000324 -0.0434937
 7327 -0.2099845 -8.14e-006 -0.0404205
 7328 -0.1724199  9.60e-006 -0.0434951
 7329 -0.1375084  7.57e-006 -0.0459526
 7330 -0.1352036  0.0000120 -0.0459561
 7331 -0.0982616  4.41e-007 -0.0478031
 7332 -0.0999658  0.0000104 -0.0478000
 7333 -0.1328453  7.53e-006 -0.0459522
 7334 -0.1694544  0.0000301 -0.0434918
 7335 -0.1665109  0.0000183 -0.0434890
 7336 -0.1305613 -8.44e-006 -0.0459519
 7337 -0.0949092  9.48e-006 -0.0477984
 7338 -0.0965744  0.0000111 -0.0478008
 7339 -0.2063426  0.0000137 -0.0404167
 7340 -0.2027433  1.38e-006 -0.0404207
 7341 -0.1991013  0.0000125 -0.0404200
 7342 -0.1635051  0.0000301 -0.0434924
 7343 -0.1955022 -7.67e-006 -0.0404191
 7344 -0.1605280  8.86e-006 -0.0434939
 7345 -0.1281850  6.91e-006 -0.0459516
 7346 -0.1258780  0.0000111 -0.0459551
 7347 -0.0914836  3.74e-007 -0.0478023
 7348 -0.0931875  9.49e-006 -0.0477993
 7349 -0.1235213  7.11e-006 -0.0459513
 7350 -0.1575618  0.0000280 -0.0434907
 7351 -0.1546159  0.0000173 -0.0434880
 7352 -0.1212338 -7.49e-006 -0.0459511
 7353 -0.0881280  9.22e-006 -0.0477978
 7354 -0.0897955  0.0000105 -0.0478000
 7355 -0.1918617  0.0000128 -0.0404155
 7356 -0.1882607  1.45e-006 -0.0404195
 7357 -0.1846200  0.0000120 -0.0404188
 7358 -0.1516121  0.0000285 -0.0434915
 7359 -0.1810192 -6.30e-006 -0.0404183
 7360 -0.1486352  9.24e-006 -0.0434932
 7361 -0.1188605  7.10e-006 -0.0459509
 7362 -0.1165516  0.0000115 -0.0459546
 7363 -0.0847046  1.75e-006 -0.0478020
 7364 -0.0864081  9.58e-006 -0.0477988
 7365 -0.1141966  8.54e-006 -0.0459510
 7366 -0.1456685  0.0000274 -0.0434904
 7367 -0.1427202  0.0000184 -0.0434880
 7368 -0.1119057 -4.02e-006 -0.0459512
 7369 -0.0813463  0.0000117 -0.0477979
 7370 -0.0830159  0.0000120 -0.0477998
 7371 -0.1773800  0.0000132 -0.0404151
 7372 -0.1737773  3.36e-006 -0.0404194
 7373 -0.1701381  0.0000140 -0.0404191
 7374 -0.1397186  0.0000299 -0.0434920
 7375 -0.1665356 -1.68e-006 -0.0404196
 7376 -0.1367421  0.0000135 -0.0434946
 7377 -0.1095357  0.0000107 -0.0459515
 7378 -0.1072250  0.0000163 -0.0459559
 7379 -0.0779258  7.95e-006 -0.0478030
 7380 -0.0796285  0.0000134 -0.0477993
 7381 -0.1048722  0.0000156 -0.0459531
 7382 -0.1337751  0.0000319 -0.0434928
 7383 -0.1308248  0.0000258 -0.0434918
 7384 -0.1025785  6.54e-006 -0.0459545
 7385 -0.0745661  0.0000220 -0.0478005
 7386 -0.0762369  0.0000196 -0.0478015
 7387 -0.1628979  0.0000177 -0.0404177
 7388 -0.1592936  0.0000106 -0.0404232
 7389 -0.1556559  0.0000225 -0.0404247
 7390 -0.1278258  0.0000391 -0.0434974
 7391 -0.1520521  0.0000111 -0.0404276
 7392 -0.1248504  0.0000273 -0.0435021
 7393 -0.1002126  0.0000231 -0.0459562
 7394 -0.0979012  0.0000320 -0.0459624
 7395 -0.0711508  0.0000260 -0.0478081
 7396 -0.0728514  0.0000268 -0.0478031
 7397 -0.0955518  0.0000358 -0.0459619
 7398 -0.1218840  0.0000480 -0.0435030
 7399 -0.1189329  0.0000473 -0.0435052
 7400 -0.0932570  0.0000330 -0.0459660
 7401 -0.0677933  0.0000497 -0.0478094
 7402 -0.0694634  0.0000417 -0.0478083
 7403 -0.1484162  0.0000322 -0.0404287
 7404 -0.1448110  0.0000298 -0.0404377
 7405 -0.1411756  0.0000455 -0.0404435
 7406 -0.1159381  0.0000651 -0.0435148
 7407 -0.1375714  0.0000409 -0.0404519
 7408 -0.1129656  0.0000611 -0.0435245
 7409 -0.0908973  0.0000545 -0.0459711
 7410 -0.0885877  0.0000702 -0.0459814
 7411 -0.0643890  0.0000687 -0.0478228
 7412 -0.0660843  0.0000611 -0.0478147
 7413 -0.0862449  0.0000825 -0.0459859
 7414 -0.1100020  0.0000876 -0.0435312
 7415 -0.1070529  0.0000960 -0.0435403
 7416 -0.0839528  0.0000902 -0.0459959
 7417 -0.0610422  0.0001107 -0.0478325
 7418 -0.0627069  0.0000925 -0.0478268
 7419 -0.1339387  0.0000668 -0.0404596
 7420 -0.1303340  0.0000723 -0.0404762
 7421 -0.1267029  0.0000952 -0.0404909
 7422 -0.1040655  0.0001224 -0.0435582
 7423 -0.1231006  0.0001012 -0.0405102
 7424 -0.1011000  0.0001304 -0.0435775
 7425 -0.0816038  0.0001210 -0.0460080
 7426 -0.0793015  0.0001482 -0.0460265
 7427 -0.0576608  0.0001546 -0.0478576
 7428 -0.0593443  0.0001335 -0.0478432
 7429 -0.0769717  0.0001737 -0.0460405
 7430 -0.0981440  0.0001669 -0.0435956
 7431 -0.0952023  0.0001886 -0.0436175
 7432 -0.0746896  0.0001965 -0.0460614
 7433 -0.0543413  0.0002253 -0.0478832
 7434 -0.0559918  0.0001918 -0.0478689
 7435 -0.1194738  0.0001355 -0.0405304
 7436 -0.1158731  0.0001527 -0.0405611
 7437 -0.1122502  0.0001861 -0.0405919
 7438 -0.0922289  0.0002273 -0.0436500
 7439 -0.1086544  0.0002053 -0.0406297
 7440 -0.0892777  0.0002503 -0.0436859
 7441 -0.0723598  0.0002409 -0.0460860
 7442 -0.0700745  0.0002829 -0.0461185
 7443 -0.0510046  0.0003024 -0.0479290
 7444 -0.0526647  0.0002640 -0.0479036
 7445 -0.0677685  0.0003237 -0.0461482
 7446 -0.0863376  0.0002986 -0.0437223
 7447 -0.0834126  0.0003337 -0.0437644
 7448 -0.0655083  0.0003615 -0.0461864
 7449 -0.0477394  0.0004039 -0.0479809
 7450 -0.0493614  0.0003551 -0.0479527
 7451 -0.1050388  0.0002497 -0.0406703
 7452 -0.1014479  0.0002785 -0.0407231
 7453 -0.0978397  0.0003203 -0.0407776
 7454 -0.0804631  0.0003820 -0.0438184
 7455 -0.0942574  0.0003475 -0.0408404
 7456 -0.0775366  0.0004139 -0.0438772
 7457 -0.0632108  0.0004166 -0.0462297
 7458 -0.0609559  0.0004666 -0.0462820
 7459 -0.0444787  0.0005040 -0.0480582
 7460 -0.0460994  0.0004556 -0.0480164
 7461 -0.0586874  0.0005103 -0.0463324
 7462 -0.0746231  0.0004630 -0.0439371
 7463 -0.0717253  0.0004942 -0.0440023
 7464 -0.0564626  0.0005441 -0.0463915
 7465 -0.0413000  0.0006030 -0.0481455
 7466 -0.0428777  0.0005593 -0.0480993
 7467 -0.0906603  0.0003925 -0.0409067
 7468 -0.0870865  0.0004184 -0.0409843
 7469 -0.0835001  0.0004471 -0.0410617
 7470 -0.0688095  0.0005271 -0.0440780
 7471 -0.0799374  0.0004524 -0.0411439
 7472 -0.0659161  0.0005330 -0.0441552
 7473 -0.0542095  0.0005819 -0.0464548
 7474 -0.0519951  0.0006007 -0.0465249
 7475 -0.0381420  0.0006540 -0.0482580
 7476 -0.0397113  0.0006377 -0.0481991
 7477 -0.0497706  0.0005947 -0.0465894
 7478 -0.0630347  0.0005359 -0.0442284
 7479 -0.0601657  0.0005016 -0.0442984
 7480 -0.0475821  0.0005550 -0.0466560
 7481 -0.0350590  0.0006182 -0.0483718
 7482 -0.0365911  0.0006548 -0.0483143
 7483 -0.0763635  0.0004579 -0.0412232
 7484 -0.0728092  0.0004284 -0.0413038
 7485 -0.0692441  0.0003772 -0.0413706
 7486 -0.0572797  0.0004403 -0.0443666
 7487 -0.0656965  0.0002775 -0.0414234
 7488 -0.0544082  0.0003218 -0.0444194
 7489 -0.0453670  0.0004864 -0.0467174
 7490 -0.0431765  0.0003620 -0.0467713
 7491 -0.0319762  0.0003997 -0.0484837
 7492 -0.0335140  0.0005388 -0.0484302
 7493 -0.0409668  0.0001684 -0.0468001
 7494 -0.0515390  0.0001584 -0.0444451
 7495 -0.0486683 -0.0000849 -0.0444365
 7496 -0.0387701 -0.0001111 -0.0468035
 7497 -0.0288975 -0.0001108 -0.0485359
 7498 -0.0304395  0.0001930 -0.0485200
 7499 -0.0621368  0.0001425 -0.0414481
 7500 -0.0585877 -0.0000625 -0.0414406
 7501 -0.0550240 -0.0003326 -0.0413773
 7502 -0.0457695 -0.0004082 -0.0443863
 7503 -0.0514675 -0.0006935 -0.0412471
 7504 -0.0428665 -0.0008436 -0.0442676
 7505 -0.0365212 -0.0004824 -0.0467681
 7506 -0.0342725 -0.0009789 -0.0466761
 7507 -0.0256984 -0.0010784 -0.0484645
 7508 -0.0273056 -0.0005239 -0.0485229
 7509 -0.0319607 -0.0016069 -0.0464956
 7510 -0.0399363 -0.0013793 -0.0440618
 7511 -0.0369829 -0.0020582 -0.0437435
 7512 -0.0296286 -0.0023993 -0.0462166
 7513 -0.0222922 -0.0026845 -0.0481094
 7514 -0.0240101 -0.0017876 -0.0483315
 7515 -0.0478944 -0.0011377 -0.0410257
 7516 -0.0443240 -0.0016965 -0.0406956
 7517 -0.0407267 -0.0023543 -0.0402242
 7518 -0.0339905 -0.0028653 -0.0432842
 7519 -0.0371512 -0.0031272 -0.0395877
 7520 -0.0309861 -0.0038106 -0.0426540
 7521 -0.0272300 -0.0033476 -0.0457951
 7522 -0.0247831 -0.0044795 -0.0452000
 7523 -0.0185774 -0.0050903 -0.0472281
 7524 -0.0204729 -0.0037742 -0.0477567
 7525 -0.0222598 -0.0057808 -0.0443875
 7526 -0.0279510 -0.0048872 -0.0418078
 7527 -0.0249195 -0.0060890 -0.0407170
 7528 -0.0197074 -0.0072313 -0.0433158
 7529 -0.0144894 -0.0083200 -0.0454729
 7530 -0.0165818 -0.0066053 -0.0464827
 7531 -0.0335973 -0.0039928 -0.0387427
 7532 -0.0300834 -0.0049510 -0.0376682
 7533 -0.0266130 -0.0059767 -0.0363516
 7534 -0.0219054 -0.0073647 -0.0393513
 7535 -0.0232439 -0.0070278 -0.0347678
 7536 -0.0189316 -0.0086979 -0.0376892
 7537 -0.0171082 -0.0087979 -0.0419460
 7538 -0.0145212 -0.0104459 -0.0402389
 7539 -0.0100730 -0.0122002 -0.0424410
 7540 -0.0122931 -0.0102066 -0.0441437
 7541 -0.0119754 -0.0120817 -0.0381606
 7542 -0.0160449 -0.0100158 -0.0357016
 7543 -0.0133155 -0.0112465 -0.0333868
 7544 -0.0095467 -0.0136421 -0.0357126
 7545 -0.0056774 -0.0161558 -0.0377706
 7546 -0.0078356 -0.0142140 -0.0403174
 7547 -0.0199957 -0.0080502 -0.0328966
 7548 -0.0169204 -0.0090037 -0.0307489
 7549 -0.0140682 -0.0098295 -0.0283585
 7550 -0.0107795 -0.0123174 -0.0307789
 7551 -0.0072818 -0.0150131 -0.0329081
 7552 -0.0052722 -0.0161030 -0.0297969
 7553 -0.0018618 -0.0193059 -0.0314206
 7554 -0.0036417 -0.0179018 -0.0347904
 7555 -0.0035696 -0.0168045 -0.0264454
 7556 -0.0022187 -0.0170569 -0.0229670
 7557  0.0006327 -0.0205309 -0.0239156
 7558 -0.0004160 -0.0202099 -0.0277437
 7559  0.0000745 -0.0209519 -0.0364719
 7560  0.0016847 -0.0227701 -0.0328302
 7561  0.0053025 -0.0265035 -0.0341034
 7562  0.0037471 -0.0240836 -0.0379995
 7563  0.0020554 -0.0213659 -0.0412297
 7564 -0.0017784 -0.0187565 -0.0396024
 7565  0.0029221 -0.0239692 -0.0287879
 7566  0.0036837 -0.0243907 -0.0245596
 7567  0.0069481 -0.0287963 -0.0248962
 7568  0.0064292 -0.0282222 -0.0296293
 7569  0.0039711 -0.0240153 -0.0203222
 7570  0.0068215 -0.0282735 -0.0201454
 7571  0.0012837 -0.0202553 -0.0200769
 7572  0.0015575 -0.0194001 -0.0163782
 7573  0.0038192 -0.0228749 -0.0162506
 7574  0.0061355 -0.0266070 -0.0156503
 7575 -0.0012299 -0.0168472 -0.0194802
 7576 -0.0005781 -0.0161874 -0.0161030
 7577  0.0033203 -0.0211025 -0.0125716
 7578  0.0015134 -0.0180431 -0.0129645
 7579  0.0012420 -0.0163397 -0.0099410
 7580  0.0026125 -0.0189388 -0.0094057
 7581  0.0039247 -0.0215595 -0.0084845
 7582  0.0050830 -0.0242400 -0.0117311
 7583 -0.0002208 -0.0151476 -0.0129502
 7584 -0.0001036 -0.0138182 -0.0101037
 7585 -0.0001465 -0.0122840 -0.0076101
 7586  0.0008432 -0.0144301 -0.0073518
 7587 -0.0002897 -0.0106675 -0.0054961
 7588  0.0003876 -0.0124421 -0.0051972
 7589  0.0018336 -0.0165907 -0.0067706
 7590  0.0010536 -0.0141915 -0.0046322
 7591  0.0016375 -0.0158579 -0.0037857
 7592  0.0027514 -0.0187245 -0.0058538
 7593  0.0003429 -0.0118365 -0.0029596
 7594 -0.0000537 -0.0104712 -0.0034616
 7595 -0.0004432 -0.0085878 -0.0020966
 7596 -0.0002572 -0.0096219 -0.0016899
 7597 -0.0001478 -0.0105318 -0.0011220
 7598  0.0006555 -0.0130928 -0.0022367
 7599 -0.0004719 -0.0090390 -0.0037479
 7600 -0.0006528 -0.0074693 -0.0023412
 7601 -0.0008018 -0.0060016 -0.0012370
 7602 -0.0007467 -0.0068557 -0.0010608
 7603 -0.0008353 -0.0050949 -0.0012943
 7604 -0.0008247 -0.0039812 -0.0004216
 7605 -0.0008965 -0.0046676 -0.0003994
 7606 -0.0009520 -0.0052960 -0.0002965
 7607 -0.0008041 -0.0041727 -0.0012401
 7608 -0.0006974 -0.0032684 -0.0003671
 7609 -0.0009339 -0.0034733  0.0002174
 7610 -0.0007925 -0.0029718  0.0002353
 7611 -0.0010585 -0.0039176  0.0002455
 7612 -0.0006053 -0.0024435  0.0002980
 7613 -0.0007141 -0.0076136 -0.0007668
 7614 -0.0010252 -0.0058328 -0.0001174
 7615 -0.0011442 -0.0062457  0.0001255
 7616 -0.0007469 -0.0082417 -0.0003645
 7617 -0.0011930 -0.0042806  0.0003169
 7618 -0.0013563 -0.0045370  0.0004192
 7619 -0.0008727 -0.0086939  0.0001258
 7620 -0.0013307 -0.0065015  0.0004141
 7621 -0.0015976 -0.0065716  0.0007175
 7622 -0.0011173 -0.0089309  0.0006723
 7623 -0.0003289 -0.0117507  0.0004144
 7624 -0.0001583 -0.0112571 -0.0004105
 7625 -0.0015630 -0.0046623  0.0005351
 7626 -0.0018166 -0.0046360  0.0006405
 7627 -0.0014952 -0.0089037  0.0012314
 7628 -0.0019423 -0.0064279  0.0009977
 7629 -0.0023440 -0.0060581  0.0012099
 7630 -0.0019951 -0.0085825  0.0017434
 7631 -0.0012538 -0.0117860  0.0022095
 7632 -0.0006893 -0.0119466  0.0013094
 7633 -0.0021051 -0.0044472  0.0007056
 7634 -0.0024025 -0.0040922  0.0006977
 7635 -0.0025752 -0.0079428  0.0021298
 7636 -0.0027506 -0.0054579  0.0012941
 7637 -0.0030784 -0.0046581  0.0012026
 7638 -0.0031531 -0.0069924  0.0023060
 7639 -0.0028700 -0.0101934  0.0036152
 7640 -0.0020000 -0.0112101  0.0030176
 7641 -0.0026572 -0.0035810  0.0005803
 7642 -0.0027975 -0.0029500  0.0003315
 7643 -0.0035859 -0.0057780  0.0021939
 7644 -0.0032075 -0.0037062  0.0008964
 7645 -0.0037164 -0.0087318  0.0038651
 7646 -0.0027276 -0.0022470 -0.0000580
 7647 -0.0008579 -0.0154321  0.0038041
 7648 -0.0020105 -0.0145216  0.0050130
 7649  0.0010012 -0.0207280  0.0042275
 7650  0.0018380 -0.0205414  0.0022279
 7651  1.39e-006 -0.0157677  0.0024461
 7652 -0.0033483 -0.0129300  0.0058721
 7653  0.0036838 -0.0270759  0.0039051
 7654  0.0042815 -0.0260130  0.0012622
 7655  0.0071353 -0.0342151  0.0023506
 7656  0.0072096 -0.0318878 -0.0007572
 7657  0.0043830 -0.0245148 -0.0010412
 7658  0.0068154 -0.0293648 -0.0033404
 7659  0.0060874 -0.0267732 -0.0054680
 7660  0.0041015 -0.0227442 -0.0029938
 7661  0.0023051 -0.0187537 -0.0012692
 7662  0.0022533 -0.0198358  0.0003723
 7663  0.0093155 -0.0339607 -0.0066009
 7664  0.0103518 -0.0376470 -0.0040399
 7665  0.0131855 -0.0425903 -0.0085496
 7666  0.0114941 -0.0377727 -0.0104660
 7667  0.0099703 -0.0337638 -0.0126624
 7668  0.0080842 -0.0305468 -0.0087186
 7669  0.0110812 -0.0415070 -0.0009000
 7670  0.0150126 -0.0478482 -0.0064068
 7671  0.0182508 -0.0514128 -0.0146871
 7672  0.0201581 -0.0519150 -0.0230026
 7673  0.0152799 -0.0423694 -0.0241943
 7674  0.0151719 -0.0458540 -0.0158080
 7675  0.0206921 -0.0514143 -0.0310544
 7676  0.0173420 -0.0457758 -0.0316518
 7677  0.0204162 -0.0477735 -0.0388683
 7678  0.0176648 -0.0424930 -0.0385472
 7679  0.0191860 -0.0413878 -0.0441967
 7680  0.0166440 -0.0375066 -0.0430312
 7681  0.0178490 -0.0340542 -0.0473809
 7682  0.0154179 -0.0317019 -0.0462941
 7683  0.0137211 -0.0337979 -0.0419196
 7684  0.0125114 -0.0291637 -0.0451841
 7685  0.0092621 -0.0265773 -0.0439922
 7686  0.0105788 -0.0304013 -0.0407306
 7687  0.0118209 -0.0336472 -0.0367874
 7688  0.0147187 -0.0376293 -0.0380467
 7689  0.0113985 -0.0242850 -0.0474872
 7690  0.0144451 -0.0257957 -0.0483042
 7691  0.0139793 -0.0202943 -0.0492708
 7692  0.0106068 -0.0195790 -0.0489098
 7693  0.0068896 -0.0184884 -0.0482059
 7694  0.0079731 -0.0225091 -0.0464745
 7695  0.0169995 -0.0268776 -0.0489086
 7696  0.0169346 -0.0204925 -0.0492179
 7697  0.0177061 -0.0151759 -0.0487883
 7698  0.0141286 -0.0154927 -0.0494952
 7699  0.0210068 -0.0142695 -0.0473591
 7700  0.0234242 -0.0099414 -0.0459632
 7701  0.0191941 -0.0109439 -0.0480008
 7702  0.0148636 -0.0115004 -0.0492632
 7703  0.0241420 -0.0127234 -0.0449950
 7704  0.0277151 -0.0085117 -0.0429769
 7705  0.0212550 -0.0076854 -0.0471270
 7706  0.0264257 -0.0067609 -0.0446613
 7707  0.0297763 -0.0044496 -0.0435588
 7708  0.0237028 -0.0052280 -0.0462942
 7709  0.0177403 -0.0058164 -0.0482733
 7710  0.0161078 -0.0083037 -0.0488078
 7711  0.0317689 -0.0055717 -0.0413215
 7712  0.0360666 -0.0035206 -0.0400426
 7713  0.0404815 -0.0021051 -0.0390837
 7714  0.0333311 -0.0027893 -0.0427005
 7715  0.0449141 -0.0011354 -0.0383999
 7716  0.0369830 -0.0016181 -0.0420454
 7717  0.0264130 -0.0034120 -0.0455987
 7718  0.0293016 -0.0020840 -0.0450133
 7719  0.0217768 -0.0024839 -0.0473249
 7720  0.0196586 -0.0039159 -0.0477767
 7721  0.0322641 -0.0011291 -0.0445885
 7722  0.0406590 -0.0007924 -0.0415953
 7723  0.0443382 -0.0002216 -0.0412866
 7724  0.0352661 -0.0004502 -0.0442826
 7725  0.0263267 -0.0006620 -0.0467008
 7726  0.0240161 -0.0014279 -0.0469744
 7727  0.0492868 -0.0004712 -0.0379577
 7728  0.0536208 -0.0000249 -0.0376791
 7729  0.0579011  0.0002672 -0.0375239
 7730  0.0479968  0.0001636 -0.0410941
 7731  0.0621301  0.0004503 -0.0374575
 7732  0.0516243  0.0004146 -0.0409898
 7733  0.0382771  0.0000198 -0.0440767
 7734  0.0412792  0.0003351 -0.0439502
 7735  0.0310320  0.0002544 -0.0463701
 7736  0.0286736 -0.0001191 -0.0465032
 7737  0.0442619  0.0005365 -0.0438845
 7738  0.0552175  0.0005688 -0.0409502
 7739  0.0587765  0.0006533 -0.0409566
 7740  0.0472198  0.0006546 -0.0438640
 7741  0.0357255  0.0006523 -0.0462484
 7742  0.0333858  0.0005007 -0.0462890
 7743  0.0663125  0.0005562 -0.0374537
 7744  0.0704543  0.0006078 -0.0374924
 7745  0.0745613  0.0006216 -0.0375586
 7746  0.0623032  0.0006885 -0.0409944
 7747  0.0786392  0.0006096 -0.0376413
 7748  0.0658008  0.0006893 -0.0410525
 7749  0.0501510  0.0007125 -0.0438758
 7750  0.0530555  0.0007277 -0.0439097
 7751  0.0403426  0.0007660 -0.0462493
 7752  0.0380453  0.0007343 -0.0462380
 7753  0.0559344  0.0007131 -0.0439576
 7754  0.0692723  0.0006667 -0.0411225
 7755  0.0727210  0.0006288 -0.0411982
 7756  0.0587897  0.0006787 -0.0440137
 7757  0.0448674  0.0007338 -0.0463110
 7758  0.0426165  0.0007621 -0.0462754
 7759  0.0826930  0.0005805 -0.0377323
 7760  0.0867269  0.0005407 -0.0378257
 7761  0.0907445  0.0004948 -0.0379176
 7762  0.0761500  0.0005818 -0.0412752
 7763  0.0947489  0.0004463 -0.0380052
 7764  0.0795620  0.0005299 -0.0413504
 7765  0.0616236  0.0006317 -0.0440733
 7766  0.0644382  0.0005775 -0.0441334
 7767  0.0493054  0.0006360 -0.0463950
 7768  0.0470965  0.0006897 -0.0463519
 7769  0.0672359  0.0005202 -0.0441915
 7770  0.0829596  0.0004764 -0.0414216
 7771  0.0863449  0.0004235 -0.0414877
 7772  0.0700186  0.0004626 -0.0442463
 7773  0.0536698  0.0005176 -0.0464795
 7774  0.0514959  0.0005775 -0.0464380
 7775  0.0987427  0.0003974 -0.0380869
 7776  0.1027278  0.0003500 -0.0381615
 7777  0.1067059  0.0003049 -0.0382287
 7778  0.0897199  0.0003728 -0.0415478
 7779  0.1106786  0.0002631 -0.0382885
 7780  0.0930861  0.0003253 -0.0416018
 7781  0.0727885  0.0004066 -0.0442969
 7782  0.0755472  0.0003535 -0.0443426
 7783  0.0579755  0.0004023 -0.0465541
 7784  0.0558291  0.0004586 -0.0465184
 7785  0.0782965  0.0003043 -0.0443835
 7786  0.0964452  0.0002815 -0.0416495
 7787  0.0997982  0.0002418 -0.0416913
 7788  0.0810376  0.0002594 -0.0444195
 7789  0.0622362  0.0003015 -0.0466148
 7790  0.0601107  0.0003498 -0.0465862
 7791  0.1146468  0.0002248 -0.0383410
 7792  0.1186115  0.0001902 -0.0383866
 7793  0.1225734  0.0001594 -0.0384259
 7794  0.1031462  0.0002063 -0.0417275
 7795  0.1265332  0.0001321 -0.0384595
 7796  0.1064901  0.0001748 -0.0417585
 7797  0.0837719  0.0002190 -0.0444508
 7798  0.0865004  0.0001830 -0.0444778
 7799  0.0664636  0.0002191 -0.0466616
 7800  0.0643534  0.0002580 -0.0466399
 7801  0.0892242  0.0001512 -0.0445009
 7802  0.1098306  0.0001472 -0.0417849
 7803  0.1131684  0.0001234 -0.0418071
 7804  0.0919440  0.0001236 -0.0445203
 7805  0.0706671  0.0001550 -0.0466961
 7806  0.0685678  0.0001849 -0.0466803
 7807  0.1304914  0.0001083 -0.0384879
 7808  0.1344482  0.0000876 -0.0385117
 7809  0.1384041  0.0000698 -0.0385315
 7810  0.1165040  0.0001028 -0.0418256
 7811  0.1423592  0.0000547 -0.0385478
 7812  0.1198379  0.0000853 -0.0418409
 7813  0.0946605  0.0000997 -0.0445367
 7814  0.0973743  0.0000792 -0.0445502
 7815  0.0748540  0.0001071 -0.0467204
 7816  0.0727623  0.0001292 -0.0467094
 7817  0.1000860  0.0000618 -0.0445613
 7818  0.1231703  0.0000706 -0.0418534
 7819  0.1265017  0.0000582 -0.0418636
 7820  0.1027960  0.0000472 -0.0445704
 7821  0.0790297  0.0000726 -0.0467370
 7822  0.0769430  0.0000883 -0.0467296
 7823  0.1463138  0.0000418 -0.0385611
 7824  0.1502680  0.0000310 -0.0385718
 7825  0.1542219  0.0000220 -0.0385804
 7826  0.1298322  0.0000480 -0.0418718
 7827  0.1581756  0.0000145 -0.0385872
 7828  0.1331621  0.0000396 -0.0418783
 7829  0.1055046  0.0000349 -0.0445777
 7830  0.1082122  0.0000247 -0.0445835
 7831  0.0831980  0.0000487 -0.0467478
 7832  0.0811146  0.0000595 -0.0467430
 7833  0.1109189  0.0000163 -0.0445880
 7834  0.1364915  0.0000327 -0.0418833
 7835  0.1398205  0.0000272 -0.0418873
 7836  0.1136249  9.41e-006 -0.0445916
 7837  0.0873618  0.0000327 -0.0467546
 7838  0.0852803  0.0000398 -0.0467516
 7839  0.1621293  8.39e-006 -0.0385925
 7840  0.1660829  3.38e-006 -0.0385966
 7841  0.1700364 -6.82e-007 -0.0385997
 7842  0.1431492  0.0000229 -0.0418902
 7843  0.1739900 -3.95e-006 -0.0386019
 7844  0.1464778  0.0000195 -0.0418924
 7845  0.1163305  3.85e-006 -0.0445943
 7846  0.1190358 -6.35e-007 -0.0445963
 7847  0.0915228  0.0000225 -0.0467585
 7848  0.0894425  0.0000270 -0.0467568
 7849  0.1217408 -4.21e-006 -0.0445978
 7850  0.1498063  0.0000168 -0.0418940
 7851  0.1531347  0.0000149 -0.0418951
 7852  0.1244456 -7.05e-006 -0.0445988
 7853  0.0956824  0.0000164 -0.0467607
 7854  0.0936027  0.0000190 -0.0467598
 7855  0.1779436 -6.56e-006 -0.0386035
 7856  0.1818972 -8.62e-006 -0.0386046
 7857  0.1858509 -0.0000103 -0.0386053
 7858  0.1564631  0.0000134 -0.0418959
 7859  0.1898046 -0.0000115 -0.0386057
 7860  0.1597915  0.0000124 -0.0418963
 7861  0.1271503 -9.26e-006 -0.0445995
 7862  0.1298550 -0.0000110 -0.0445999
 7863  0.0998412  0.0000130 -0.0467616
 7864  0.0977619  0.0000144 -0.0467612
 7865  0.1325597 -0.0000123 -0.0446001
 7866  0.1631199  0.0000117 -0.0418965
 7867  0.1664483  0.0000113 -0.0418965
 7868  0.1352643 -0.0000134 -0.0446002
 7869  0.1039999  0.0000113 -0.0467619
 7870  0.1019206  0.0000120 -0.0467618
 7871  0.1937584 -0.0000125 -0.0386059
 7872  0.1977123 -0.0000133 -0.0386059
 7873  0.2016662 -0.0000139 -0.0386058
 7874  0.1697768  0.0000111 -0.0418964
 7875  0.2056201 -0.0000144 -0.0386056
 7876  0.1731053  0.0000111 -0.0418963
 7877  0.1379690 -0.0000142 -0.0446001
 7878  0.1406737 -0.0000148 -0.0446000
 7879  0.1081586  0.0000108 -0.0467617
 7880  0.1060792  0.0000109 -0.0467618
 7881  0.1433785 -0.0000152 -0.0445998
 7882  0.1764339  0.0000111 -0.0418960
 7883  0.1797625  0.0000113 -0.0418958
 7884  0.1460833 -0.0000156 -0.0445995
 7885  0.1123174  0.0000108 -0.0467614
 7886  0.1102380  0.0000107 -0.0467616
 7887  0.2095741 -0.0000148 -0.0386053
 7888  0.2135281 -0.0000151 -0.0386050
 7889  0.2174821 -0.0000154 -0.0386046
 7890  0.1830911  0.0000115 -0.0418954
 7891  0.2214362 -0.0000156 -0.0386043
 7892  0.1864198  0.0000117 -0.0418951
 7893  0.1487882 -0.0000159 -0.0445993
 7894  0.1514931 -0.0000162 -0.0445990
 7895  0.1164765  0.0000112 -0.0467610
 7896  0.1143970  0.0000110 -0.0467612
 7897  0.1541981 -0.0000165 -0.0445987
 7898  0.1897486  0.0000119 -0.0418948
 7899  0.1930774  0.0000122 -0.0418944
 7900  0.1569032 -0.0000167 -0.0445984
 7901  0.1206359  0.0000117 -0.0467605
 7902  0.1185562  0.0000114 -0.0467608
 7903  0.2253903 -0.0000159 -0.0386039
 7904  0.2293445 -0.0000161 -0.0386035
 7905  0.2332986 -0.0000163 -0.0386032
 7906  0.1964062  0.0000125 -0.0418941
 7907  0.2372528 -0.0000166 -0.0386028
 7908  0.1997351  0.0000127 -0.0418938
 7909  0.1596083 -0.0000169 -0.0445981
 7910  0.1623135 -0.0000172 -0.0445978
 7911  0.1247956  0.0000122 -0.0467600
 7912  0.1227157  0.0000119 -0.0467603
 7913  0.1650187 -0.0000174 -0.0445975
 7914  0.2030640  0.0000129 -0.0418934
 7915  0.2063930  0.0000132 -0.0418931
 7916  0.1677240 -0.0000177 -0.0445972
 7917  0.1289555  0.0000127 -0.0467596
 7918  0.1268755  0.0000124 -0.0467598
 7919  0.2412071 -0.0000168 -0.0386024
 7920  0.2451613 -0.0000171 -0.0386020
 7921  0.2491156 -0.0000173 -0.0386017
 7922  0.2097220  0.0000134 -0.0418927
 7923  0.2530699 -0.0000176 -0.0386013
 7924  0.2130510  0.0000137 -0.0418924
 7925  0.1704293 -0.0000179 -0.0445970
 7926  0.1731347 -0.0000182 -0.0445967
 7927  0.1331157  0.0000132 -0.0467591
 7928  0.1310356  0.0000129 -0.0467593
 7929  0.1758402 -0.0000184 -0.0445964
 7930  0.2163801  0.0000139 -0.0418921
 7931  0.2197093  0.0000142 -0.0418918
 7932  0.1785457 -0.0000186 -0.0445961
 7933  0.1372762  0.0000138 -0.0467587
 7934  0.1351959  0.0000134 -0.0467589
 7935  0.2570242 -0.0000178 -0.0386009
 7936  0.2609786 -0.0000181 -0.0386006
 7937  0.2649330 -0.0000182 -0.0386003
 7938  0.2230385  0.0000146 -0.0418915
 7939  0.2688874 -0.0000183 -0.0386000
 7940  0.2263677  0.0000150 -0.0418913
 7941  0.1812513 -0.0000187 -0.0445959
 7942  0.1839569 -0.0000187 -0.0445957
 7943  0.1414369  0.0000147 -0.0467583
 7944  0.1393565  0.0000142 -0.0467585
 7945  0.1866626 -0.0000186 -0.0445956
 7946  0.2296970  0.0000156 -0.0418911
 7947  0.2330263  0.0000163 -0.0418910
 7948  0.1893683 -0.0000183 -0.0445955
 7949  0.1455977  0.0000162 -0.0467582
 7950  0.1435173  0.0000154 -0.0467582
 7951  0.2728419 -0.0000183 -0.0385998
 7952  0.2767964 -0.0000182 -0.0385997
 7953  0.2807510 -0.0000179 -0.0385996
 7954  0.2363557  0.0000172 -0.0418910
 7955  0.2847056 -0.0000174 -0.0385998
 7956  0.2396851  0.0000184 -0.0418912
 7957  0.1920740 -0.0000178 -0.0445955
 7958  0.1947797 -0.0000169 -0.0445958
 7959  0.1497586  0.0000189 -0.0467585
 7960  0.1476782  0.0000174 -0.0467583
 7961  0.1974855 -0.0000157 -0.0445962
 7962  0.2430145  0.0000199 -0.0418917
 7963  0.2463439  0.0000218 -0.0418924
 7964  0.2001911 -0.0000139 -0.0445968
 7965  0.1539193  0.0000233 -0.0467594
 7966  0.1518390  0.0000208 -0.0467588
 7967  0.2886603 -0.0000166 -0.0386002
 7968  0.2926150 -0.0000155 -0.0386009
 7969  0.2965698 -0.0000139 -0.0386020
 7970  0.2496733  0.0000243 -0.0418935
 7971  0.3005245 -0.0000118 -0.0386036
 7972  0.2530026  0.0000274 -0.0418951
 7973  0.2028967 -0.0000116 -0.0445979
 7974  0.2056020 -8.50e-006 -0.0445993
 7975  0.1580793  0.0000304 -0.0467615
 7976  0.1559994  0.0000264 -0.0467602
 7977  0.2083072 -4.51e-006 -0.0446013
 7978  0.2563318  0.0000313 -0.0418972
 7979  0.2596607  0.0000362 -0.0419002
 7980  0.2110119  5.61e-007 -0.0446040
 7981  0.1622378  0.0000416 -0.0467654
 7982  0.1601588  0.0000354 -0.0467631
 7983  0.3044794 -9.01e-006 -0.0386059
 7984  0.3084342 -5.44e-006 -0.0386090
 7985  0.3123889 -9.20e-007 -0.0386130
 7986  0.2629895  0.0000421 -0.0419041
 7987  0.3163436  4.71e-006 -0.0386183
 7988  0.2663178  0.0000494 -0.0419092
 7989  0.2137162  6.93e-006 -0.0446075
 7990  0.2164199  0.0000148 -0.0446120
 7991  0.1663935  0.0000585 -0.0467720
 7992  0.1643161  0.0000492 -0.0467683
 7993  0.2191227  0.0000244 -0.0446178
 7994  0.2696457  0.0000583 -0.0419156
 7995  0.2729729  0.0000689 -0.0419237
 7996  0.2218244  0.0000361 -0.0446250
 7997  0.1705447  0.0000832 -0.0467828
 7998  0.1684698  0.0000697 -0.0467768
 7999  0.3202982  0.0000116 -0.0386251
 8000  0.3242526  0.0000201 -0.0386336
 8001  0.3282068  0.0000302 -0.0386443
 8002  0.2762993  0.0000816 -0.0419338
 8003  0.3321605  0.0000423 -0.0386575
 8004  0.2796246  0.0000966 -0.0419463
 8005  0.2245248  0.0000501 -0.0446340
 8006  0.2272235  0.0000668 -0.0446451
 8007  0.1746886  0.0001183 -0.0467994
 8008  0.1726178  0.0000993 -0.0467902
 8009  0.2299201  0.0000863 -0.0446587
 8010  0.2829486  0.0001141 -0.0419615
 8011  0.2862709  0.0001344 -0.0419799
 8012  0.2326142  0.0001090 -0.0446750
 8013  0.1788217  0.0001662 -0.0468240
 8014  0.1767568  0.0001405 -0.0468105
 8015  0.3361138  0.0000566 -0.0386736
 8016  0.3400664  0.0000732 -0.0386932
 8017  0.3440182  0.0000924 -0.0387167
 8018  0.2895913  0.0001578 -0.0420020
 8019  0.3479689  0.0001143 -0.0387446
 8020  0.2929092  0.0001843 -0.0420282
 8021  0.2353052  0.0001351 -0.0446945
 8022  0.2379926  0.0001649 -0.0447178
 8023  0.1829389  0.0002291 -0.0468593
 8024  0.1808826  0.0001956 -0.0468401
 8025  0.2406757  0.0001982 -0.0447451
 8026  0.2962242  0.0002140 -0.0420590
 8027  0.2995357  0.0002469 -0.0420950
 8028  0.2433538  0.0002351 -0.0447770
 8029  0.1870342  0.0003079 -0.0469082
 8030  0.1849897  0.0002665 -0.0468818
 8031  0.3519183  0.0001390 -0.0387775
 8032  0.3558661  0.0001663 -0.0388159
 8033  0.3598120  0.0001961 -0.0388603
 8034  0.3028434  0.0002826 -0.0421365
 8035  0.3637557  0.0002279 -0.0389112
 8036  0.3061465  0.0003207 -0.0421841
 8037  0.2460262  0.0002753 -0.0448139
 8038  0.2486919  0.0003181 -0.0448562
 8039  0.1911002  0.0004008 -0.0469740
 8040  0.1890713  0.0003529 -0.0469388
 8041  0.2513504  0.0003625 -0.0449041
 8042  0.3094444  0.0003602 -0.0422379
 8043  0.3127367  0.0003999 -0.0422980
 8044  0.2540007  0.0004071 -0.0449577
 8045  0.1951294  0.0005006 -0.0470590
 8046  0.1931199  0.0004506 -0.0470140
 8047  0.3676968  0.0002610 -0.0389687
 8048  0.3716350  0.0002943 -0.0390329
 8049  0.3755699  0.0003262 -0.0391036
 8050  0.3160228  0.0004379 -0.0423643
 8051  0.3795013  0.0003547 -0.0391801
 8052  0.3193024  0.0004717 -0.0424361
 8053  0.2566423  0.0004497 -0.0450171
 8054  0.2592748  0.0004875 -0.0450817
 8055  0.1991151  0.0005913 -0.0471643
 8056  0.1971280  0.0005485 -0.0471092
 8057  0.2618978  0.0005167 -0.0451508
 8058  0.3225752  0.0004979 -0.0425125
 8059  0.3258413  0.0005122 -0.0425916
 8060  0.2645116  0.0005323 -0.0452229
 8061  0.2030544  0.0006429 -0.0472867
 8062  0.2010905  0.0006246 -0.0472237
 8063  0.3834289  0.0003770 -0.0392613
 8064  0.3873528  0.0003893 -0.0393452
 8065  0.3912728  0.0003872 -0.0394291
 8066  0.3291010  0.0005092 -0.0426710
 8067  0.3951894  0.0003651 -0.0395088
 8068  0.3323553  0.0004822 -0.0427469
 8069  0.2671169  0.0005280 -0.0452960
 8070  0.2697149  0.0004961 -0.0453669
 8071  0.2069521  0.0006053 -0.0474160
 8072  0.2050077  0.0006394 -0.0473516
 8073  0.2723080  0.0004271 -0.0454311
 8074  0.3356053  0.0004230 -0.0428144
 8075  0.3388531  0.0003222 -0.0428664
 8076  0.2748990  0.0003098 -0.0454826
 8077  0.2108270  0.0004005 -0.0475281
 8078  0.2088905  0.0005299 -0.0474766
 8079  0.3991028  0.0003163 -0.0395791
 8080  0.4030138  0.0002330 -0.0396327
 8081  0.4069230  0.0001066 -0.0396605
 8082  0.3421011  0.0001689 -0.0428942
 8083  0.4108313 -0.0000727 -0.0396507
 8084  0.3453523 -0.0000488 -0.0428863
 8085  0.2774923  0.0001314 -0.0455132
 8086  0.2800930 -0.0001227 -0.0455122
 8087  0.2147183 -0.0000827 -0.0475742
 8088  0.2127671  0.0002020 -0.0475638
 8089  0.2827075 -0.0004683 -0.0454655
 8090  0.3486100 -0.0003438 -0.0428281
 8091  0.3518777 -0.0007288 -0.0427022
 8092  0.2853422 -0.0009214 -0.0453553
 8093  0.2186916 -0.0009880 -0.0474634
 8094  0.2166894 -0.0004726 -0.0475465
 8095  0.4147390 -0.0003148 -0.0395891
 8096  0.4186461 -0.0006297 -0.0394582
 8097  0.4225491 -0.0010264 -0.0392386
 8098  0.3551601 -0.0012150 -0.0424864
 8099  0.4263807 -0.0015305 -0.0389097
 8100  0.3584037 -0.0018670 -0.0421927
 8101  0.2880023 -0.0014981 -0.0451604
 8102  0.2905742 -0.0022156 -0.0449034
 8103  0.2227343 -0.0024950 -0.0470883
 8104  0.2207368 -0.0016471 -0.0473031
 8105  0.2931567 -0.0030303 -0.0443886
 8106  0.3615584 -0.0025593 -0.0417022
 8107  0.3645506 -0.0034320 -0.0410637
 8108  0.2956955 -0.0040616 -0.0438574
 8109  0.2269178 -0.0047212 -0.0461295
 8110  0.2248580 -0.0035102 -0.0466128
 8111  0.4299643 -0.0020666 -0.0384575
 8112  0.4335037 -0.0027387 -0.0377983
 8113  0.4370130 -0.0035292 -0.0370582
 8114  0.3675647 -0.0043844 -0.0402170
 8115  0.4403304 -0.0043444 -0.0360136
 8116  0.3704344 -0.0054032 -0.0391637
 8117  0.2982296 -0.0052626 -0.0429903
 8118  0.3006625 -0.0065112 -0.0419478
 8119  0.2310290 -0.0075954 -0.0443191
 8120  0.2289842 -0.0060908 -0.0453052
 8121  0.3029362 -0.0079363 -0.0405714
 8122  0.3730548 -0.0065668 -0.0378309
 8123  0.3051188 -0.0093564 -0.0389898
 8124  0.2351136 -0.0110054 -0.0413581
 8125  0.2330012 -0.0092977 -0.0429821
 8126  0.4432807 -0.0052568 -0.0347337
 8127  0.3066682 -0.0107904 -0.0369769
 8128  0.2368604 -0.0127819 -0.0393375
 8129  0.3077445 -0.0121591 -0.0346657
 8130  0.2383386 -0.0144705 -0.0370287
 8131  0.1672301 -0.0147705 -0.0413398
 8132  0.1689945 -0.0167087 -0.0390410
 8133  0.0997735 -0.0191162 -0.0404879
 8134  0.0975261 -0.0168305 -0.0429969
 8135  0.0955096 -0.0143245 -0.0450726
 8136  0.1653396 -0.0126729 -0.0433376
 8137  0.1706424 -0.0184638 -0.0366070
 8138  0.2390219 -0.0159377 -0.0344639
 8139  0.2388813 -0.0174230 -0.0318201
 8140  0.1719346 -0.0198365 -0.0347197
 8141  0.1052521 -0.0225396 -0.0344201
 8142  0.1023406 -0.0211794 -0.0375655
 8143  0.3073962 -0.0133936 -0.0320174
 8144  0.3036242 -0.0148066 -0.0289215
 8145  0.2904957 -0.0154332 -0.0249930
 8146  0.2857853 -0.0165215 -0.0229023
 8147  0.1746179 -0.0213302 -0.0241188
 8148  0.2177277 -0.0183810 -0.0270550
 8149  0.2929871 -0.0154808 -0.0205388
 8150  0.2200818 -0.0183561 -0.0202163
 8151  0.3091924 -0.0148293 -0.0161108
 8152  0.2436168 -0.0174055 -0.0150818
 8153  0.3157198 -0.0134179 -0.0128231
 8154  0.2456275 -0.0159597 -0.0124003
 8155  0.3186985 -0.0121717 -0.0101020
 8156  0.2468512 -0.0144683 -0.0098083
 8157  0.1753853 -0.0184103 -0.0117696
 8158  0.1750451 -0.0166954 -0.0093309
 8159  0.1032969 -0.0191310 -0.0088851
 8160  0.1051955 -0.0211874 -0.0118037
 8161  0.1074881 -0.0225091 -0.0149327
 8162  0.1754987 -0.0197361 -0.0136403
 8163  0.1745810 -0.0147664 -0.0070193
 8164  0.2473855 -0.0127785 -0.0074699
 8165  0.2477054 -0.0110255 -0.0054338
 8166  0.1741056 -0.0126886 -0.0050275
 8167  0.1005455 -0.0143215 -0.0043109
 8168  0.1017678 -0.0168242 -0.0063709
 8169  0.3203211 -0.0107622 -0.0077383
 8170  0.3214049 -0.0093255 -0.0056814
 8171  0.3221122 -0.0078915 -0.0040439
 8172  0.2479009 -0.0092973 -0.0038040
 8173  0.3964013 -0.0065323 -0.0041806
 8174  0.3970627 -0.0054367 -0.0028242
 8175  0.3224049 -0.0065215 -0.0026786
 8176  0.2478713 -0.0075991 -0.0025068
 8177  0.4709669 -0.0052444 -0.0039666
 8178  0.4720023 -0.0043824 -0.0026264
 8179  0.3227128 -0.0052366 -0.0015931
 8180  0.3976179 -0.0043934 -0.0017009
 8181  0.3978744 -0.0034473 -0.0008435
 8182  0.3227353 -0.0040655 -0.0007627
 8183  0.2477208 -0.0047340 -0.0006302
 8184  0.2478664 -0.0060522 -0.0014630
 8185  0.4726337 -0.0035246 -0.0015965
 8186  0.4730036 -0.0027330 -0.0008054
 8187  0.4734409 -0.0020671 -0.0001572
 8188  0.3981773 -0.0025565 -0.0002439
 8189  0.4738283 -0.0015344  0.0003439
 8190  0.3983026 -0.0018480  0.0003083
 8191  0.3228966 -0.0030296 -0.0002297
 8192  0.3230342 -0.0022164  0.0003061
 8193  0.2476915 -0.0024939  0.0003335
 8194  0.2477309 -0.0035132 -0.0001531
 8195  0.3231688 -0.0015018  0.0005629
 8196  0.3984362 -0.0012131  0.0005932
 8197  0.3984816 -0.0007252  0.0008085
 8198  0.3232144 -0.0009249  0.0007576
 8199  0.2478095 -0.0009846  0.0007035
 8200  0.2477748 -0.0016437  0.0005433
 8201  0.4739535 -0.0010294  0.0006341
 8202  0.4740049 -0.0006330  0.0008559
 8203  0.4740520 -0.0003184  0.0009866
 8204  0.3985431 -0.0003400  0.0009346
 8205  0.4740985 -0.0000765  0.0010482
 8206  0.3986144 -0.0000447  0.0009927
 8207  0.3232849 -0.0004718  0.0008678
 8208  0.3233758 -0.0001264  0.0009144
 8209  0.2479960 -0.0000785  0.0008141
 8210  0.2478872 -0.0004687  0.0007865
 8211  0.3234804  0.0001274  0.0009154
 8212  0.3986922  0.0001733  0.0010006
 8213  0.3987732  0.0003267  0.0009727
 8214  0.3235924  0.0003055  0.0008848
 8215  0.2482648  0.0004050  0.0007680
 8216  0.2481249  0.0002064  0.0008037
 8217  0.4741445  0.0001025  0.0010578
 8218  0.4741895  0.0002287  0.0010300
 8219  0.4742327  0.0003116  0.0009764
 8220  0.3988544  0.0004277  0.0009207
 8221  0.4742735  0.0003602  0.0009061
 8222  0.3989332  0.0004871  0.0008532
 8223  0.3237066  0.0004225  0.0008333
 8224  0.3238188  0.0004912  0.0007691
 8225  0.2485498  0.0006103  0.0006560
 8226  0.2484083  0.0005346  0.0007165
 8227  0.3239260  0.0005228  0.0006982
 8228  0.3990079  0.0005144  0.0007773
 8229  0.3990771  0.0005177  0.0006979
 8230  0.3240259  0.0005269  0.0006251
 8231  0.2488120  0.0006484  0.0005267
 8232  0.2486853  0.0006446  0.0005916
 8233  0.4743112  0.0003820  0.0008264
 8234  0.4743453  0.0003839  0.0007425
 8235  0.4743757  0.0003713  0.0006586
 8236  0.3991399  0.0005036  0.0006187
 8237  0.4744023  0.0003488  0.0005774
 8238  0.3991960  0.0004776  0.0005424
 8239  0.3241173  0.0005111  0.0005530
 8240  0.3241995  0.0004816  0.0004839
 8241  0.2490325  0.0005973  0.0004042
 8242  0.2489280  0.0006303  0.0004637
 8243  0.3242723  0.0004436  0.0004193
 8244  0.3992454  0.0004441  0.0004705
 8245  0.3992882  0.0004063  0.0004043
 8246  0.3243359  0.0004007  0.0003599
 8247  0.2492066  0.0005070  0.0002990
 8248  0.2491253  0.0005548  0.0003492
 8249  0.4744251  0.0003201  0.0005008
 8250  0.4744444  0.0002879  0.0004301
 8251  0.4744604  0.0002543  0.0003659
 8252  0.3993248  0.0003669  0.0003441
 8253  0.4744735  0.0002210  0.0003084
 8254  0.3993557  0.0003276  0.0002903
 8255  0.3243907  0.0003558  0.0003063
 8256  0.3244375  0.0003112  0.0002584
 8257  0.2493372  0.0004078  0.0002139
 8258  0.2492770  0.0004573  0.0002540
 8259  0.3244770  0.0002681  0.0002161
 8260  0.3993816  0.0002898  0.0002428
 8261  0.3994028  0.0002543  0.0002012
 8262  0.3245098  0.0002277  0.0001792
 8263  0.2494310  0.0003153  0.0001482
 8264  0.2493882  0.0003601  0.0001788
 8265  0.4744841  0.0001889  0.0002575
 8266  0.4744924  0.0001589  0.0002131
 8267  0.4744988  0.0001313  0.0001747
 8268  0.3994201  0.0002217  0.0001652
 8269  0.4745036  0.0001064  0.0001418
 8270  0.3994341  0.0001922  0.0001344
 8271  0.3245369  0.0001906  0.0001473
 8272  0.3245590  0.0001570  0.0001199
 8273  0.2494955  0.0002370  0.0000992
 8274  0.2494664  0.0002742  0.0001218
 8275  0.3245769  0.0001270  0.0000967
 8276  0.3994451  0.0001659  0.0001082
 8277  0.3994537  0.0001428  0.0000861
 8278  0.3245910  0.0001006  0.0000771
 8279  0.2495381  0.0001745  0.0000639
 8280  0.2495191  0.0002038  0.0000800
 8281  0.4745071  0.0000843  0.0001138
 8282  0.4745095  0.0000648  0.0000904
 8283  0.4745111  0.0000479  0.0000708
 8284  0.3994602  0.0001227  0.0000677
 8285  0.4745121  0.0000334  0.0000547
 8286  0.3994651  0.0001054  0.0000525
 8287  0.3246021  0.0000776  0.0000608
 8288  0.3246107  0.0000579  0.0000473
 8289  0.2495648  0.0001272  0.0000393
 8290  0.2495531  0.0001491  0.0000505
 8291  0.3246172  0.0000410  0.0000362
 8292  0.3994687  0.0000907  0.0000400
 8293  0.3994712  0.0000783  0.0000299
 8294  0.3246220  0.0000267  0.0000272
 8295  0.2495807  0.0000926  0.0000227
 8296  0.2495738  0.0001084  0.0000301
 8297  0.4745125  0.0000211  0.0000415
 8298  0.4745126  0.0000107  0.0000308
 8299  0.4745124  1.99e-006  0.0000222
 8300  0.3994729  0.0000679  0.0000218
 8301  0.4745120 -5.18e-006  0.0000155
 8302  0.3994740  0.0000593  0.0000154
 8303  0.3246255  0.0000148  0.0000199
 8304  0.3246279  4.91e-006  0.0000142
 8305  0.2495893  0.0000684  0.0000120
 8306  0.2495857  0.0000793  0.0000168
 8307  0.3246294 -3.22e-006  9.62e-006
 8308  0.3994745  0.0000522  0.0000103
 8309  0.3994747  0.0000465  6.41e-006
 8310  0.3246303 -9.83e-006  6.12e-006
 8311  0.2495933  0.0000519  5.30e-006
 8312  0.2495917  0.0000593  8.20e-006
 8313  0.4745115 -0.0000111  0.0000102
 8314  0.4745110 -0.0000158  6.14e-006
 8315  0.4745104 -0.0000196  3.08e-006
 8316  0.3994746  0.0000419  3.46e-006
 8317  0.4745098 -0.0000227  8.27e-007
 8318  0.3994743  0.0000382  1.26e-006
 8319  0.3246308 -0.0000151  3.45e-006
 8320  0.3246309 -0.0000194  1.45e-006
 8321  0.2495946  0.0000413  1.40e-006
 8322  0.2495942  0.0000460  3.08e-006
 8323  0.3246307 -0.0000227 -1.78e-009
 8324  0.3994739  0.0000354 -3.23e-007
 8325  0.3994735  0.0000331 -1.42e-006
 8326  0.3246303 -0.0000253 -1.01e-006
 8327  0.2495945  0.0000346 -6.73e-007
 8328  0.2495947  0.0000375  1.71e-007
 8329  0.4745092 -0.0000250 -7.84e-007
 8330  0.4745086 -0.0000269 -1.89e-006
 8331  0.4745081 -0.0000283 -2.59e-006
 8332  0.3994730  0.0000314 -2.14e-006
 8333  0.4745077 -0.0000293 -2.99e-006
 8334  0.3994724  0.0000302 -2.56e-006
 8335  0.3246299 -0.0000273 -1.68e-006
 8336  0.3246294 -0.0000288 -2.09e-006
 8337  0.2495936  0.0000307 -1.61e-006
 8338  0.2495941  0.0000324 -1.23e-006
 8339  0.3246288 -0.0000299 -2.30e-006
 8340  0.3994720  0.0000292 -2.76e-006
 8341  0.3994715  0.0000286 -2.79e-006
 8342  0.3246283 -0.0000307 -2.35e-006
 8343  0.2495925  0.0000285 -1.85e-006
 8344  0.2495930  0.0000294 -1.81e-006
 8345  0.4745073 -0.0000301 -3.16e-006
 8346  0.4745069 -0.0000306 -3.15e-006
 8347  0.4745066 -0.0000310 -3.02e-006
 8348  0.3994711  0.0000281 -2.70e-006
 8349  0.4745063 -0.0000312 -2.80e-006
 8350  0.3994707  0.0000278 -2.52e-006
 8351  0.3246278 -0.0000312 -2.29e-006
 8352  0.3246273 -0.0000316 -2.15e-006
 8353  0.2495913  0.0000275 -1.72e-006
 8354  0.2495919  0.0000279 -1.80e-006
 8355  0.3246269 -0.0000318 -1.96e-006
 8356  0.3994703  0.0000276 -2.28e-006
 8357  0.3994700  0.0000275 -2.00e-006
 8358  0.3246265 -0.0000319 -1.72e-006
 8359  0.2495904  0.0000270 -1.38e-006
 8360  0.2495909  0.0000272 -1.58e-006
 8361  0.4745061 -0.0000313 -2.52e-006
 8362  0.4745059 -0.0000314 -2.20e-006
 8363  0.4745057 -0.0000314 -1.85e-006
 8364  0.3994698  0.0000275 -1.69e-006
 8365  0.4745056 -0.0000314 -1.49e-006
 8366  0.3994696  0.0000274 -1.36e-006
 8367  0.3246262 -0.0000320 -1.45e-006
 8368  0.3246259 -0.0000320 -1.18e-006
 8369  0.2495897  0.0000270 -9.47e-007
 8370  0.2495901  0.0000270 -1.16e-006
 8371  0.3246257 -0.0000320 -8.92e-007
 8372  0.3994694  0.0000275 -1.03e-006
 8373  0.3994693  0.0000275 -6.86e-007
 8374  0.3246256 -0.0000320 -5.95e-007
 8375  0.2495893  0.0000269 -4.79e-007
 8376  0.2495895  0.0000269 -7.31e-007
 8377  0.4745055 -0.0000314 -1.12e-006
 8378  0.4745054 -0.0000314 -7.49e-007
 8379  0.4745054 -0.0000314 -3.75e-007
 8380  0.3994693  0.0000275 -3.42e-007
 8381  0.4745054 -0.0000314 -8.32e-012
 8382  0.3994693  0.0000275 -7.53e-012
 8383  0.3246255 -0.0000320 -2.94e-007
 8384  0.3246255 -0.0000320 -6.40e-012
 8385  0.2495892  0.0000270 -5.02e-012
 8386  0.2495892  0.0000269 -2.26e-007
 8387  0.3246255 -0.0000320  2.94e-007
 8388  0.3994693  0.0000275  3.42e-007
 8389  0.3994693  0.0000275  6.86e-007
 8390  0.3246256 -0.0000320  5.95e-007
 8391  0.2495893  0.0000269  4.79e-007
 8392  0.2495892  0.0000269  2.26e-007
 8393  0.4745054 -0.0000314  3.75e-007
 8394  0.4745054 -0.0000314  7.49e-007
 8395  0.4745055 -0.0000314  1.12e-006
 8396  0.3994694  0.0000275  1.03e-006
 8397  0.4745056 -0.0000314  1.49e-006
 8398  0.3994696  0.0000274  1.36e-006
 8399  0.3246257 -0.0000320  8.92e-007
 8400  0.3246259 -0.0000320  1.18e-006
 8401  0.2495897  0.0000270  9.47e-007
 8402  0.2495895  0.0000269  7.31e-007
 8403  0.3246262 -0.0000320  1.45e-006
 8404  0.3994698  0.0000275  1.69e-006
 8405  0.3994700  0.0000275  2.00e-006
 8406  0.3246265 -0.0000319  1.72e-006
 8407  0.2495904  0.0000270  1.38e-006
 8408  0.2495901  0.0000270  1.16e-006
 8409  0.4745057 -0.0000314  1.85e-006
 8410  0.4745059 -0.0000314  2.20e-006
 8411  0.4745061 -0.0000313  2.52e-006
 8412  0.3994703  0.0000276  2.28e-006
 8413  0.4745063 -0.0000312  2.80e-006
 8414  0.3994707  0.0000278  2.52e-006
 8415  0.3246269 -0.0000318  1.96e-006
 8416  0.3246273 -0.0000316  2.15e-006
 8417  0.2495913  0.0000275  1.72e-006
 8418  0.2495909  0.0000272  1.58e-006
 8419  0.3246278 -0.0000312  2.29e-006
 8420  0.3994711  0.0000281  2.70e-006
 8421  0.3994715  0.0000286  2.79e-006
 8422  0.3246283 -0.0000307  2.35e-006
 8423  0.2495925  0.0000285  1.85e-006
 8424  0.2495919  0.0000279  1.80e-006
 8425  0.4745066 -0.0000310  3.02e-006
 8426  0.4745069 -0.0000306  3.15e-006
 8427  0.4745073 -0.0000301  3.16e-006
 8428  0.3994720  0.0000292  2.76e-006
 8429  0.4745077 -0.0000293  2.99e-006
 8430  0.3994724  0.0000302  2.56e-006
 8431  0.3246288 -0.0000299  2.30e-006
 8432  0.3246294 -0.0000288  2.09e-006
 8433  0.2495936  0.0000307  1.61e-006
 8434  0.2495930  0.0000294  1.81e-006
 8435  0.3246299 -0.0000273  1.68e-006
 8436  0.3994730  0.0000314  2.14e-006
 8437  0.3994735  0.0000331  1.42e-006
 8438  0.3246303 -0.0000253  1.01e-006
 8439  0.2495945  0.0000346  6.73e-007
 8440  0.2495941  0.0000324  1.23e-006
 8441  0.4745081 -0.0000283  2.59e-006
 8442  0.4745086 -0.0000269  1.89e-006
 8443  0.4745092 -0.0000250  7.84e-007
 8444  0.3994739  0.0000354  3.23e-007
 8445  0.4745098 -0.0000227 -8.27e-007
 8446  0.3994743  0.0000382 -1.26e-006
 8447  0.3246307 -0.0000227  1.79e-009
 8448  0.3246309 -0.0000194 -1.45e-006
 8449  0.2495946  0.0000413 -1.40e-006
 8450  0.2495947  0.0000375 -1.71e-007
 8451  0.3246308 -0.0000151 -3.45e-006
 8452  0.3994746  0.0000419 -3.46e-006
 8453  0.3994747  0.0000465 -6.41e-006
 8454  0.3246303 -9.83e-006 -6.12e-006
 8455  0.2495933  0.0000519 -5.30e-006
 8456  0.2495942  0.0000460 -3.08e-006
 8457  0.4745104 -0.0000196 -3.08e-006
 8458  0.4745110 -0.0000158 -6.14e-006
 8459  0.4745115 -0.0000111 -0.0000102
 8460  0.3994745  0.0000522 -0.0000103
 8461  0.4745120 -5.18e-006 -0.0000155
 8462  0.3994740  0.0000593 -0.0000154
 8463  0.3246294 -3.22e-006 -9.62e-006
 8464  0.3246279  4.91e-006 -0.0000142
 8465  0.2495893  0.0000684 -0.0000120
 8466  0.2495917  0.0000593 -8.20e-006
 8467  0.3246255  0.0000148 -0.0000199
 8468  0.3994729  0.0000679 -0.0000218
 8469  0.3994712  0.0000783 -0.0000299
 8470  0.3246220  0.0000267 -0.0000272
 8471  0.2495807  0.0000926 -0.0000227
 8472  0.2495857  0.0000793 -0.0000168
 8473  0.4745124  1.99e-006 -0.0000222
 8474  0.4745126  0.0000107 -0.0000308
 8475  0.4745125  0.0000211 -0.0000415
 8476  0.3994687  0.0000907 -0.0000400
 8477  0.4745121  0.0000334 -0.0000547
 8478  0.3994651  0.0001054 -0.0000525
 8479  0.3246172  0.0000410 -0.0000362
 8480  0.3246107  0.0000579 -0.0000473
 8481  0.2495648  0.0001272 -0.0000393
 8482  0.2495738  0.0001084 -0.0000301
 8483  0.3246021  0.0000776 -0.0000608
 8484  0.3994602  0.0001227 -0.0000677
 8485  0.3994537  0.0001428 -0.0000861
 8486  0.3245910  0.0001006 -0.0000771
 8487  0.2495381  0.0001745 -0.0000639
 8488  0.2495531  0.0001491 -0.0000505
 8489  0.4745111  0.0000479 -0.0000708
 8490  0.4745095  0.0000648 -0.0000904
 8491  0.4745071  0.0000843 -0.0001138
 8492  0.3994451  0.0001659 -0.0001082
 8493  0.4745036  0.0001064 -0.0001418
 8494  0.3994341  0.0001922 -0.0001344
 8495  0.3245769  0.0001270 -0.0000967
 8496  0.3245591  0.0001570 -0.0001199
 8497  0.2494955  0.0002370 -0.0000992
 8498  0.2495191  0.0002038 -0.0000800
 8499  0.3245370  0.0001906 -0.0001473
 8500  0.3994202  0.0002217 -0.0001652
 8501  0.3994028  0.0002543 -0.0002012
 8502  0.3245098  0.0002277 -0.0001792
 8503  0.2494310  0.0003153 -0.0001482
 8504  0.2494664  0.0002742 -0.0001218
 8505  0.4744988  0.0001313 -0.0001747
 8506  0.4744924  0.0001589 -0.0002131
 8507  0.4744841  0.0001889 -0.0002575
 8508  0.3993816  0.0002898 -0.0002428
 8509  0.4744735  0.0002210 -0.0003084
 8510  0.3993557  0.0003276 -0.0002903
 8511  0.3244770  0.0002681 -0.0002161
 8512  0.3244375  0.0003112 -0.0002584
 8513  0.2493372  0.0004078 -0.0002139
 8514  0.2493882  0.0003601 -0.0001788
 8515  0.3243908  0.0003558 -0.0003063
 8516  0.3993248  0.0003669 -0.0003441
 8517  0.3992882  0.0004063 -0.0004043
 8518  0.3243359  0.0004007 -0.0003599
 8519  0.2492066  0.0005070 -0.0002990
 8520  0.2492770  0.0004573 -0.0002540
 8521  0.4744604  0.0002543 -0.0003659
 8522  0.4744444  0.0002879 -0.0004301
 8523  0.4744251  0.0003201 -0.0005008
 8524  0.3992454  0.0004441 -0.0004705
 8525  0.4744023  0.0003488 -0.0005774
 8526  0.3991960  0.0004776 -0.0005424
 8527  0.3242723  0.0004436 -0.0004193
 8528  0.3241995  0.0004817 -0.0004839
 8529  0.2490325  0.0005973 -0.0004042
 8530  0.2491253  0.0005548 -0.0003491
 8531  0.3241174  0.0005111 -0.0005530
 8532  0.3991399  0.0005036 -0.0006187
 8533  0.3990771  0.0005177 -0.0006979
 8534  0.3240260  0.0005269 -0.0006251
 8535  0.2488120  0.0006484 -0.0005267
 8536  0.2489280  0.0006303 -0.0004637
 8537  0.4743757  0.0003713 -0.0006586
 8538  0.4743454  0.0003839 -0.0007425
 8539  0.4743112  0.0003821 -0.0008264
 8540  0.3990079  0.0005145 -0.0007773
 8541  0.4742735  0.0003602 -0.0009061
 8542  0.3989332  0.0004872 -0.0008533
 8543  0.3239260  0.0005229 -0.0006982
 8544  0.3238188  0.0004912 -0.0007691
 8545  0.2485498  0.0006104 -0.0006560
 8546  0.2486853  0.0006447 -0.0005916
 8547  0.3237066  0.0004225 -0.0008334
 8548  0.3988544  0.0004278 -0.0009207
 8549  0.3987732  0.0003268 -0.0009728
 8550  0.3235925  0.0003055 -0.0008849
 8551  0.2482648  0.0004050 -0.0007682
 8552  0.2484083  0.0005347 -0.0007166
 8553  0.4742328  0.0003117 -0.0009764
 8554  0.4741895  0.0002287 -0.0010301
 8555  0.4741445  0.0001025 -0.0010578
 8556  0.3986922  0.0001733 -0.0010006
 8557  0.4740985 -0.0000765 -0.0010481
 8558  0.3986145 -0.0000447 -0.0009927
 8559  0.3234805  0.0001274 -0.0009155
 8560  0.3233759 -0.0001264 -0.0009144
 8561  0.2479962 -0.0000786 -0.0008141
 8562  0.2481250  0.0002063 -0.0008038
 8563  0.3232850 -0.0004717 -0.0008677
 8564  0.3985432 -0.0003398 -0.0009345
 8565  0.3984818 -0.0007249 -0.0008086
 8566  0.3232144 -0.0009245 -0.0007575
 8567  0.2478096 -0.0009843 -0.0007033
 8568  0.2478873 -0.0004686 -0.0007864
 8569  0.4740520 -0.0003183 -0.0009866
 8570  0.4740048 -0.0006327 -0.0008558
 8571  0.4739533 -0.0010290 -0.0006359
 8572  0.3984352 -0.0012113 -0.0005929
 8573  0.4738268 -0.0015343 -0.0003029
 8574  0.3983567 -0.0018682 -0.0003057
 8575  0.3231688 -0.0015010 -0.0005623
 8576  0.3230344 -0.0022172 -0.0003054
 8577  0.2476922 -0.0024937 -0.0003334
 8578  0.2477751 -0.0016435 -0.0005429
 8579  0.3228970 -0.0030282  0.0002292
 8580  0.3981761 -0.0025563  0.0001949
 8581  0.3978208 -0.0034336  0.0008433
 8582  0.3227358 -0.0040600  0.0007563
 8583  0.2477165 -0.0047230  0.0006296
 8584  0.2477321 -0.0035114  0.0001526
 8585  0.4734395 -0.0020673  0.0001678
 8586  0.4730021 -0.0027370  0.0008495
 8587  0.4725684 -0.0035285  0.0015972
 8588  0.3974972 -0.0043881  0.0017087
 8589  0.4719198 -0.0043430  0.0026673
 8590  0.3970375 -0.0054015  0.0027755
 8591  0.3225508 -0.0052640  0.0016386
 8592  0.3222801 -0.0065111  0.0026917
 8593  0.2476592 -0.0075933  0.0024614
 8594  0.2476939 -0.0060916  0.0014639
 8595  0.3218502 -0.0079367  0.0040804
 8596  0.3963279 -0.0065676  0.0041323
 8597  0.3213594 -0.0093555  0.0056877
 8598  0.2476211 -0.0110024  0.0054369
 8599  0.2475551 -0.0092981  0.0038041
 8600  0.4709010 -0.0052608  0.0039798
 8601  0.3202207 -0.0107901  0.0077351
 8602  0.2473209 -0.0127801  0.0074706
 8603  0.3186421 -0.0121584  0.0100974
 8604  0.2467839 -0.0144682  0.0098003
 8605  0.1745847 -0.0147680  0.0070246
 8606  0.1749533 -0.0167024  0.0093258
 8607  0.1032333 -0.0191120  0.0088837
 8608  0.1017653 -0.0168298  0.0063775
 8609  0.1005454 -0.0143218  0.0043037
 8610  0.1741111 -0.0126702  0.0050235
 8611  0.1752449 -0.0184532  0.0117622
 8612  0.2454870 -0.0159292  0.0124010
 8613  0.2434810 -0.0174087  0.0150862
 8614  0.1752981 -0.0198021  0.0136429
 8615  0.1072461 -0.0225220  0.0149405
 8616  0.1050454 -0.0211729  0.0117976
 8617  0.3156403 -0.0133952  0.0128325
 8618  0.3091244 -0.0148250  0.0161151
 8619  0.2929813 -0.0154820  0.0205318
 8620  0.2857853 -0.0165215  0.0228934
 8621  0.1746174 -0.0213305  0.0241378
 8622  0.2199572 -0.0183434  0.0202321
 8623  0.2905021 -0.0154324  0.0249858
 8624  0.2178504 -0.0183932  0.0270671
 8625  0.3036895 -0.0148120  0.0289233
 8626  0.2390144 -0.0174188  0.0318191
 8627  0.3074726 -0.0134148  0.0320206
 8628  0.2391575 -0.0159675  0.0344601
 8629  0.3078003 -0.0121708  0.0346604
 8630  0.2384038 -0.0144715  0.0370192
 8631  0.1707798 -0.0184219  0.0365984
 8632  0.1690839 -0.0167020  0.0390366
 8633  0.0998354 -0.0191340  0.0404857
 8634  0.1024874 -0.0211928  0.0375565
 8635  0.1054893 -0.0225271  0.0344245
 8636  0.1721300 -0.0197719  0.0347201
 8637  0.1672263 -0.0147688  0.0413450
 8638  0.2369214 -0.0127811  0.0393361
 8639  0.2351937 -0.0110272  0.0413561
 8640  0.1653346 -0.0126905  0.0433346
 8641  0.0955099 -0.0143243  0.0450657
 8642  0.0975283 -0.0168252  0.0430035
 8643  0.3067637 -0.0107642  0.0369742
 8644  0.3051620 -0.0093275  0.0389925
 8645  0.3031780 -0.0078933  0.0406048
 8646  0.2333249 -0.0092961  0.0429761
 8647  0.3731232 -0.0065320  0.0377818
 8648  0.3704570 -0.0054348  0.0391149
 8649  0.3007758 -0.0065222  0.0419525
 8650  0.2312278 -0.0075992  0.0442653
 8651  0.4433360 -0.0052447  0.0347429
 8652  0.4403982 -0.0043813  0.0360435
 8653  0.2983717 -0.0052378  0.0430314
 8654  0.3676720 -0.0043902  0.0402197
 8655  0.3645968 -0.0034444  0.0410613
 8656  0.2956961 -0.0040670  0.0438517
 8657  0.2269214 -0.0047314  0.0461292
 8658  0.2291426 -0.0060538  0.0453042
 8659  0.4370769 -0.0035235  0.0370552
 8660  0.4334947 -0.0027353  0.0378386
 8661  0.4299611 -0.0020684  0.0384671
 8662  0.3615617 -0.0025582  0.0416576
 8663  0.4263724 -0.0015312  0.0389468
 8664  0.3583518 -0.0018487  0.0421969
 8665  0.2931568 -0.0030312  0.0443882
 8666  0.2905740 -0.0022152  0.0449041
 8667  0.2227336 -0.0024952  0.0470885
 8668  0.2248569 -0.0035116  0.0466126
 8669  0.2880022 -0.0014988  0.0451609
 8670  0.3551607 -0.0012165  0.0424867
 8671  0.3518776 -0.0007290  0.0427022
 8672  0.2853422 -0.0009218  0.0453554
 8673  0.2186915 -0.0009882  0.0474636
 8674  0.2207365 -0.0016473  0.0473034
 8675  0.4225500 -0.0010265  0.0392370
 8676  0.4186463 -0.0006299  0.0394583
 8677  0.4147390 -0.0003150  0.0395891
 8678  0.3486099 -0.0003439  0.0428282
 8679  0.4108313 -0.0000728  0.0396507
 8680  0.3453522 -0.0000489  0.0428863
 8681  0.2827074 -0.0004684  0.0454656
 8682  0.2800929 -0.0001227  0.0455122
 8683  0.2147181 -0.0000826  0.0475742
 8684  0.2166893 -0.0004726  0.0475465
 8685  0.2774922  0.0001314  0.0455132
 8686  0.3421010  0.0001689  0.0428942
 8687  0.3388531  0.0003222  0.0428664
 8688  0.2748990  0.0003098  0.0454826
 8689  0.2108269  0.0004004  0.0475280
 8690  0.2127670  0.0002020  0.0475637
 8691  0.4069230  0.0001065  0.0396605
 8692  0.4030138  0.0002330  0.0396327
 8693  0.3991028  0.0003162  0.0395791
 8694  0.3356053  0.0004230  0.0428143
 8695  0.3951893  0.0003650  0.0395088
 8696  0.3323552  0.0004821  0.0427469
 8697  0.2723080  0.0004270  0.0454311
 8698  0.2697149  0.0004960  0.0453669
 8699  0.2069521  0.0006052  0.0474160
 8700  0.2088905  0.0005298  0.0474765
 8701  0.2671169  0.0005279  0.0452960
 8702  0.3291010  0.0005092  0.0426710
 8703  0.3258413  0.0005122  0.0425916
 8704  0.2645116  0.0005322  0.0452229
 8705  0.2030544  0.0006429  0.0472867
 8706  0.2050077  0.0006394  0.0473516
 8707  0.3912728  0.0003871  0.0394291
 8708  0.3873527  0.0003893  0.0393452
 8709  0.3834289  0.0003769  0.0392613
 8710  0.3225752  0.0004979  0.0425125
 8711  0.3795013  0.0003547  0.0391801
 8712  0.3193024  0.0004717  0.0424361
 8713  0.2618978  0.0005167  0.0451508
 8714  0.2592748  0.0004875  0.0450817
 8715  0.1991151  0.0005913  0.0471643
 8716  0.2010905  0.0006245  0.0472238
 8717  0.2566423  0.0004497  0.0450171
 8718  0.3160228  0.0004379  0.0423643
 8719  0.3127367  0.0003999  0.0422980
 8720  0.2540007  0.0004071  0.0449578
 8721  0.1951294  0.0005006  0.0470590
 8722  0.1971280  0.0005485  0.0471092
 8723  0.3755699  0.0003262  0.0391036
 8724  0.3716349  0.0002943  0.0390329
 8725  0.3676968  0.0002610  0.0389687
 8726  0.3094444  0.0003602  0.0422379
 8727  0.3637557  0.0002279  0.0389112
 8728  0.3061465  0.0003207  0.0421841
 8729  0.2513504  0.0003625  0.0449041
 8730  0.2486919  0.0003181  0.0448562
 8731  0.1911002  0.0004008  0.0469740
 8732  0.1931199  0.0004506  0.0470140
 8733  0.2460262  0.0002753  0.0448139
 8734  0.3028434  0.0002826  0.0421365
 8735  0.2995357  0.0002469  0.0420950
 8736  0.2433538  0.0002351  0.0447770
 8737  0.1870342  0.0003079  0.0469082
 8738  0.1890713  0.0003529  0.0469388
 8739  0.3598120  0.0001961  0.0388603
 8740  0.3558661  0.0001663  0.0388159
 8741  0.3519183  0.0001390  0.0387775
 8742  0.2962242  0.0002140  0.0420590
 8743  0.3479689  0.0001143  0.0387446
 8744  0.2929092  0.0001843  0.0420282
 8745  0.2406757  0.0001982  0.0447451
 8746  0.2379926  0.0001649  0.0447178
 8747  0.1829389  0.0002291  0.0468593
 8748  0.1849897  0.0002665  0.0468818
 8749  0.2353052  0.0001351  0.0446945
 8750  0.2895913  0.0001578  0.0420020
 8751  0.2862709  0.0001345  0.0419799
 8752  0.2326142  0.0001090  0.0446750
 8753  0.1788217  0.0001662  0.0468240
 8754  0.1808826  0.0001956  0.0468401
 8755  0.3440182  0.0000924  0.0387167
 8756  0.3400664  0.0000732  0.0386932
 8757  0.3361138  0.0000566  0.0386736
 8758  0.2829486  0.0001141  0.0419615
 8759  0.3321605  0.0000423  0.0386575
 8760  0.2796246  0.0000966  0.0419463
 8761  0.2299201  0.0000863  0.0446587
 8762  0.2272235  0.0000668  0.0446451
 8763  0.1746886  0.0001183  0.0467994
 8764  0.1767568  0.0001405  0.0468105
 8765  0.2245248  0.0000501  0.0446340
 8766  0.2762993  0.0000816  0.0419338
 8767  0.2729729  0.0000689  0.0419237
 8768  0.2218244  0.0000361  0.0446250
 8769  0.1705447  0.0000832  0.0467828
 8770  0.1726178  0.0000993  0.0467902
 8771  0.3282068  0.0000302  0.0386443
 8772  0.3242526  0.0000201  0.0386336
 8773  0.3202982  0.0000116  0.0386251
 8774  0.2696457  0.0000583  0.0419156
 8775  0.3163436  4.71e-006  0.0386183
 8776  0.2663178  0.0000494  0.0419092
 8777  0.2191227  0.0000244  0.0446178
 8778  0.2164199  0.0000148  0.0446120
 8779  0.1663935  0.0000585  0.0467720
 8780  0.1684698  0.0000697  0.0467768
 8781  0.2137162  6.93e-006  0.0446075
 8782  0.2629895  0.0000421  0.0419041
 8783  0.2596607  0.0000362  0.0419002
 8784  0.2110119  5.62e-007  0.0446040
 8785  0.1622378  0.0000416  0.0467654
 8786  0.1643161  0.0000492  0.0467683
 8787  0.3123889 -9.20e-007  0.0386130
 8788  0.3084342 -5.44e-006  0.0386090
 8789  0.3044794 -9.01e-006  0.0386059
 8790  0.2563318  0.0000313  0.0418972
 8791  0.3005245 -0.0000118  0.0386036
 8792  0.2530026  0.0000274  0.0418951
 8793  0.2083072 -4.51e-006  0.0446013
 8794  0.2056020 -8.50e-006  0.0445993
 8795  0.1580793  0.0000304  0.0467615
 8796  0.1601588  0.0000354  0.0467631
 8797  0.2028967 -0.0000116  0.0445979
 8798  0.2496733  0.0000243  0.0418935
 8799  0.2463439  0.0000218  0.0418924
 8800  0.2001911 -0.0000139  0.0445968
 8801  0.1539193  0.0000233  0.0467594
 8802  0.1559994  0.0000264  0.0467602
 8803  0.2965698 -0.0000139  0.0386020
 8804  0.2926150 -0.0000155  0.0386009
 8805  0.2886603 -0.0000166  0.0386002
 8806  0.2430145  0.0000199  0.0418917
 8807  0.2847056 -0.0000174  0.0385998
 8808  0.2396851  0.0000184  0.0418912
 8809  0.1974855 -0.0000157  0.0445962
 8810  0.1947797 -0.0000169  0.0445958
 8811  0.1497586  0.0000189  0.0467585
 8812  0.1518390  0.0000208  0.0467588
 8813  0.1920740 -0.0000178  0.0445955
 8814  0.2363557  0.0000172  0.0418910
 8815  0.2330263  0.0000163  0.0418910
 8816  0.1893683 -0.0000183  0.0445955
 8817  0.1455977  0.0000162  0.0467582
 8818  0.1476782  0.0000174  0.0467583
 8819  0.2807510 -0.0000179  0.0385996
 8820  0.2767964 -0.0000182  0.0385997
 8821  0.2728419 -0.0000183  0.0385998
 8822  0.2296970  0.0000156  0.0418911
 8823  0.2688874 -0.0000183  0.0386000
 8824  0.2263677  0.0000150  0.0418913
 8825  0.1866626 -0.0000186  0.0445956
 8826  0.1839569 -0.0000187  0.0445957
 8827  0.1414369  0.0000147  0.0467583
 8828  0.1435173  0.0000154  0.0467582
 8829  0.1812513 -0.0000187  0.0445959
 8830  0.2230385  0.0000146  0.0418915
 8831  0.2197093  0.0000142  0.0418918
 8832  0.1785457 -0.0000186  0.0445961
 8833  0.1372762  0.0000138  0.0467587
 8834  0.1393565  0.0000142  0.0467585
 8835  0.2649330 -0.0000182  0.0386003
 8836  0.2609786 -0.0000181  0.0386006
 8837  0.2570242 -0.0000178  0.0386009
 8838  0.2163801  0.0000139  0.0418921
 8839  0.2530699 -0.0000176  0.0386013
 8840  0.2130510  0.0000137  0.0418924
 8841  0.1758402 -0.0000184  0.0445964
 8842  0.1731347 -0.0000182  0.0445967
 8843  0.1331157  0.0000132  0.0467591
 8844  0.1351959  0.0000134  0.0467589
 8845  0.1704293 -0.0000179  0.0445970
 8846  0.2097220  0.0000134  0.0418927
 8847  0.2063930  0.0000132  0.0418931
 8848  0.1677240 -0.0000177  0.0445972
 8849  0.1289555  0.0000127  0.0467596
 8850  0.1310356  0.0000129  0.0467593
 8851  0.2491156 -0.0000173  0.0386017
 8852  0.2451613 -0.0000171  0.0386020
 8853  0.2412071 -0.0000168  0.0386024
 8854  0.2030640  0.0000129  0.0418934
 8855  0.2372528 -0.0000166  0.0386028
 8856  0.1997351  0.0000127  0.0418938
 8857  0.1650187 -0.0000174  0.0445975
 8858  0.1623135 -0.0000172  0.0445978
 8859  0.1247956  0.0000122  0.0467600
 8860  0.1268755  0.0000124  0.0467598
 8861  0.1596083 -0.0000169  0.0445981
 8862  0.1964062  0.0000125  0.0418941
 8863  0.1930774  0.0000122  0.0418944
 8864  0.1569032 -0.0000167  0.0445984
 8865  0.1206359  0.0000117  0.0467605
 8866  0.1227157  0.0000119  0.0467603
 8867  0.2332986 -0.0000163  0.0386032
 8868  0.2293445 -0.0000161  0.0386035
 8869  0.2253903 -0.0000159  0.0386039
 8870  0.1897486  0.0000119  0.0418948
 8871  0.2214362 -0.0000156  0.0386043
 8872  0.1864198  0.0000117  0.0418951
 8873  0.1541981 -0.0000165  0.0445987
 8874  0.1514931 -0.0000162  0.0445990
 8875  0.1164765  0.0000112  0.0467610
 8876  0.1185562  0.0000114  0.0467608
 8877  0.1487882 -0.0000159  0.0445993
 8878  0.1830911  0.0000115  0.0418954
 8879  0.1797625  0.0000113  0.0418958
 8880  0.1460833 -0.0000156  0.0445995
 8881  0.1123174  0.0000108  0.0467614
 8882  0.1143970  0.0000110  0.0467612
 8883  0.2174821 -0.0000154  0.0386046
 8884  0.2135281 -0.0000151  0.0386050
 8885  0.2095741 -0.0000148  0.0386053
 8886  0.1764339  0.0000111  0.0418960
 8887  0.2056201 -0.0000144  0.0386056
 8888  0.1731053  0.0000111  0.0418963
 8889  0.1433785 -0.0000152  0.0445998
 8890  0.1406737 -0.0000148  0.0446000
 8891  0.1081586  0.0000108  0.0467617
 8892  0.1102380  0.0000107  0.0467616
 8893  0.1379690 -0.0000142  0.0446001
 8894  0.1697768  0.0000111  0.0418964
 8895  0.1664483  0.0000113  0.0418965
 8896  0.1352643 -0.0000134  0.0446002
 8897  0.1039999  0.0000113  0.0467619
 8898  0.1060792  0.0000109  0.0467618
 8899  0.2016662 -0.0000139  0.0386058
 8900  0.1977123 -0.0000133  0.0386059
 8901  0.1937584 -0.0000125  0.0386059
 8902  0.1631199  0.0000117  0.0418965
 8903  0.1898046 -0.0000115  0.0386057
 8904  0.1597915  0.0000124  0.0418963
 8905  0.1325597 -0.0000123  0.0446001
 8906  0.1298550 -0.0000110  0.0445999
 8907  0.0998412  0.0000130  0.0467616
 8908  0.1019206  0.0000120  0.0467618
 8909  0.1271503 -9.26e-006  0.0445995
 8910  0.1564631  0.0000134  0.0418959
 8911  0.1531347  0.0000149  0.0418951
 8912  0.1244456 -7.05e-006  0.0445988
 8913  0.0956824  0.0000164  0.0467607
 8914  0.0977619  0.0000144  0.0467612
 8915  0.1858509 -0.0000103  0.0386053
 8916  0.1818972 -8.62e-006  0.0386046
 8917  0.1779436 -6.56e-006  0.0386035
 8918  0.1498063  0.0000168  0.0418940
 8919  0.1739900 -3.95e-006  0.0386019
 8920  0.1464778  0.0000195  0.0418924
 8921  0.1217408 -4.21e-006  0.0445978
 8922  0.1190358 -6.35e-007  0.0445963
 8923  0.0915228  0.0000225  0.0467585
 8924  0.0936027  0.0000190  0.0467598
 8925  0.1163305  3.85e-006  0.0445943
 8926  0.1431492  0.0000229  0.0418902
 8927  0.1398205  0.0000272  0.0418873
 8928  0.1136249  9.41e-006  0.0445916
 8929  0.0873618  0.0000327  0.0467546
 8930  0.0894425  0.0000270  0.0467568
 8931  0.1700364 -6.83e-007  0.0385997
 8932  0.1660829  3.38e-006  0.0385966
 8933  0.1621293  8.39e-006  0.0385925
 8934  0.1364915  0.0000327  0.0418833
 8935  0.1581756  0.0000145  0.0385872
 8936  0.1331621  0.0000396  0.0418783
 8937  0.1109189  0.0000163  0.0445880
 8938  0.1082122  0.0000247  0.0445835
 8939  0.0831980  0.0000487  0.0467478
 8940  0.0852803  0.0000398  0.0467516
 8941  0.1055046  0.0000349  0.0445777
 8942  0.1298322  0.0000480  0.0418718
 8943  0.1265017  0.0000582  0.0418636
 8944  0.1027960  0.0000472  0.0445704
 8945  0.0790297  0.0000726  0.0467370
 8946  0.0811146  0.0000595  0.0467430
 8947  0.1542219  0.0000220  0.0385804
 8948  0.1502680  0.0000310  0.0385718
 8949  0.1463138  0.0000418  0.0385611
 8950  0.1231703  0.0000706  0.0418534
 8951  0.1423592  0.0000547  0.0385478
 8952  0.1198379  0.0000853  0.0418409
 8953  0.1000860  0.0000618  0.0445613
 8954  0.0973743  0.0000792  0.0445502
 8955  0.0748540  0.0001071  0.0467204
 8956  0.0769430  0.0000883  0.0467296
 8957  0.0946605  0.0000997  0.0445367
 8958  0.1165040  0.0001028  0.0418256
 8959  0.1131684  0.0001234  0.0418071
 8960  0.0919440  0.0001236  0.0445203
 8961  0.0706671  0.0001550  0.0466961
 8962  0.0727623  0.0001292  0.0467094
 8963  0.1384041  0.0000698  0.0385315
 8964  0.1344482  0.0000876  0.0385117
 8965  0.1304914  0.0001083  0.0384879
 8966  0.1098306  0.0001472  0.0417849
 8967  0.1265332  0.0001321  0.0384595
 8968  0.1064901  0.0001748  0.0417585
 8969  0.0892242  0.0001512  0.0445009
 8970  0.0865004  0.0001830  0.0444778
 8971  0.0664636  0.0002191  0.0466616
 8972  0.0685678  0.0001849  0.0466803
 8973  0.0837719  0.0002190  0.0444508
 8974  0.1031462  0.0002063  0.0417275
 8975  0.0997982  0.0002418  0.0416913
 8976  0.0810376  0.0002594  0.0444195
 8977  0.0622362  0.0003015  0.0466148
 8978  0.0643534  0.0002580  0.0466399
 8979  0.1225734  0.0001594  0.0384259
 8980  0.1186115  0.0001902  0.0383866
 8981  0.1146468  0.0002248  0.0383410
 8982  0.0964452  0.0002815  0.0416495
 8983  0.1106786  0.0002631  0.0382885
 8984  0.0930861  0.0003253  0.0416018
 8985  0.0782965  0.0003043  0.0443835
 8986  0.0755472  0.0003535  0.0443426
 8987  0.0579755  0.0004023  0.0465541
 8988  0.0601107  0.0003498  0.0465862
 8989  0.0727885  0.0004066  0.0442969
 8990  0.0897199  0.0003728  0.0415478
 8991  0.0863449  0.0004235  0.0414877
 8992  0.0700186  0.0004625  0.0442463
 8993  0.0536698  0.0005175  0.0464795
 8994  0.0558291  0.0004586  0.0465184
 8995  0.1067059  0.0003049  0.0382287
 8996  0.1027278  0.0003500  0.0381615
 8997  0.0987427  0.0003974  0.0380869
 8998  0.0829596  0.0004764  0.0414216
 8999  0.0947489  0.0004463  0.0380052
 9000  0.0795620  0.0005299  0.0413504
 9001  0.0672359  0.0005202  0.0441915
 9002  0.0644382  0.0005775  0.0441334
 9003  0.0493054  0.0006360  0.0463950
 9004  0.0514959  0.0005775  0.0464380
 9005  0.0616236  0.0006317  0.0440733
 9006  0.0761500  0.0005818  0.0412752
 9007  0.0727210  0.0006288  0.0411982
 9008  0.0587898  0.0006787  0.0440137
 9009  0.0448674  0.0007338  0.0463110
 9010  0.0470965  0.0006897  0.0463519
 9011  0.0907445  0.0004948  0.0379176
 9012  0.0867269  0.0005407  0.0378257
 9013  0.0826930  0.0005805  0.0377323
 9014  0.0692723  0.0006667  0.0411225
 9015  0.0786392  0.0006096  0.0376413
 9016  0.0658008  0.0006893  0.0410525
 9017  0.0559344  0.0007131  0.0439576
 9018  0.0530555  0.0007277  0.0439097
 9019  0.0403426  0.0007660  0.0462493
 9020  0.0426165  0.0007621  0.0462754
 9021  0.0501510  0.0007125  0.0438758
 9022  0.0623033  0.0006886  0.0409944
 9023  0.0587765  0.0006533  0.0409566
 9024  0.0472198  0.0006546  0.0438640
 9025  0.0357255  0.0006523  0.0462484
 9026  0.0380453  0.0007343  0.0462379
 9027  0.0745613  0.0006216  0.0375586
 9028  0.0704543  0.0006078  0.0374924
 9029  0.0663125  0.0005562  0.0374537
 9030  0.0552175  0.0005688  0.0409502
 9031  0.0621301  0.0004503  0.0374575
 9032  0.0516244  0.0004146  0.0409898
 9033  0.0442619  0.0005365  0.0438845
 9034  0.0412792  0.0003351  0.0439501
 9035  0.0310320  0.0002544  0.0463701
 9036  0.0333859  0.0005007  0.0462890
 9037  0.0382771  0.0000198  0.0440767
 9038  0.0479969  0.0001636  0.0410941
 9039  0.0443383 -0.0002215  0.0412865
 9040  0.0352660 -0.0004502  0.0442826
 9041  0.0263267 -0.0006620  0.0467009
 9042  0.0286736 -0.0001191  0.0465032
 9043  0.0579012  0.0002672  0.0375239
 9044  0.0536210 -0.0000249  0.0376791
 9045  0.0492877 -0.0004708  0.0379575
 9046  0.0406585 -0.0007921  0.0415953
 9047  0.0449035 -0.0011370  0.0384055
 9048  0.0369854 -0.0016208  0.0420442
 9049  0.0322640 -0.0011291  0.0445888
 9050  0.0293018 -0.0020847  0.0450134
 9051  0.0217770 -0.0024840  0.0473247
 9052  0.0240162 -0.0014280  0.0469745
 9053  0.0264139 -0.0034115  0.0455984
 9054  0.0333330 -0.0027894  0.0426958
 9055  0.0297683 -0.0044500  0.0435619
 9056  0.0237041 -0.0052277  0.0462933
 9057  0.0177395 -0.0058154  0.0482730
 9058  0.0196588 -0.0039156  0.0477764
 9059  0.0404760 -0.0021079  0.0390858
 9060  0.0360553 -0.0035231  0.0400486
 9061  0.0317681 -0.0055693  0.0413238
 9062  0.0264139 -0.0067680  0.0446678
 9063  0.0277032 -0.0085182  0.0429938
 9064  0.0234208 -0.0099472  0.0459655
 9065  0.0212405 -0.0076930  0.0471312
 9066  0.0191835 -0.0109485  0.0480100
 9067  0.0148505 -0.0115060  0.0492696
 9068  0.0160958 -0.0083084  0.0488075
 9069  0.0176921 -0.0151792  0.0487859
 9070  0.0210030 -0.0142816  0.0473596
 9071  0.0169334 -0.0204930  0.0492182
 9072  0.0139756 -0.0202925  0.0492739
 9073  0.0141084 -0.0154926  0.0494953
 9074  0.0241335 -0.0127353  0.0450030
 9075  0.0169960 -0.0268784  0.0489050
 9076  0.0144445 -0.0257990  0.0483031
 9077  0.0178444 -0.0340461  0.0473818
 9078  0.0154169 -0.0317020  0.0462911
 9079  0.0113979 -0.0242851  0.0474878
 9080  0.0125055 -0.0291667  0.0451822
 9081  0.0092575 -0.0265716  0.0439935
 9082  0.0079736 -0.0225096  0.0464747
 9083  0.0068896 -0.0184883  0.0482056
 9084  0.0106066 -0.0195781  0.0489096
 9085  0.0137148 -0.0337985  0.0419162
 9086  0.0166407 -0.0374957  0.0430274
 9087  0.0176596 -0.0424733  0.0385500
 9088  0.0147112 -0.0376283  0.0380386
 9089  0.0118104 -0.0336346  0.0367826
 9090  0.0105706 -0.0303844  0.0407314
 9091  0.0191846 -0.0413770  0.0441976
 9092  0.0204171 -0.0477737  0.0388632
 9093  0.0206919 -0.0514126  0.0310538
 9094  0.0201580 -0.0519149  0.0230012
 9095  0.0152794 -0.0423695  0.0241970
 9096  0.0173364 -0.0457624  0.0316538
 9097  0.0182512 -0.0514144  0.0146865
 9098  0.0151757 -0.0458667  0.0158067
 9099  0.0150130 -0.0478483  0.0064076
 9100  0.0131889 -0.0426094  0.0085477
 9101  0.0110803 -0.0415052  0.0009012
 9102  0.0103503 -0.0376586  0.0040306
 9103  0.0071346 -0.0342134 -0.0023523
 9104  0.0072032 -0.0318850  0.0007486
 9105  0.0093187 -0.0339616  0.0065962
 9106  0.0068182 -0.0293616  0.0033389
 9107  0.0060901 -0.0267777  0.0054685
 9108  0.0080889 -0.0305627  0.0087166
 9109  0.0099761 -0.0337768  0.0126545
 9110  0.0114966 -0.0377752  0.0104560
 9111  0.0043838 -0.0245142  0.0010427
 9112  0.0042814 -0.0260161 -0.0012651
 9113  0.0018384 -0.0205420 -0.0022309
 9114  0.0022537 -0.0198366 -0.0003724
 9115  0.0023051 -0.0187536  0.0012696
 9116  0.0041005 -0.0227436  0.0029940
 9117  0.0036834 -0.0270790 -0.0039092
 9118  0.0009939 -0.0207227 -0.0042313
 9119 -0.0008586 -0.0154302 -0.0038029
 9120  3.27e-006 -0.0157615 -0.0024458
 9121 -0.0020119 -0.0145059 -0.0050118
 9122  0.0005565 -0.0156048 -0.0010845
 9123  0.0008180 -0.0150467  0.0001867
 9124  0.0035300 -0.0207944  0.0045925
 9125  0.0051021 -0.0241770  0.0071749
 9126  0.0020748 -0.0173970  0.0026594
 9127  0.0016380 -0.0158578  0.0037860
 9128  0.0027541 -0.0187231  0.0058523
 9129  0.0008327 -0.0141848  0.0013048
 9130  0.0006559 -0.0130921  0.0022354
 9131  0.0003420 -0.0118360  0.0029582
 9132  0.0010533 -0.0141914  0.0046323
 9133  0.0018363 -0.0165951  0.0067715
 9134  0.0066856 -0.0273685  0.0104359
 9135  0.0082784 -0.0302785  0.0144741
 9136  0.0133314 -0.0406841  0.0150439
 9137  0.0127665 -0.0368105  0.0180230
 9138  0.0099456 -0.0330971  0.0195476
 9139  0.0104172 -0.0348187  0.0248252
 9140  0.0102456 -0.0330685  0.0301995
 9141  0.0138400 -0.0367472  0.0312697
 9142  0.0087559 -0.0301694  0.0353664
 9143  0.0154385 -0.0404674  0.0334736
 9144  0.0072502 -0.0272070  0.0394196
 9145  0.0057509 -0.0239703  0.0426822
 9146  0.0042614 -0.0205598  0.0452657
 9147  0.0028963 -0.0171328  0.0471987
 9148  0.0017285 -0.0138969  0.0485548
 9149  0.0008290 -0.0109602  0.0494484
 9150  0.0056781 -0.0114463  0.0499066
 9151  0.0061009 -0.0147568  0.0492974
 9152  0.0001885 -0.0084077  0.0499830
 9153  0.0055975 -0.0086426  0.0501665
 9154 -0.0053198 -0.0079603  0.0492943
 9155 -0.0062665 -0.0060078  0.0497732
 9156 -0.0001951 -0.0062532  0.0502659
 9157  0.0058302 -0.0063235  0.0502073
 9158 -0.0109242 -0.0073486  0.0481195
 9159 -0.0123924 -0.0056139  0.0487566
 9160 -0.0003497 -0.0044885  0.0503882
 9161 -0.0070236 -0.0043742  0.0500614
 9162 -0.0076474 -0.0030412  0.0501998
 9163 -0.0003348 -0.0030743  0.0503907
 9164  0.0069959 -0.0029926  0.0499908
 9165  0.0063124 -0.0044571  0.0501366
 9166 -0.0137314 -0.0041283  0.0491778
 9167 -0.0149672 -0.0029043  0.0494355
 9168 -0.0160671 -0.0019185  0.0495901
 9169 -0.0081287 -0.0019753  0.0502632
 9170 -0.0171060 -0.0011473  0.0496621
 9171 -0.0085167 -0.0011518  0.0502656
 9172 -0.0180716 -0.0005435  0.0496805
 9173 -0.0189993 -0.0001008  0.0496654
 9174 -0.0090966 -0.0000597  0.0501902
 9175 -0.0088296 -0.0005214  0.0502355
 9176 -0.0198929  0.0002235  0.0496309
 9177 -0.0093355  0.0002695  0.0501374
 9178 -0.0207735  0.0004403  0.0495845
 9179 -0.0095616  0.0004926  0.0500844
 9180 -0.0216488  0.0005852  0.0495333
 9181 -0.0225281  0.0006652  0.0494819
 9182 -0.0100145  0.0007128  0.0499894
 9183 -0.0097853  0.0006342  0.0500342
 9184 -0.0234148  0.0006998  0.0494322
 9185 -0.0102540  0.0007435  0.0499499
 9186 -0.0243151  0.0006970  0.0493835
 9187 -0.0105076  0.0007397  0.0499150
 9188 -0.0252281  0.0006784  0.0493396
 9189 -0.0261563  0.0006388  0.0493011
 9190 -0.0110640  0.0006719  0.0498606
 9191 -0.0107774  0.0007139  0.0498850
 9192 -0.0270985  0.0005900  0.0492666
 9193 -0.0113665  0.0006190  0.0498400
 9194 -0.0280571  0.0005311  0.0492340
 9195 -0.0116852  0.0005606  0.0498218
 9196 -0.0290281  0.0004800  0.0492063
 9197 -0.0300125  0.0004236  0.0491835
 9198 -0.0123672  0.0004455  0.0497949
 9199 -0.0120193  0.0005029  0.0498065
 9200 -0.0310071  0.0003704  0.0491639
 9201 -0.0127269  0.0003894  0.0497852
 9202 -0.0320143  0.0003151  0.0491446
 9203 -0.0130978  0.0003363  0.0497761
 9204 -0.0330289  0.0002751  0.0491291
 9205 -0.0340523  0.0002328  0.0491175
 9206 -0.0138688  0.0002483  0.0497633
 9207 -0.0134790  0.0002903  0.0497684
 9208 -0.0350811  0.0001961  0.0491079
 9209 -0.0142651  0.0002094  0.0497592
 9210 -0.0361182  0.0001575  0.0490971
 9211 -0.0146678  0.0001746  0.0497545
 9212 -0.0371583  0.0001359  0.0490890
 9213 -0.0382036  0.0001106  0.0490841
 9214 -0.0154895  0.0001229  0.0497487
 9215 -0.0150764  0.0001470  0.0497505
 9216 -0.0392507  0.0000901  0.0490803
 9217 -0.0159054  0.0001007  0.0497473
 9218 -0.0403032  0.0000657  0.0490743
 9219 -0.0163244  0.0000811  0.0497448
 9220 -0.0413559  0.0000583  0.0490702
 9221 -0.0424117  0.0000451  0.0490691
 9222 -0.0171708  0.0000563  0.0497424
 9223 -0.0167466  0.0000677  0.0497426
 9224 -0.0434671  0.0000354  0.0490684
 9225 -0.0175956  0.0000450  0.0497424
 9226 -0.0445265  0.0000196  0.0490647
 9227 -0.0180219  0.0000350  0.0497408
 9228 -0.0455844  0.0000211  0.0490625
 9229 -0.0466445  0.0000149  0.0490632
 9230 -0.0188786  0.0000260  0.0497400
 9231 -0.0184498  0.0000302  0.0497394
 9232 -0.0477031  0.0000111  0.0490641
 9233 -0.0193068  0.0000208  0.0497407
 9234 -0.0487650 -3.71e-007  0.0490613
 9235 -0.0197357  0.0000157  0.0497395
 9236 -0.0498246  6.03e-006  0.0490600
 9237 -0.0508861  3.11e-006  0.0490615
 9238 -0.0205958  0.0000148  0.0497394
 9239 -0.0201656  0.0000153  0.0497383
 9240 -0.0519455  2.22e-006  0.0490631
 9241 -0.0210250  0.0000124  0.0497403
 9242 -0.0530081 -7.78e-006  0.0490607
 9243 -0.0214544  9.41e-006  0.0497392
 9244 -0.0540679  1.16e-006  0.0490595
 9245 -0.0551296 -4.09e-007  0.0490614
 9246 -0.0223152  0.0000122  0.0497393
 9247 -0.0218847  0.0000111  0.0497381
 9248 -0.0561889 -1.34e-007  0.0490633
 9249 -0.0227443  0.0000107  0.0497404
 9250 -0.0572515 -0.0000101  0.0490609
 9251 -0.0231736  8.44e-006  0.0497393
 9252 -0.0583110  2.47e-007  0.0490597
 9253 -0.0593725 -9.45e-007  0.0490618
 9254 -0.0240341  0.0000126  0.0497395
 9255 -0.0236038  0.0000109  0.0497382
 9256 -0.0604314 -3.04e-007  0.0490639
 9257 -0.0244628  0.0000113  0.0497407
 9258 -0.0614939 -0.0000108  0.0490614
 9259 -0.0248918  9.08e-006  0.0497395
 9260 -0.0625530  3.81e-007  0.0490600
 9261 -0.0636143 -8.22e-007  0.0490623
 9262 -0.0257517  0.0000136  0.0497397
 9263 -0.0253217  0.0000119  0.0497383
 9264 -0.0646728 -1.01e-007  0.0490646
 9265 -0.0261801  0.0000123  0.0497410
 9266 -0.0657350 -0.0000113  0.0490619
 9267 -0.0266087  9.91e-006  0.0497397
 9268 -0.0667937  5.79e-007  0.0490604
 9269 -0.0678548 -6.74e-007  0.0490628
 9270 -0.0274680  0.0000148  0.0497399
 9271 -0.0270382  0.0000129  0.0497384
 9272 -0.0689129  1.64e-007  0.0490652
 9273 -0.0278960  0.0000134  0.0497413
 9274 -0.0699749 -0.0000117  0.0490624
 9275 -0.0283242  0.0000109  0.0497399
 9276 -0.0710332  1.14e-006  0.0490607
 9277 -0.0720940  1.27e-007  0.0490632
 9278 -0.0291830  0.0000166  0.0497401
 9279 -0.0287535  0.0000142  0.0497385
 9280 -0.0731518  1.47e-006  0.0490657
 9281 -0.0296107  0.0000155  0.0497415
 9282 -0.0742138 -0.0000105  0.0490626
 9283 -0.0300388  0.0000135  0.0497400
 9284 -0.0752718  3.88e-006  0.0490606
 9285 -0.0763328  3.89e-006  0.0490631
 9286 -0.0308976  0.0000214  0.0497400
 9287 -0.0304680  0.0000179  0.0497384
 9288 -0.0773906  6.70e-006  0.0490654
 9289 -0.0313254  0.0000218  0.0497414
 9290 -0.0784530 -4.25e-006  0.0490618
 9291 -0.0317537  0.0000215  0.0497397
 9292 -0.0795114  0.0000132  0.0490593
 9293 -0.0805734  0.0000159  0.0490614
 9294 -0.0326142  0.0000348  0.0497392
 9295 -0.0321836  0.0000283  0.0497378
 9296 -0.0816324  0.0000222  0.0490631
 9297 -0.0330434  0.0000386  0.0497404
 9298 -0.0826966  0.0000146  0.0490584
 9299 -0.0334736  0.0000423  0.0497382
 9300 -0.0837574  0.0000377  0.0490546
 9301 -0.0848226  0.0000463  0.0490554
 9302 -0.0343402  0.0000672  0.0497367
 9303 -0.0339062  0.0000545  0.0497358
 9304 -0.0858857  0.0000596  0.0490556
 9305 -0.0347738  0.0000780  0.0497373
 9306 -0.0869554  0.0000595  0.0490488
 9307 -0.0352098  0.0000900  0.0497342
 9308 -0.0880228  0.0000929  0.0490424
 9309 -0.0890966  0.0001122  0.0490405
 9310 -0.0360927  0.0001360  0.0497306
 9311 -0.0356496  0.0001121  0.0497307
 9312 -0.0901700  0.0001380  0.0490375
 9313 -0.0365374  0.0001594  0.0497300
 9314 -0.0912527  0.0001510  0.0490267
 9315 -0.0369869  0.0001854  0.0497254
 9316 -0.0923356  0.0002004  0.0490159
 9317 -0.0934282  0.0002364  0.0490094
 9318 -0.0379061  0.0002643  0.0497186
 9319 -0.0374431  0.0002232  0.0497203
 9320 -0.0945240  0.0002802  0.0490013
 9321 -0.0383742  0.0003056  0.0497164
 9322 -0.0956334  0.0003112  0.0489847
 9323 -0.0388514  0.0003503  0.0497101
 9324 -0.0967474  0.0003805  0.0489679
 9325 -0.0978764  0.0004352  0.0489557
 9326 -0.0398406  0.0004669  0.0497009
 9327 -0.0393401  0.0004073  0.0497035
 9328 -0.0990141  0.0004962  0.0489422
 9329 -0.0403517  0.0005247  0.0496986
 9330 -0.1001715  0.0005408  0.0489208
 9331 -0.0408778  0.0005825  0.0496929
 9332 -0.1013396  0.0006203  0.0489007
 9333 -0.1025294  0.0006770  0.0488877
 9334 -0.0419824  0.0007069  0.0496907
 9335 -0.0414213  0.0006475  0.0496886
 9336 -0.1037337  0.0007296  0.0488768
 9337 -0.0425594  0.0007528  0.0496959
 9338 -0.1049636  0.0007501  0.0488625
 9339 -0.0431556  0.0007825  0.0497016
 9340 -0.1062085  0.0007868  0.0488559
 9341 -0.1074776  0.0007729  0.0488651
 9342 -0.0444067  0.0007800  0.0497376
 9343 -0.0437723  0.0007983  0.0497133
 9344 -0.1087606  0.0007194  0.0488871
 9345 -0.0450536  0.0007110  0.0497719
 9346 -0.1100644  0.0005869  0.0489183
 9347 -0.0457111  0.0005782  0.0498143
 9348 -0.1113710  0.0004121  0.0489725
 9349 -0.1126804  0.0001097  0.0490564
 9350 -0.0470296  0.0000571  0.0499455
 9351 -0.0463731  0.0003714  0.0498703
 9352 -0.1139163 -0.0003266  0.0491780
 9353 -0.0476581 -0.0004004  0.0500402
 9354 -0.1151622 -0.0009872  0.0493156
 9355 -0.0482489 -0.0010567  0.0501292
 9356 -0.1162242 -0.0017687  0.0494885
 9357 -0.1173118 -0.0028797  0.0497382
 9358 -0.0490542 -0.0030431  0.0503706
 9359 -0.0487099 -0.0018803  0.0502321
 9360 -0.1180016 -0.0043478  0.0498888
 9361 -0.0491137 -0.0044638  0.0503239
 9362 -0.1186187 -0.0063103  0.0500351
 9363 -0.0491321 -0.0062405  0.0503122
 9364 -0.1189848 -0.0086209  0.0501235
 9365 -0.1187975 -0.0115174  0.0499603
 9366 -0.0480155 -0.0111227  0.0496051
 9367 -0.0487749 -0.0084346  0.0501053
 9368 -0.1179860 -0.0149689  0.0494221
 9369 -0.0469504 -0.0141875  0.0487856
 9370 -0.1167000 -0.0189217  0.0484416
 9371 -0.0453615 -0.0175234  0.0475426
 9372 -0.1146336 -0.0232190  0.0466133
 9373 -0.0431175 -0.0211000  0.0455329
 9374  0.0275660 -0.0189719  0.0443428
 9375  0.0253925 -0.0159820  0.0464416
 9376  0.0304219 -0.0218364  0.0416386
 9377  0.0342982 -0.0243786  0.0382318
 9378  0.0412754 -0.0260254  0.0339650
 9379  0.0234871 -0.0131090  0.0479264
 9380  0.0935603 -0.0118985  0.0466299
 9381  0.0920154 -0.0096294  0.0477852
 9382  0.0221442 -0.0104440  0.0489752
 9383  0.1634784 -0.0106399  0.0449872
 9384  0.1616067 -0.0086301  0.0462264
 9385  0.0209535 -0.0080488  0.0496506
 9386  0.0905098 -0.0075644  0.0486208
 9387  0.0891854 -0.0057597  0.0492485
 9388  0.0200783 -0.0060409  0.0500590
 9389  0.1598149 -0.0068094  0.0471868
 9390  0.1580277 -0.0052525  0.0479385
 9391  0.1564205 -0.0038683  0.0483381
 9392  0.0880093 -0.0041978  0.0495406
 9393  0.1549147 -0.0027588  0.0487330
 9394  0.0869643 -0.0029594  0.0498417
 9395  0.1534902 -0.0018356  0.0488863
 9396  0.1520702 -0.0010986  0.0489973
 9397  0.0853065 -0.0011391  0.0499623
 9398  0.0860943 -0.0019371  0.0499173
 9399  0.1507046 -0.0005304  0.0490423
 9400  0.0845854 -0.0005320  0.0499632
 9401  0.1493778 -0.0001043  0.0490446
 9402  0.0839071 -0.0000807  0.0499360
 9403  0.1480756  0.0002042  0.0490191
 9404  0.1467866  0.0004174  0.0489766
 9405  0.0826185  0.0004624  0.0498436
 9406  0.0832560  0.0002420  0.0498931
 9407  0.1455017  0.0005553  0.0489248
 9408  0.0819841  0.0006034  0.0497923
 9409  0.1442143  0.0006347  0.0488686
 9410  0.0813456  0.0006829  0.0497417
 9411  0.1429195  0.0006695  0.0488119
 9412  0.1416141  0.0006717  0.0487569
 9413  0.0800378  0.0007143  0.0496511
 9414  0.0806980  0.0007155  0.0496942
 9415  0.1402960  0.0006507  0.0487050
 9416  0.0793627  0.0006899  0.0496123
 9417  0.1389643  0.0006140  0.0486570
 9418  0.0786720  0.0006495  0.0495776
 9419  0.1376189  0.0005673  0.0486134
 9420  0.1362600  0.0005153  0.0485743
 9421  0.0772448  0.0005429  0.0495208
 9422  0.0779660  0.0005988  0.0495470
 9423  0.1348884  0.0004613  0.0485396
 9424  0.0765092  0.0004857  0.0494980
 9425  0.1335048  0.0004078  0.0485091
 9426  0.0757604  0.0004291  0.0494781
 9427  0.1321106  0.0003563  0.0484824
 9428  0.1307067  0.0003080  0.0484595
 9429  0.0742288  0.0003234  0.0494469
 9430  0.0749999  0.0003745  0.0494611
 9431  0.1292942  0.0002637  0.0484398
 9432  0.0734481  0.0002770  0.0494349
 9433  0.1278744  0.0002237  0.0484229
 9434  0.0726591  0.0002351  0.0494245
 9435  0.1264482  0.0001879  0.0484087
 9436  0.1250165  0.0001564  0.0483968
 9437  0.0710616  0.0001641  0.0494087
 9438  0.0718634  0.0001973  0.0494157
 9439  0.1235801  0.0001290  0.0483869
 9440  0.0702546  0.0001355  0.0494029
 9441  0.1221399  0.0001055  0.0483786
 9442  0.0694432  0.0001110  0.0493979
 9443  0.1206966  0.0000853  0.0483718
 9444  0.1192506  0.0000681  0.0483664
 9445  0.0678110  0.0000715  0.0493907
 9446  0.0686286  0.0000896  0.0493938
 9447  0.1178024  0.0000539  0.0483620
 9448  0.0669909  0.0000567  0.0493882
 9449  0.1163525  0.0000421  0.0483585
 9450  0.0661689  0.0000445  0.0493860
 9451  0.1149013  0.0000323  0.0483557
 9452  0.1134491  0.0000243  0.0483536
 9453  0.0645210  0.0000255  0.0493831
 9454  0.0653455  0.0000340  0.0493843
 9455  0.1119960  0.0000179  0.0483519
 9456  0.0636954  0.0000189  0.0493823
 9457  0.1105422  0.0000128  0.0483507
 9458  0.0628690  0.0000137  0.0493815
 9459  0.1090881  8.73e-006  0.0483497
 9460  0.1076336  5.52e-006  0.0483491
 9461  0.0612153  5.75e-006  0.0493805
 9462  0.0620424  9.28e-006  0.0493808
 9463  0.1061788  3.15e-006  0.0483487
 9464  0.0603878  3.39e-006  0.0493804
 9465  0.1047239  1.37e-006  0.0483484
 9466  0.0595602  1.65e-006  0.0493801
 9467  0.1032690 -3.24e-008  0.0483482
 9468  0.1018140 -1.06e-006  0.0483482
 9469  0.0579049 -1.19e-006  0.0493800
 9470  0.0587326  4.07e-008  0.0493799
 9471  0.1003590 -1.71e-006  0.0483483
 9472  0.0570771 -1.74e-006  0.0493802
 9473  0.0989040 -2.13e-006  0.0483483
 9474  0.0562493 -2.06e-006  0.0493801
 9475  0.0974491 -2.47e-006  0.0483484
 9476  0.0959942 -2.70e-006  0.0483485
 9477  0.0545941 -2.94e-006  0.0493802
 9478  0.0554217 -2.55e-006  0.0493800
 9479  0.0945394 -2.76e-006  0.0483487
 9480  0.0537665 -2.87e-006  0.0493804
 9481  0.0930846 -2.76e-006  0.0483489
 9482  0.0529389 -2.75e-006  0.0493804
 9483  0.0916300 -2.82e-006  0.0483490
 9484  0.0901754 -2.86e-006  0.0483492
 9485  0.0512844 -3.11e-006  0.0493806
 9486  0.0521116 -2.93e-006  0.0493804
 9487  0.0887209 -2.81e-006  0.0483494
 9488  0.0504570 -2.94e-006  0.0493808
 9489  0.0872664 -2.77e-006  0.0483495
 9490  0.0496298 -2.78e-006  0.0493808
 9491  0.0858121 -2.81e-006  0.0483497
 9492  0.0843578 -2.86e-006  0.0483499
 9493  0.0479759 -3.09e-006  0.0493810
 9494  0.0488028 -2.93e-006  0.0493808
 9495  0.0829036 -2.82e-006  0.0483501
 9496  0.0471489 -2.94e-006  0.0493812
 9497  0.0814494 -2.76e-006  0.0483502
 9498  0.0463220 -2.77e-006  0.0493812
 9499  0.0799954 -2.75e-006  0.0483504
 9500  0.0785414 -2.69e-006  0.0483505
 9501  0.0446687 -2.90e-006  0.0493813
 9502  0.0454953 -2.86e-006  0.0493812
 9503  0.0770875 -2.47e-006  0.0483507
 9504  0.0438420 -2.56e-006  0.0493815
 9505  0.0756336 -2.13e-006  0.0483508
 9506  0.0430154 -2.09e-006  0.0493815
 9507  0.0741798 -1.70e-006  0.0483508
 9508  0.0727260 -1.05e-006  0.0483508
 9509  0.0413625 -1.13e-006  0.0493815
 9510  0.0421889 -1.72e-006  0.0493814
 9511  0.0712722 -3.19e-008  0.0483508
 9512  0.0405359  4.25e-008  0.0493816
 9513  0.0698183  1.36e-006  0.0483506
 9514  0.0397093  1.61e-006  0.0493814
 9515  0.0683644  3.16e-006  0.0483503
 9516  0.0669104  5.55e-006  0.0483499
 9517  0.0380559  5.85e-006  0.0493809
 9518  0.0388827  3.42e-006  0.0493811
 9519  0.0654561  8.73e-006  0.0483492
 9520  0.0372287  9.29e-006  0.0493806
 9521  0.0640014  0.0000128  0.0483483
 9522  0.0364012  0.0000137  0.0493800
 9523  0.0625464  0.0000179  0.0483470
 9524  0.0610907  0.0000243  0.0483453
 9525  0.0347446  0.0000256  0.0493782
 9526  0.0355733  0.0000190  0.0493791
 9527  0.0596342  0.0000323  0.0483432
 9528  0.0339150  0.0000341  0.0493770
 9529  0.0581766  0.0000422  0.0483404
 9530  0.0330841  0.0000445  0.0493753
 9531  0.0567177  0.0000541  0.0483368
 9532  0.0552570  0.0000684  0.0483324
 9533  0.0314176  0.0000718  0.0493706
 9534  0.0322518  0.0000569  0.0493731
 9535  0.0537942  0.0000856  0.0483269
 9536  0.0305810  0.0000899  0.0493675
 9537  0.0523287  0.0001060  0.0483202
 9538  0.0297414  0.0001113  0.0493635
 9539  0.0508600  0.0001299  0.0483122
 9540  0.0493873  0.0001578  0.0483025
 9541  0.0280509  0.0001652  0.0493533
 9542  0.0288983  0.0001362  0.0493588
 9543  0.0479098  0.0001900  0.0482911
 9544  0.0271982  0.0001987  0.0493469
 9545  0.0464266  0.0002268  0.0482777
 9546  0.0263394  0.0002370  0.0493392
 9547  0.0449367  0.0002683  0.0482622
 9548  0.0434387  0.0003146  0.0482444
 9549  0.0245987  0.0003278  0.0493209
 9550  0.0254733  0.0002799  0.0493306
 9551  0.0419315  0.0003658  0.0482244
 9552  0.0237142  0.0003804  0.0493102
 9553  0.0404135  0.0004212  0.0482021
 9554  0.0228183  0.0004372  0.0492985
 9555  0.0388832  0.0004801  0.0481777
 9556  0.0373390  0.0005412  0.0481517
 9557  0.0209866  0.0005588  0.0492739
 9558  0.0219097  0.0004971  0.0492863
 9559  0.0357790  0.0006026  0.0481248
 9560  0.0200474  0.0006201  0.0492620
 9561  0.0342017  0.0006615  0.0480978
 9562  0.0190908  0.0006779  0.0492515
 9563  0.0326055  0.0007140  0.0480723
 9564  0.0309891  0.0007547  0.0480503
 9565  0.0171208  0.0007639  0.0492400
 9566  0.0181155  0.0007277  0.0492436
 9567  0.0293515  0.0007765  0.0480345
 9568  0.0161062  0.0007789  0.0492428
 9569  0.0276927  0.0007701  0.0480284
 9570  0.0150728  0.0007626  0.0492545
 9571  0.0260136  0.0007232  0.0480364
 9572  0.0243169  0.0006199  0.0480637
 9573  0.0129595  0.0005808  0.0493174
 9574  0.0140225  0.0007020  0.0492782
 9575  0.0226075  0.0004398  0.0481167
 9576  0.0118902  0.0003782  0.0493756
 9577  0.0208938  0.0001569  0.0482021
 9578  0.0108249  0.0000683  0.0494562
 9579  0.0191888 -0.0002618  0.0483271
 9580  0.0175116 -0.0008576  0.0484973
 9581  0.0087707 -0.0010090  0.0496908
 9582  0.0097783 -0.0003811  0.0495613
 9583  0.0158894 -0.0016820  0.0487161
 9584  0.0078305 -0.0018624  0.0498396
 9585  0.0143602 -0.0027912  0.0489754
 9586  0.0129682 -0.0042638  0.0492821
 9587  0.0117922 -0.0061802  0.0495662
 9588  0.0108888 -0.0086176  0.0497978
 9589  0.0103540 -0.0116488  0.0498695
 9590 -0.0001649 -0.0019613  0.0503500
 9591  0.0001081 -0.0011091  0.0502778
 9592  0.0004522 -0.0004709  0.0501967
 9593  0.0008412 -6.77e-006  0.0501193
 9594  0.0012555  0.0003185  0.0500507
 9595  0.0016795  0.0005356  0.0499929
 9596  0.0021024  0.0006697  0.0499465
 9597  0.0025167  0.0007410  0.0499107
 9598  0.0029176  0.0007655  0.0498839
 9599  0.0033021  0.0007568  0.0498641
 9600  0.0036685  0.0007255  0.0498503
 9601  0.0040166  0.0006792  0.0498414
 9602  0.0043471  0.0006234  0.0498360
 9603  0.0046606  0.0005632  0.0498327
 9604  0.0049582  0.0005025  0.0498312
 9605  0.0052414  0.0004430  0.0498312
 9606  0.0055119  0.0003859  0.0498321
 9607  0.0057710  0.0003327  0.0498330
 9608  0.0060198  0.0002847  0.0498341
 9609  0.0062599  0.0002415  0.0498358
 9610  0.0064928  0.0002025  0.0498374
 9611  0.0067194  0.0001682  0.0498384
 9612  0.0069403  0.0001390  0.0498394
 9613  0.0071567  0.0001139  0.0498407
 9614  0.0073698  0.0000919  0.0498418
 9615  0.0075797  0.0000732  0.0498423
 9616  0.0077869  0.0000582  0.0498427
 9617  0.0079921  0.0000458  0.0498435
 9618  0.0081961  0.0000349  0.0498442
 9619  0.0083988  0.0000259  0.0498442
 9620  0.0086001  0.0000195  0.0498442
 9621  0.0088008  0.0000144  0.0498447
 9622  0.0090012  9.57e-006  0.0498452
 9623  0.0092013  5.68e-006  0.0498449
 9624  0.0094007  3.57e-006  0.0498447
 9625  0.0095999  2.02e-006  0.0498451
 9626  0.0097994  9.19e-008  0.0498455
 9627  0.0099988 -1.50e-006  0.0498451
 9628  0.0101978 -1.71e-006  0.0498448
 9629  0.0103968 -1.75e-006  0.0498451
 9630  0.0105963 -2.58e-006  0.0498455
 9631  0.0107958 -3.36e-006  0.0498451
 9632  0.0109950 -2.88e-006  0.0498447
 9633  0.0111943 -2.43e-006  0.0498451
 9634  0.0113940 -2.98e-006  0.0498454
 9635  0.0115939 -3.60e-006  0.0498450
 9636  0.0117934 -2.96e-006  0.0498446
 9637  0.0119929 -2.41e-006  0.0498450
 9638  0.0121931 -2.98e-006  0.0498454
 9639  0.0123933 -3.64e-006  0.0498449
 9640  0.0125931 -2.96e-006  0.0498444
 9641  0.0127930 -2.36e-006  0.0498449
 9642  0.0129934 -2.91e-006  0.0498453
 9643  0.0131940 -3.49e-006  0.0498448
 9644  0.0133941 -2.56e-006  0.0498443
 9645  0.0135942 -1.61e-006  0.0498448
 9646  0.0137950 -1.74e-006  0.0498452
 9647  0.0139957 -1.73e-006  0.0498447
 9648  0.0141959  1.00e-007  0.0498443
 9649  0.0143960  2.23e-006  0.0498448
 9650  0.0145966  3.52e-006  0.0498453
 9651  0.0147969  5.35e-006  0.0498449
 9652  0.0149965  9.55e-006  0.0498444
 9653  0.0151956  0.0000146  0.0498451
 9654  0.0153948  0.0000194  0.0498458
 9655  0.0155932  0.0000255  0.0498455
 9656  0.0157901  0.0000349  0.0498452
 9657  0.0159857  0.0000461  0.0498462
 9658  0.0161804  0.0000580  0.0498472
 9659  0.0163730  0.0000725  0.0498473
 9660  0.0165626  0.0000917  0.0498475
 9661  0.0167491  0.0001141  0.0498491
 9662  0.0169326  0.0001386  0.0498510
 9663  0.0171116  0.0001672  0.0498520
 9664  0.0172847  0.0002019  0.0498535
 9665  0.0174514  0.0002412  0.0498566
 9666  0.0176114  0.0002837  0.0498605
 9667  0.0177628  0.0003307  0.0498639
 9668  0.0179037  0.0003841  0.0498683
 9669  0.0180332  0.0004412  0.0498753
 9670  0.0181508  0.0004993  0.0498839
 9671  0.0182544  0.0005583  0.0498933
 9672  0.0183419  0.0006180  0.0499052
 9673  0.0184130  0.0006727  0.0499216
 9674  0.0184678  0.0007163  0.0499418
 9675  0.0185052  0.0007443  0.0499654
 9676  0.0185252  0.0007508  0.0499944
 9677  0.0185301  0.0007235  0.0500309
 9678  0.0185241  0.0006476  0.0500743
 9679  0.0185115  0.0005087  0.0501231
 9680  0.0184988  0.0002897  0.0501778
 9681  0.0184976 -0.0000352  0.0502382
 9682  0.0185250 -0.0004995  0.0502982
 9683  0.0185957 -0.0011320  0.0503435
 9684  0.0187363 -0.0019596  0.0503728
 9685  0.0189722 -0.0030619  0.0503949
 9686  0.0194914 -0.0043975  0.0502090
 9687  0.0102431 -0.0153214  0.0496306
 9688  0.1732116 -0.0207519  0.0300603
 9689  0.1293844 -0.0235845  0.0285707
 9690  0.0573186 -0.0273132  0.0283182
 9691  0.0636588 -0.0269201  0.0248092
 9692  0.0576226 -0.0273478  0.0213805
 9693  0.1304425 -0.0236271  0.0206141
 9694  0.0418295 -0.0260269  0.0158495
 9695  0.1752291 -0.0206407  0.0183309
 9696  0.0350203 -0.0243691  0.0115949
 9697  0.0312878 -0.0218299  0.0081956
 9698  0.0286153 -0.0189778  0.0055016
 9699  0.0266759 -0.0159835  0.0033952
 9700  0.0249445 -0.0131168  0.0019206
 9701  0.0237944 -0.0104232  0.0008657
 9702  0.0985919 -0.0095927  0.0015937
 9703  0.0993319 -0.0119067  0.0027527
 9704  0.0227842 -0.0080514  0.0001852
 9705  0.0979158 -0.0075726  0.0007513
 9706 -0.0525933 -0.0084293 -0.0003648
 9707 -0.0533897 -0.0062407 -0.0005690
 9708  0.0220987 -0.0060422 -0.0002148
 9709  0.0974769 -0.0057643  0.0001322
 9710 -0.1284832 -0.0086163 -0.0010562
 9711 -0.1291723 -0.0063151 -0.0009647
 9712  0.0217036 -0.0043981 -0.0003578
 9713 -0.0538025 -0.0044651 -0.0005762
 9714 -0.0541929 -0.0030450 -0.0006332
 9715  0.0213699 -0.0030638 -0.0005539
 9716  0.0968925 -0.0029602 -0.0004646
 9717  0.0971156 -0.0041969 -0.0001554
 9718 -0.1296211 -0.0043456 -0.0008201
 9719 -0.1300161 -0.0028780 -0.0006759
 9720 -0.1299821 -0.0017679 -0.0004239
 9721 -0.0542833 -0.0018763 -0.0004912
 9722 -0.1299970 -0.0009912 -0.0002522
 9723 -0.0542589 -0.0010542 -0.0003889
 9724 -0.1298131 -0.0003199 -0.0001118
 9725 -0.1296472  0.0000942  6.42e-006
 9726 -0.0538973  0.0000573 -0.0002055
 9727 -0.0540968 -0.0003956 -0.0002989
 9728 -0.1293947  0.0004192  0.0000867
 9729 -0.0536701  0.0003760 -0.0001322
 9730 -0.1291504  0.0005866  0.0001451
 9731 -0.0534380  0.0005838 -0.0000746
 9732 -0.1289052  0.0007204  0.0001751
 9733 -0.1286831  0.0007734  0.0001972
 9734 -0.0529915  0.0007856  2.33e-006
 9735 -0.0532091  0.0007162 -0.0000321
 9736 -0.1284736  0.0007875  0.0002070
 9737 -0.0527860  0.0008036  0.0000268
 9738 -0.1282900  0.0007471  0.0001991
 9739 -0.0525985  0.0007871  0.0000381
 9740 -0.1281201  0.0007311  0.0001846
 9741 -0.1279762  0.0006779  0.0001747
 9742 -0.0522843  0.0007136  0.0000489
 9743 -0.0524317  0.0007586  0.0000432
 9744 -0.1278458  0.0006213  0.0001625
 9745 -0.0521520  0.0006538  0.0000515
 9746 -0.1277390  0.0005373  0.0001408
 9747 -0.0520375  0.0005879  0.0000467
 9748 -0.1276414  0.0004979  0.0001191
 9749 -0.1275643  0.0004362  0.0001067
 9750 -0.0518593  0.0004747  0.0000388
 9751 -0.0519409  0.0005316  0.0000405
 9752 -0.1274945  0.0003817  0.0000954
 9753 -0.0517876  0.0004146  0.0000368
 9754 -0.1274419  0.0003071  0.0000769
 9755 -0.0517279  0.0003566  0.0000296
 9756 -0.1273923  0.0002820  0.0000599
 9757 -0.1273572  0.0002375  0.0000530
 9758 -0.0516417  0.0002731  0.0000211
 9759 -0.0516802  0.0003134  0.0000225
 9760 -0.1273237  0.0002018  0.0000475
 9761 -0.0516076  0.0002315  0.0000201
 9762 -0.1273024  0.0001463  0.0000349
 9763 -0.0515802  0.0001924  0.0000142
 9764 -0.1272794  0.0001400  0.0000235
 9765 -0.1272666  0.0001135  0.0000218
 9766 -0.0515453  0.0001460  9.07e-006
 9767 -0.0515603  0.0001682  8.83e-006
 9768 -0.1272520  0.0000944  0.0000212
 9769 -0.0515309  0.0001213  9.70e-006
 9770 -0.1272462  0.0000543  0.0000128
 9771 -0.0515200  0.0000979  5.41e-006
 9772 -0.1272360  0.0000619  5.27e-006
 9773 -0.1272338  0.0000477  6.91e-006
 9774 -0.0515098  0.0000783  2.96e-006
 9775 -0.0515136  0.0000878  1.43e-006
 9776 -0.1272276  0.0000395  9.09e-006
 9777 -0.0515044  0.0000647  4.70e-006
 9778 -0.1272286  8.87e-006  3.18e-006
 9779 -0.0515007  0.0000510  1.39e-006
 9780 -0.1272237  0.0000246 -2.36e-006
 9781 -0.1272256  0.0000174  9.70e-007
 9782 -0.0515007  0.0000470  4.53e-007
 9783 -0.0515001  0.0000493 -1.77e-006
 9784 -0.1272226  0.0000151  4.55e-006
 9785 -0.0514987  0.0000395  2.78e-006
 9786 -0.1272260 -0.0000105 -2.28e-007
 9787 -0.0514977  0.0000310 -6.11e-008
 9788 -0.1272230  9.33e-006 -4.85e-006
 9789 -0.1272262  5.51e-006 -7.84e-007
 9790 -0.0515010  0.0000347 -3.04e-007
 9791 -0.0514990  0.0000336 -2.83e-006
 9792 -0.1272240  6.03e-006  3.38e-006
 9793 -0.0515000  0.0000301  2.26e-006
 9794 -0.1272280 -0.0000174 -9.52e-007
 9795 -0.0514996  0.0000239 -3.82e-007
 9796 -0.1272252  4.30e-006 -5.23e-006
 9797 -0.1272285  1.89e-006 -8.99e-007
 9798 -0.0515034  0.0000309 -3.65e-007
 9799 -0.0515013  0.0000283 -3.00e-006
 9800 -0.1272264  3.50e-006  3.46e-006
 9801 -0.0515024  0.0000275  2.29e-006
 9802 -0.1272303 -0.0000191 -7.30e-007
 9803 -0.0515019  0.0000221 -2.98e-007
 9804 -0.1272273  3.20e-006 -4.90e-006
 9805 -0.1272304  1.22e-006 -5.04e-007
 9806 -0.0515053  0.0000302 -2.07e-007
 9807 -0.0515034  0.0000272 -2.88e-006
 9808 -0.1272280  3.13e-006  3.90e-006
 9809 -0.0515041  0.0000271  2.47e-006
 9810 -0.1272315 -0.0000192 -2.56e-007
 9811 -0.0515032  0.0000219 -1.05e-007
 9812 -0.1272283  3.14e-006 -4.41e-006
 9813 -0.1272310  1.21e-006  3.44e-012
 9814 -0.0515060  0.0000302  1.79e-012
 9815 -0.0515044  0.0000271 -2.67e-006
 9816 -0.1272283  3.14e-006  4.41e-006
 9817 -0.0515044  0.0000271  2.67e-006
 9818 -0.1272315 -0.0000192  2.56e-007
 9819 -0.0515032  0.0000219  1.05e-007
 9820 -0.1272280  3.13e-006 -3.90e-006
 9821 -0.1272304  1.22e-006  5.04e-007
 9822 -0.0515053  0.0000302  2.07e-007
 9823 -0.0515041  0.0000271 -2.47e-006
 9824 -0.1272273  3.20e-006  4.90e-006
 9825 -0.0515034  0.0000272  2.88e-006
 9826 -0.1272303 -0.0000191  7.30e-007
 9827 -0.0515019  0.0000221  2.98e-007
 9828 -0.1272264  3.50e-006 -3.46e-006
 9829 -0.1272285  1.89e-006  8.99e-007
 9830 -0.0515034  0.0000309  3.65e-007
 9831 -0.0515024  0.0000275 -2.29e-006
 9832 -0.1272252  4.30e-006  5.23e-006
 9833 -0.0515013  0.0000283  3.00e-006
 9834 -0.1272280 -0.0000174  9.52e-007
 9835 -0.0514996  0.0000239  3.82e-007
 9836 -0.1272240  6.03e-006 -3.38e-006
 9837 -0.1272262  5.51e-006  7.84e-007
 9838 -0.0515010  0.0000347  3.04e-007
 9839 -0.0515000  0.0000301 -2.26e-006
 9840 -0.1272230  9.33e-006  4.85e-006
 9841 -0.0514990  0.0000336  2.83e-006
 9842 -0.1272260 -0.0000105  2.28e-007
 9843 -0.0514977  0.0000310  6.10e-008
 9844 -0.1272226  0.0000151 -4.55e-006
 9845 -0.1272256  0.0000174 -9.70e-007
 9846 -0.0515007  0.0000470 -4.53e-007
 9847 -0.0514987  0.0000395 -2.78e-006
 9848 -0.1272237  0.0000246  2.36e-006
 9849 -0.0515001  0.0000493  1.77e-006
 9850 -0.1272286  8.87e-006 -3.18e-006
 9851 -0.0515007  0.0000510 -1.39e-006
 9852 -0.1272276  0.0000395 -9.09e-006
 9853 -0.1272338  0.0000477 -6.91e-006
 9854 -0.0515098  0.0000783 -2.96e-006
 9855 -0.0515044  0.0000647 -4.70e-006
 9856 -0.1272360  0.0000619 -5.27e-006
 9857 -0.0515136  0.0000878 -1.43e-006
 9858 -0.1272462  0.0000543 -0.0000128
 9859 -0.0515200  0.0000979 -5.42e-006
 9860 -0.1272520  0.0000944 -0.0000212
 9861 -0.1272666  0.0001135 -0.0000218
 9862 -0.0515453  0.0001460 -9.08e-006
 9863 -0.0515309  0.0001213 -9.70e-006
 9864 -0.1272794  0.0001400 -0.0000235
 9865 -0.0515603  0.0001682 -8.83e-006
 9866 -0.1273024  0.0001463 -0.0000349
 9867 -0.0515802  0.0001924 -0.0000142
 9868 -0.1273237  0.0002018 -0.0000475
 9869 -0.1273572  0.0002375 -0.0000530
 9870 -0.0516417  0.0002731 -0.0000211
 9871 -0.0516076  0.0002315 -0.0000201
 9872 -0.1273923  0.0002820 -0.0000599
 9873 -0.0516802  0.0003134 -0.0000225
 9874 -0.1274419  0.0003071 -0.0000769
 9875 -0.0517279  0.0003566 -0.0000296
 9876 -0.1274945  0.0003817 -0.0000954
 9877 -0.1275643  0.0004362 -0.0001067
 9878 -0.0518593  0.0004747 -0.0000388
 9879 -0.0517876  0.0004146 -0.0000368
 9880 -0.1276414  0.0004979 -0.0001191
 9881 -0.0519409  0.0005316 -0.0000405
 9882 -0.1277390  0.0005373 -0.0001408
 9883 -0.0520375  0.0005879 -0.0000467
 9884 -0.1278458  0.0006213 -0.0001625
 9885 -0.1279762  0.0006779 -0.0001747
 9886 -0.0522843  0.0007136 -0.0000490
 9887 -0.0521520  0.0006538 -0.0000515
 9888 -0.1281201  0.0007311 -0.0001847
 9889 -0.0524317  0.0007586 -0.0000432
 9890 -0.1282900  0.0007472 -0.0001991
 9891 -0.0525986  0.0007872 -0.0000381
 9892 -0.1284737  0.0007876 -0.0002071
 9893 -0.1286834  0.0007736 -0.0001972
 9894 -0.0529917  0.0007856 -2.12e-006
 9895 -0.0527861  0.0008037 -0.0000268
 9896 -0.1289061  0.0007207 -0.0001745
 9897 -0.0532091  0.0007158  0.0000327
 9898 -0.1291498  0.0005844 -0.0001434
 9899 -0.0534372  0.0005819  0.0000746
 9900 -0.1293952  0.0004125 -0.0000903
 9901 -0.1296446  0.0001097 -6.37e-006
 9902 -0.0538978  0.0000616  0.0002054
 9903 -0.0536700  0.0003756  0.0001302
 9904 -0.1298134 -0.0003266  0.0001153
 9905 -0.0540967 -0.0003960  0.0003009
 9906 -0.1299965 -0.0009930  0.0002504
 9907 -0.0542581 -0.0010560  0.0003889
 9908 -0.1299832 -0.0017668  0.0004236
 9909 -0.1300167 -0.0028771  0.0006767
 9910 -0.0541931 -0.0030446  0.0006338
 9911 -0.0542832 -0.0018764  0.0004910
 9912 -0.1296218 -0.0043447  0.0008206
 9913 -0.0538032 -0.0044639  0.0005774
 9914 -0.1291734 -0.0063144  0.0009647
 9915 -0.0533908 -0.0062385  0.0005690
 9916 -0.1284818 -0.0086201  0.0010563
 9917 -0.1272231 -0.0115170  0.0008871
 9918 -0.0513876 -0.0111242 -0.0001439
 9919 -0.0525923 -0.0084316  0.0003613
 9920 -0.1253286 -0.0149683  0.0003387
 9921 -0.0498829 -0.0141895 -0.0009654
 9922 -0.1229710 -0.0189204 -0.0006467
 9923 -0.0478494 -0.0175221 -0.0022059
 9924 -0.1198234 -0.0232178 -0.0024904
 9925 -0.0451539 -0.0210987 -0.0042219
 9926  0.0286766 -0.0189731 -0.0054986
 9927  0.0266783 -0.0159819 -0.0033989
 9928  0.0313717 -0.0218370 -0.0082000
 9929  0.0350896 -0.0243781 -0.0115999
 9930  0.0419055 -0.0260323 -0.0158452
 9931  0.0249452 -0.0131095 -0.0019148
 9932  0.0993964 -0.0118976 -0.0027482
 9933  0.0986719 -0.0096308 -0.0015946
 9934  0.0237924 -0.0104442 -0.0008669
 9935  0.1736882 -0.0106399 -0.0033704
 9936  0.1732563 -0.0086282 -0.0021297
 9937  0.0227850 -0.0080451 -0.0001922
 9938  0.0979815 -0.0075667 -0.0007594
 9939  0.0974781 -0.0057623 -0.0001272
 9940  0.0220974 -0.0060381  0.0002165
 9941  0.1729105 -0.0068063 -0.0011696
 9942  0.1725707 -0.0052517 -0.0004139
 9943  0.1724112 -0.0038654 -0.0000209
 9944  0.0971171 -0.0041980  0.0001562
 9945  0.1723669 -0.0027576  0.0003860
 9946  0.0968930 -0.0029608  0.0004647
 9947  0.1723964 -0.0018355  0.0005364
 9948  0.1724312 -0.0010985  0.0006477
 9949  0.0968855 -0.0011390  0.0005812
 9950  0.0968463 -0.0019373  0.0005362
 9951  0.1725201 -0.0005302  0.0006926
 9952  0.0969918 -0.0005320  0.0005822
 9953  0.1726478 -0.0001041  0.0006950
 9954  0.0971407 -0.0000805  0.0005551
 9955  0.1728001  0.0002043  0.0006695
 9956  0.1729656  0.0004175  0.0006271
 9957  0.0975065  0.0004624  0.0004628
 9958  0.0973167  0.0002421  0.0005122
 9959  0.1731351  0.0005554  0.0005752
 9960  0.0976992  0.0006035  0.0004115
 9961  0.1733021  0.0006348  0.0005191
 9962  0.0978878  0.0006830  0.0003610
 9963  0.1734618  0.0006696  0.0004624
 9964  0.1736108  0.0006717  0.0004074
 9965  0.0982344  0.0007144  0.0002703
 9966  0.0980674  0.0007156  0.0003134
 9967  0.1737471  0.0006508  0.0003555
 9968  0.0983863  0.0006900  0.0002316
 9969  0.1738699  0.0006141  0.0003075
 9970  0.0985228  0.0006497  0.0001968
 9971  0.1739789  0.0005674  0.0002639
 9972  0.1740745  0.0005153  0.0002248
 9973  0.0987499  0.0005429  0.0001400
 9974  0.0986439  0.0005989  0.0001662
 9975  0.1741572  0.0004614  0.0001901
 9976  0.0988414  0.0004857  0.0001173
 9977  0.1742280  0.0004079  0.0001595
 9978  0.0989198  0.0004292  0.0000974
 9979  0.1742882  0.0003563  0.0001329
 9980  0.1743388  0.0003080  0.0001099
 9981  0.0990425  0.0003233  0.0000661
 9982  0.0989864  0.0003745  0.0000803
 9983  0.1743807  0.0002637  0.0000902
 9984  0.0990888  0.0002770  0.0000542
 9985  0.1744152  0.0002237  0.0000734
 9986  0.0991270  0.0002352  0.0000437
 9987  0.1744434  0.0001879  0.0000591
 9988  0.1744662  0.0001564  0.0000472
 9989  0.0991838  0.0001640  0.0000279
 9990  0.0991584  0.0001973  0.0000349
 9991  0.1744842  0.0001290  0.0000373
 9992  0.0992038  0.0001355  0.0000222
 9993  0.1744984  0.0001055  0.0000291
 9994  0.0992196  0.0001111  0.0000171
 9995  0.1745095  0.0000852  0.0000223
 9996  0.1745179  0.0000681  0.0000169
 9997  0.0992417  0.0000714  9.90e-006
 9998  0.0992321  0.0000896  0.0000129
 9999  0.1745241  0.0000539  0.0000125
10000  0.0992487  0.0000567  7.53e-006
10001  0.1745286  0.0000421  8.93e-006
10002  0.0992537  0.0000446  5.25e-006
10003  0.1745318  0.0000323  6.10e-006
10004  0.1745340  0.0000242  4.01e-006
10005  0.0992602  0.0000253  2.36e-006
10006  0.0992576  0.0000340  3.40e-006
10007  0.1745353  0.0000179  2.42e-006
10008  0.0992616  0.0000189  1.62e-006
10009  0.1745359  0.0000128  1.13e-006
10010  0.0992624  0.0000138  6.76e-007
10011  0.1745362  8.69e-006  1.63e-007
10012  0.1745361  5.45e-006 -4.20e-007
10013  0.0992630  5.59e-006 -2.30e-007
10014  0.0992629  9.24e-006 -7.89e-008
10015  0.1745358  3.11e-006 -7.94e-007
10016  0.0992626  3.36e-006 -2.60e-007
10017  0.1745353  1.37e-006 -1.12e-006
10018  0.0992620  1.74e-006 -6.44e-007
10019  0.1745347 -7.10e-008 -1.33e-006
10020  0.1745342 -1.13e-006 -1.32e-006
10021  0.0992611 -1.37e-006 -7.63e-007
10022  0.0992616 -4.03e-010 -9.56e-007
10023  0.1745335 -1.74e-006 -1.24e-006
10024  0.0992603 -1.77e-006 -5.29e-007
10025  0.1745329 -2.13e-006 -1.23e-006
10026  0.0992596 -1.96e-006 -7.14e-007
10027  0.1745324 -2.51e-006 -1.18e-006
10028  0.1745320 -2.78e-006 -9.94e-007
10029  0.0992588 -3.12e-006 -5.77e-007
10030  0.0992592 -2.60e-006 -8.78e-007
10031  0.1745315 -2.80e-006 -7.87e-007
10032  0.0992582 -2.90e-006 -2.66e-007
10033  0.1745312 -2.76e-006 -6.85e-007
10034  0.0992577 -2.65e-006 -3.98e-007
10035  0.1745309 -2.86e-006 -5.76e-007
10036  0.1745308 -2.94e-006 -3.47e-007
10037  0.0992575 -3.30e-006 -2.02e-007
10038  0.0992576 -2.97e-006 -5.26e-007
10039  0.1745306 -2.85e-006 -1.16e-007
10040  0.0992573 -2.97e-006  1.24e-007
10041  0.1745306 -2.77e-006 -3.44e-012
10042  0.0992571 -2.66e-006 -1.70e-012
10043  0.1745306 -2.85e-006  1.16e-007
10044  0.1745308 -2.94e-006  3.47e-007
10045  0.0992575 -3.30e-006  2.02e-007
10046  0.0992573 -2.97e-006 -1.24e-007
10047  0.1745309 -2.86e-006  5.76e-007
10048  0.0992576 -2.97e-006  5.26e-007
10049  0.1745312 -2.76e-006  6.85e-007
10050  0.0992577 -2.65e-006  3.98e-007
10051  0.1745315 -2.80e-006  7.87e-007
10052  0.1745320 -2.78e-006  9.94e-007
10053  0.0992588 -3.12e-006  5.77e-007
10054  0.0992582 -2.90e-006  2.66e-007
10055  0.1745324 -2.51e-006  1.18e-006
10056  0.0992592 -2.60e-006  8.78e-007
10057  0.1745329 -2.13e-006  1.23e-006
10058  0.0992596 -1.96e-006  7.14e-007
10059  0.1745335 -1.74e-006  1.24e-006
10060  0.1745342 -1.13e-006  1.32e-006
10061  0.0992611 -1.37e-006  7.63e-007
10062  0.0992603 -1.77e-006  5.29e-007
10063  0.1745347 -7.10e-008  1.33e-006
10064  0.0992616 -4.33e-010  9.56e-007
10065  0.1745353  1.36e-006  1.12e-006
10066  0.0992620  1.74e-006  6.44e-007
10067  0.1745358  3.11e-006  7.94e-007
10068  0.1745361  5.45e-006  4.20e-007
10069  0.0992630  5.59e-006  2.30e-007
10070  0.0992626  3.36e-006  2.60e-007
10071  0.1745362  8.69e-006 -1.63e-007
10072  0.0992629  9.24e-006  7.88e-008
10073  0.1745359  0.0000128 -1.13e-006
10074  0.0992624  0.0000138 -6.76e-007
10075  0.1745353  0.0000179 -2.42e-006
10076  0.1745340  0.0000242 -4.01e-006
10077  0.0992602  0.0000253 -2.36e-006
10078  0.0992616  0.0000189 -1.62e-006
10079  0.1745318  0.0000323 -6.10e-006
10080  0.0992576  0.0000340 -3.40e-006
10081  0.1745286  0.0000421 -8.93e-006
10082  0.0992537  0.0000446 -5.25e-006
10083  0.1745241  0.0000539 -0.0000125
10084  0.1745179  0.0000681 -0.0000169
10085  0.0992417  0.0000714 -9.90e-006
10086  0.0992487  0.0000567 -7.54e-006
10087  0.1745095  0.0000852 -0.0000223
10088  0.0992321  0.0000896 -0.0000129
10089  0.1744984  0.0001055 -0.0000291
10090  0.0992196  0.0001111 -0.0000171
10091  0.1744842  0.0001290 -0.0000373
10092  0.1744662  0.0001563 -0.0000472
10093  0.0991838  0.0001640 -0.0000279
10094  0.0992038  0.0001355 -0.0000222
10095  0.1744434  0.0001879 -0.0000591
10096  0.0991584  0.0001973 -0.0000349
10097  0.1744152  0.0002237 -0.0000734
10098  0.0991270  0.0002352 -0.0000437
10099  0.1743807  0.0002637 -0.0000903
10100  0.1743388  0.0003080 -0.0001099
10101  0.0990425  0.0003233 -0.0000661
10102  0.0990888  0.0002770 -0.0000542
10103  0.1742882  0.0003563 -0.0001329
10104  0.0989864  0.0003745 -0.0000803
10105  0.1742281  0.0004079 -0.0001596
10106  0.0989198  0.0004292 -0.0000974
10107  0.1741572  0.0004614 -0.0001901
10108  0.1740745  0.0005153 -0.0002248
10109  0.0987500  0.0005428 -0.0001400
10110  0.0988414  0.0004857 -0.0001173
10111  0.1739789  0.0005674 -0.0002639
10112  0.0986440  0.0005989 -0.0001662
10113  0.1738699  0.0006141 -0.0003075
10114  0.0985228  0.0006497 -0.0001968
10115  0.1737472  0.0006508 -0.0003555
10116  0.1736108  0.0006718 -0.0004074
10117  0.0982344  0.0007144 -0.0002703
10118  0.0983864  0.0006900 -0.0002316
10119  0.1734618  0.0006697 -0.0004623
10120  0.0980675  0.0007157 -0.0003134
10121  0.1733021  0.0006349 -0.0005191
10122  0.0978878  0.0006832 -0.0003609
10123  0.1731351  0.0005556 -0.0005753
10124  0.1729655  0.0004176 -0.0006273
10125  0.0975064  0.0004627 -0.0004631
10126  0.0976991  0.0006038 -0.0004116
10127  0.1728002  0.0002042 -0.0006697
10128  0.0973168  0.0002419 -0.0005125
10129  0.1726479 -0.0001043 -0.0006951
10130  0.0971409 -0.0000810 -0.0005551
10131  0.1725202 -0.0005302 -0.0006925
10132  0.1724313 -0.0010983 -0.0006475
10133  0.0968854 -0.0011387 -0.0005809
10134  0.0969919 -0.0005321 -0.0005820
10135  0.1723966 -0.0018352 -0.0005363
10136  0.0968460 -0.0019369 -0.0005361
10137  0.1723672 -0.0027570 -0.0003862
10138  0.1724110 -0.0038635  0.0000207
10139  0.1725692 -0.0052453  0.0004187
10140  0.1727460 -0.0068324  0.0011632
10141  0.1731322 -0.0086280  0.0021296
10142  0.0213332 -0.0019584 -0.0005275
10143  0.0213927 -0.0011317 -0.0004974
10144  0.0215223 -0.0004998 -0.0004525
10145  0.0216949 -0.0000362 -0.0003931
10146  0.0218959  0.0002894 -0.0003333
10147  0.0221081  0.0005092 -0.0002785
10148  0.0223207  0.0006482 -0.0002293
10149  0.0225267  0.0007239 -0.0001858
10150  0.0227218  0.0007509 -0.0001492
10151  0.0229017  0.0007441 -0.0001204
10152  0.0230641  0.0007164 -0.0000971
10153  0.0232091  0.0006730 -0.0000767
10154  0.0233379  0.0006180 -0.0000601
10155  0.0234503  0.0005581 -0.0000484
10156  0.0235465  0.0004994 -0.0000392
10157  0.0236286  0.0004415 -0.0000304
10158  0.0236991  0.0003841 -0.0000232
10159  0.0237582  0.0003304 -0.0000189
10160  0.0238065  0.0002837 -0.0000157
10161  0.0238462  0.0002415 -0.0000117
10162  0.0238795  0.0002019 -8.30e-006
10163  0.0239064  0.0001668 -7.09e-006
10164  0.0239271  0.0001386 -6.29e-006
10165  0.0239433  0.0001144 -4.17e-006
10166  0.0239568  0.0000917 -2.32e-006
10167  0.0239672  0.0000721 -2.33e-006
10168  0.0239742  0.0000580 -2.52e-006
10169  0.0239792  0.0000464 -1.19e-006
10170  0.0239836  0.0000348  1.72e-008
10171  0.0239868  0.0000250 -5.12e-007
10172  0.0239880  0.0000194 -1.11e-006
10173  0.0239885  0.0000150 -1.23e-007
10174  0.0239894  9.52e-006  8.23e-007
10175  0.0239899  4.84e-006  8.16e-008
10176  0.0239892  3.51e-006 -6.88e-007
10177  0.0239882  2.65e-006  1.72e-007
10178  0.0239882  6.92e-008  1.01e-006
10179  0.0239880 -2.28e-006  1.94e-007
10180  0.0239869 -1.75e-006 -6.36e-007
10181  0.0239858 -1.15e-006  1.78e-007
10182  0.0239857 -2.60e-006  9.87e-007
10183  0.0239857 -4.09e-006  1.43e-007
10184  0.0239848 -2.91e-006 -7.04e-007
10185  0.0239839 -1.86e-006  9.79e-008
10186  0.0239841 -2.99e-006  8.99e-007
10187  0.0239843 -4.28e-006  4.95e-008
10188  0.0239838 -2.99e-006 -8.01e-007
10189  0.0239832 -1.87e-006  3.86e-014
10190  0.0239838 -2.99e-006  8.01e-007
10191  0.0239843 -4.28e-006 -4.95e-008
10192  0.0239841 -2.99e-006 -8.99e-007
10193  0.0239839 -1.86e-006 -9.79e-008
10194  0.0239848 -2.91e-006  7.04e-007
10195  0.0239857 -4.09e-006 -1.43e-007
10196  0.0239857 -2.60e-006 -9.87e-007
10197  0.0239858 -1.15e-006 -1.78e-007
10198  0.0239869 -1.75e-006  6.36e-007
10199  0.0239880 -2.28e-006 -1.94e-007
10200  0.0239882  6.92e-008 -1.01e-006
10201  0.0239882  2.65e-006 -1.72e-007
10202  0.0239892  3.51e-006  6.88e-007
10203  0.0239899  4.84e-006 -8.16e-008
10204  0.0239894  9.52e-006 -8.23e-007
10205  0.0239885  0.0000150  1.23e-007
10206  0.0239880  0.0000194  1.11e-006
10207  0.0239868  0.0000250  5.12e-007
10208  0.0239836  0.0000348 -1.74e-008
10209  0.0239792  0.0000464  1.19e-006
10210  0.0239742  0.0000580  2.52e-006
10211  0.0239672  0.0000721  2.33e-006
10212  0.0239568  0.0000917  2.32e-006
10213  0.0239433  0.0001144  4.17e-006
10214  0.0239271  0.0001386  6.29e-006
10215  0.0239064  0.0001668  7.08e-006
10216  0.0238795  0.0002019  8.30e-006
10217  0.0238462  0.0002415  0.0000117
10218  0.0238065  0.0002837  0.0000157
10219  0.0237582  0.0003304  0.0000189
10220  0.0236991  0.0003841  0.0000232
10221  0.0236286  0.0004415  0.0000303
10222  0.0235465  0.0004994  0.0000392
10223  0.0234503  0.0005581  0.0000484
10224  0.0233379  0.0006180  0.0000601
10225  0.0232090  0.0006730  0.0000767
10226  0.0230640  0.0007164  0.0000971
10227  0.0229017  0.0007441  0.0001204
10228  0.0227217  0.0007509  0.0001493
10229  0.0225267  0.0007237  0.0001860
10230  0.0223209  0.0006476  0.0002295
10231  0.0221085  0.0005085  0.0002781
10232  0.0218958  0.0002897  0.0003325
10233  0.0216946 -0.0000349  0.0003931
10234  0.0215223 -0.0004995  0.0004532
10235  0.0213931 -0.0011324  0.0004978
10236  0.0213336 -0.0019590  0.0005276
10237  0.0213704 -0.0030641  0.0005543
10238  0.0217044 -0.0043978  0.0003594
10239  0.1735247 -0.0106739  0.0033717
10240  0.1754227 -0.0206065 -0.0183243
10241  0.1305373 -0.0235837 -0.0206294
10242  0.0576875 -0.0273527 -0.0213894
10243  0.0636594 -0.0269200 -0.0248003
10244  0.0572542 -0.0273085 -0.0283282
10245  0.1292903 -0.0236270 -0.0285870
10246  0.0412004 -0.0260204 -0.0339614
10247  0.1730198 -0.0207861 -0.0300561
10248  0.0342307 -0.0243697 -0.0382366
10249  0.0303407 -0.0218297 -0.0416428
10250  0.0275073 -0.0189767 -0.0443400
10251  0.0253903 -0.0159836 -0.0464452
10252  0.0234866 -0.0131161 -0.0479209
10253  0.0221461 -0.0104244 -0.0489760
10254  0.0919406 -0.0095941 -0.0477880
10255  0.0935006 -0.0119071 -0.0466266
10256  0.0209525 -0.0080545 -0.0496572
10257  0.0904480 -0.0075700 -0.0486292
10258 -0.0487758 -0.0084325 -0.0501085
10259 -0.0491312 -0.0062425 -0.0503122
10260  0.0200795 -0.0060447 -0.0500576
10261  0.0891845 -0.0057616 -0.0492441
10262 -0.1189861 -0.0086175 -0.0501235
10263 -0.1186177 -0.0063109 -0.0500351
10264  0.0194908 -0.0043978 -0.0502076
10265 -0.0491132 -0.0044648 -0.0503229
10266 -0.0490540 -0.0030435 -0.0503701
10267  0.0189718 -0.0030617 -0.0503945
10268  0.0869639 -0.0029588 -0.0498417
10269  0.0880080 -0.0041969 -0.0495399
10270 -0.1180010 -0.0043486 -0.0498883
10271 -0.1173112 -0.0028806 -0.0497375
10272 -0.1162231 -0.0017697 -0.0494888
10273 -0.0487099 -0.0018802 -0.0502324
10274 -0.1151627 -0.0009856 -0.0493173
10275 -0.0482496 -0.0010552 -0.0501292
10276 -0.1139163 -0.0003205 -0.0491751
10277 -0.1126826  0.0000963 -0.0490559
10278 -0.0470292  0.0000534 -0.0499456
10279 -0.0476582 -0.0004001 -0.0500384
10280 -0.1113702  0.0004176 -0.0489758
10281 -0.0463731  0.0003718 -0.0498720
10282 -0.1100649  0.0005888 -0.0489170
10283 -0.0457117  0.0005798 -0.0498143
10284 -0.1087599  0.0007192 -0.0488866
10285 -0.1074774  0.0007727 -0.0488651
10286 -0.0444065  0.0007800 -0.0497374
10287 -0.0450536  0.0007114 -0.0497715
10288 -0.1062084  0.0007867 -0.0488560
10289 -0.0437721  0.0007983 -0.0497133
10290 -0.1049636  0.0007501 -0.0488626
10291 -0.0431556  0.0007825 -0.0497016
10292 -0.1037337  0.0007295 -0.0488768
10293 -0.1025294  0.0006770 -0.0488877
10294 -0.0419824  0.0007069 -0.0496907
10295 -0.0425594  0.0007527 -0.0496960
10296 -0.1013396  0.0006203 -0.0489007
10297 -0.0414213  0.0006475 -0.0496887
10298 -0.1001715  0.0005408 -0.0489208
10299 -0.0408778  0.0005825 -0.0496930
10300 -0.0990141  0.0004962 -0.0489422
10301 -0.0978764  0.0004352 -0.0489557
10302 -0.0398406  0.0004669 -0.0497009
10303 -0.0403517  0.0005247 -0.0496986
10304 -0.0967474  0.0003805 -0.0489679
10305 -0.0393401  0.0004073 -0.0497035
10306 -0.0956334  0.0003112 -0.0489847
10307 -0.0388514  0.0003503 -0.0497101
10308 -0.0945240  0.0002802 -0.0490013
10309 -0.0934282  0.0002364 -0.0490094
10310 -0.0379061  0.0002643 -0.0497186
10311 -0.0383742  0.0003056 -0.0497164
10312 -0.0923356  0.0002004 -0.0490159
10313 -0.0374431  0.0002232 -0.0497203
10314 -0.0912527  0.0001510 -0.0490267
10315 -0.0369869  0.0001854 -0.0497254
10316 -0.0901700  0.0001380 -0.0490375
10317 -0.0890966  0.0001122 -0.0490405
10318 -0.0360927  0.0001360 -0.0497306
10319 -0.0365374  0.0001594 -0.0497300
10320 -0.0880228  0.0000929 -0.0490424
10321 -0.0356496  0.0001121 -0.0497307
10322 -0.0869554  0.0000595 -0.0490488
10323 -0.0352098  0.0000900 -0.0497342
10324 -0.0858857  0.0000596 -0.0490556
10325 -0.0848226  0.0000463 -0.0490554
10326 -0.0343402  0.0000672 -0.0497367
10327 -0.0347738  0.0000780 -0.0497373
10328 -0.0837574  0.0000377 -0.0490546
10329 -0.0339062  0.0000545 -0.0497358
10330 -0.0826966  0.0000146 -0.0490584
10331 -0.0334736  0.0000423 -0.0497382
10332 -0.0816324  0.0000222 -0.0490631
10333 -0.0805734  0.0000159 -0.0490614
10334 -0.0326142  0.0000348 -0.0497392
10335 -0.0330434  0.0000386 -0.0497404
10336 -0.0795114  0.0000132 -0.0490593
10337 -0.0321836  0.0000283 -0.0497378
10338 -0.0784530 -4.25e-006 -0.0490618
10339 -0.0317537  0.0000215 -0.0497397
10340 -0.0773906  6.70e-006 -0.0490654
10341 -0.0763328  3.89e-006 -0.0490631
10342 -0.0308976  0.0000214 -0.0497400
10343 -0.0313254  0.0000218 -0.0497414
10344 -0.0752718  3.88e-006 -0.0490606
10345 -0.0304680  0.0000179 -0.0497384
10346 -0.0742138 -0.0000105 -0.0490626
10347 -0.0300388  0.0000135 -0.0497400
10348 -0.0731518  1.47e-006 -0.0490657
10349 -0.0720940  1.27e-007 -0.0490632
10350 -0.0291830  0.0000166 -0.0497401
10351 -0.0296107  0.0000155 -0.0497415
10352 -0.0710332  1.14e-006 -0.0490607
10353 -0.0287535  0.0000142 -0.0497385
10354 -0.0699749 -0.0000117 -0.0490624
10355 -0.0283242  0.0000109 -0.0497399
10356 -0.0689129  1.64e-007 -0.0490652
10357 -0.0678548 -6.74e-007 -0.0490628
10358 -0.0274680  0.0000148 -0.0497399
10359 -0.0278960  0.0000134 -0.0497413
10360 -0.0667937  5.79e-007 -0.0490604
10361 -0.0270382  0.0000129 -0.0497384
10362 -0.0657350 -0.0000113 -0.0490619
10363 -0.0266087  9.91e-006 -0.0497397
10364 -0.0646728 -1.01e-007 -0.0490646
10365 -0.0636143 -8.22e-007 -0.0490623
10366 -0.0257517  0.0000136 -0.0497397
10367 -0.0261801  0.0000123 -0.0497410
10368 -0.0625530  3.81e-007 -0.0490600
10369 -0.0253217  0.0000119 -0.0497383
10370 -0.0614939 -0.0000108 -0.0490614
10371 -0.0248918  9.08e-006 -0.0497395
10372 -0.0604314 -3.04e-007 -0.0490639
10373 -0.0593725 -9.45e-007 -0.0490618
10374 -0.0240341  0.0000126 -0.0497395
10375 -0.0244628  0.0000113 -0.0497407
10376 -0.0583110  2.47e-007 -0.0490597
10377 -0.0236038  0.0000109 -0.0497382
10378 -0.0572515 -0.0000101 -0.0490609
10379 -0.0231736  8.44e-006 -0.0497393
10380 -0.0561889 -1.34e-007 -0.0490633
10381 -0.0551296 -4.09e-007 -0.0490614
10382 -0.0223152  0.0000122 -0.0497393
10383 -0.0227443  0.0000107 -0.0497404
10384 -0.0540679  1.16e-006 -0.0490595
10385 -0.0218847  0.0000111 -0.0497381
10386 -0.0530081 -7.78e-006 -0.0490607
10387 -0.0214544  9.41e-006 -0.0497392
10388 -0.0519455  2.22e-006 -0.0490631
10389 -0.0508861  3.11e-006 -0.0490615
10390 -0.0205958  0.0000148 -0.0497394
10391 -0.0210250  0.0000124 -0.0497403
10392 -0.0498246  6.03e-006 -0.0490600
10393 -0.0201656  0.0000153 -0.0497383
10394 -0.0487650 -3.71e-007 -0.0490613
10395 -0.0197357  0.0000157 -0.0497395
10396 -0.0477031  0.0000111 -0.0490641
10397 -0.0466445  0.0000149 -0.0490632
10398 -0.0188786  0.0000260 -0.0497400
10399 -0.0193068  0.0000208 -0.0497407
10400 -0.0455844  0.0000211 -0.0490625
10401 -0.0184498  0.0000302 -0.0497394
10402 -0.0445265  0.0000196 -0.0490647
10403 -0.0180219  0.0000350 -0.0497408
10404 -0.0434671  0.0000354 -0.0490684
10405 -0.0424117  0.0000451 -0.0490691
10406 -0.0171708  0.0000563 -0.0497424
10407 -0.0175956  0.0000450 -0.0497424
10408 -0.0413559  0.0000583 -0.0490702
10409 -0.0167466  0.0000677 -0.0497426
10410 -0.0403032  0.0000657 -0.0490743
10411 -0.0163244  0.0000811 -0.0497448
10412 -0.0392507  0.0000901 -0.0490803
10413 -0.0382036  0.0001106 -0.0490841
10414 -0.0154895  0.0001229 -0.0497487
10415 -0.0159054  0.0001007 -0.0497473
10416 -0.0371583  0.0001359 -0.0490890
10417 -0.0150764  0.0001470 -0.0497505
10418 -0.0361182  0.0001576 -0.0490971
10419 -0.0146678  0.0001746 -0.0497545
10420 -0.0350811  0.0001961 -0.0491079
10421 -0.0340523  0.0002328 -0.0491175
10422 -0.0138688  0.0002483 -0.0497633
10423 -0.0142651  0.0002094 -0.0497592
10424 -0.0330289  0.0002751 -0.0491291
10425 -0.0134790  0.0002903 -0.0497684
10426 -0.0320143  0.0003151 -0.0491446
10427 -0.0130978  0.0003363 -0.0497761
10428 -0.0310071  0.0003704 -0.0491639
10429 -0.0300125  0.0004236 -0.0491835
10430 -0.0123672  0.0004455 -0.0497949
10431 -0.0127269  0.0003894 -0.0497852
10432 -0.0290281  0.0004800 -0.0492063
10433 -0.0120193  0.0005029 -0.0498065
10434 -0.0280571  0.0005311 -0.0492340
10435 -0.0116852  0.0005606 -0.0498218
10436 -0.0270985  0.0005900 -0.0492667
10437 -0.0261563  0.0006388 -0.0493011
10438 -0.0110640  0.0006719 -0.0498606
10439 -0.0113665  0.0006190 -0.0498400
10440 -0.0252281  0.0006784 -0.0493397
10441 -0.0107775  0.0007139 -0.0498850
10442 -0.0243151  0.0006970 -0.0493835
10443 -0.0105076  0.0007397 -0.0499150
10444 -0.0234148  0.0006999 -0.0494322
10445 -0.0225281  0.0006652 -0.0494820
10446 -0.0100146  0.0007128 -0.0499893
10447 -0.0102540  0.0007435 -0.0499499
10448 -0.0216490  0.0005852 -0.0495332
10449 -0.0097853  0.0006341 -0.0500340
10450 -0.0207734  0.0004401 -0.0495842
10451 -0.0095615  0.0004922 -0.0500844
10452 -0.0198926  0.0002224 -0.0496312
10453 -0.0189990 -0.0000988 -0.0496658
10454 -0.0090967 -0.0000591 -0.0501902
10455 -0.0093355  0.0002695 -0.0501377
10456 -0.0180719 -0.0005440 -0.0496799
10457 -0.0088296 -0.0005214 -0.0502353
10458 -0.0171060 -0.0011476 -0.0496622
10459 -0.0085166 -0.0011520 -0.0502655
10460 -0.0160672 -0.0019185 -0.0495901
10461 -0.0149673 -0.0029042 -0.0494354
10462 -0.0076474 -0.0030411 -0.0501997
10463 -0.0081287 -0.0019753 -0.0502632
10464 -0.0137315 -0.0041282 -0.0491778
10465 -0.0070236 -0.0043741 -0.0500612
10466 -0.0123925 -0.0056138 -0.0487565
10467 -0.0062666 -0.0060076 -0.0497731
10468 -0.0109241 -0.0073489 -0.0481194
10469 -0.0092962 -0.0093462 -0.0472168
10470 -0.0041680 -0.0102404 -0.0485497
10471 -0.0053197 -0.0079605 -0.0492945
10472 -0.0075191 -0.0115641 -0.0459733
10473 -0.0028260 -0.0128092 -0.0474456
10474 -0.0056511 -0.0139351 -0.0443173
10475 -0.0013078 -0.0155923 -0.0459004
10476 -0.0037034 -0.0163689 -0.0422019
10477  0.0003458 -0.0184889 -0.0438461
10478  0.0042629 -0.0205600 -0.0452685
10479  0.0028964 -0.0171327 -0.0471990
10480  0.0057544 -0.0239789 -0.0426844
10481  0.0072550 -0.0272120 -0.0394184
10482  0.0087603 -0.0301759 -0.0353635
10483  0.0017285 -0.0138965 -0.0485545
10484  0.0061036 -0.0147544 -0.0492978
10485  0.0056829 -0.0114495 -0.0499053
10486  0.0008289 -0.0109615 -0.0494485
10487  0.0102520 -0.0153168 -0.0496325
10488  0.0103611 -0.0116488 -0.0498663
10489  0.0001885 -0.0084073 -0.0499834
10490  0.0056025 -0.0086444 -0.0501667
10491  0.0058304 -0.0063233 -0.0502068
10492 -0.0001951 -0.0062530 -0.0502657
10493  0.0108993 -0.0086178 -0.0497992
10494  0.0117926 -0.0061808 -0.0495658
10495  0.0129684 -0.0042641 -0.0492822
10496  0.0063126 -0.0044573 -0.0501365
10497  0.0143602 -0.0027913 -0.0489755
10498  0.0069960 -0.0029927 -0.0499909
10499  0.0158894 -0.0016820 -0.0487161
10500  0.0175116 -0.0008576 -0.0484972
10501  0.0087707 -0.0010090 -0.0496908
10502  0.0078305 -0.0018625 -0.0498396
10503  0.0191888 -0.0002618 -0.0483270
10504  0.0097783 -0.0003811 -0.0495613
10505  0.0208938  0.0001569 -0.0482021
10506  0.0108249  0.0000684 -0.0494562
10507  0.0226075  0.0004398 -0.0481167
10508  0.0243169  0.0006198 -0.0480637
10509  0.0129595  0.0005807 -0.0493174
10510  0.0118902  0.0003782 -0.0493757
10511  0.0260136  0.0007232 -0.0480364
10512  0.0140225  0.0007019 -0.0492782
10513  0.0276927  0.0007701 -0.0480284
10514  0.0150728  0.0007625 -0.0492545
10515  0.0293515  0.0007765 -0.0480345
10516  0.0309891  0.0007547 -0.0480503
10517  0.0171207  0.0007639 -0.0492400
10518  0.0161062  0.0007789 -0.0492428
10519  0.0326055  0.0007140 -0.0480723
10520  0.0181155  0.0007277 -0.0492436
10521  0.0342017  0.0006615 -0.0480978
10522  0.0190908  0.0006779 -0.0492515
10523  0.0357790  0.0006026 -0.0481248
10524  0.0373390  0.0005412 -0.0481517
10525  0.0209866  0.0005588 -0.0492739
10526  0.0200474  0.0006201 -0.0492620
10527  0.0388832  0.0004801 -0.0481777
10528  0.0219097  0.0004971 -0.0492863
10529  0.0404135  0.0004212 -0.0482021
10530  0.0228183  0.0004372 -0.0492985
10531  0.0419315  0.0003658 -0.0482244
10532  0.0434387  0.0003147 -0.0482444
10533  0.0245987  0.0003278 -0.0493209
10534  0.0237142  0.0003804 -0.0493102
10535  0.0449367  0.0002683 -0.0482622
10536  0.0254733  0.0002799 -0.0493306
10537  0.0464266  0.0002268 -0.0482777
10538  0.0263394  0.0002370 -0.0493392
10539  0.0479098  0.0001900 -0.0482911
10540  0.0493873  0.0001578 -0.0483025
10541  0.0280509  0.0001652 -0.0493533
10542  0.0271982  0.0001987 -0.0493469
10543  0.0508600  0.0001299 -0.0483122
10544  0.0288983  0.0001362 -0.0493588
10545  0.0523287  0.0001060 -0.0483202
10546  0.0297414  0.0001113 -0.0493635
10547  0.0537942  0.0000856 -0.0483269
10548  0.0552570  0.0000684 -0.0483324
10549  0.0314176  0.0000718 -0.0493706
10550  0.0305810  0.0000899 -0.0493675
10551  0.0567177  0.0000541 -0.0483368
10552  0.0322518  0.0000569 -0.0493731
10553  0.0581766  0.0000422 -0.0483404
10554  0.0330841  0.0000445 -0.0493753
10555  0.0596342  0.0000323 -0.0483432
10556  0.0610907  0.0000243 -0.0483453
10557  0.0347446  0.0000256 -0.0493782
10558  0.0339150  0.0000341 -0.0493770
10559  0.0625464  0.0000179 -0.0483470
10560  0.0355733  0.0000190 -0.0493791
10561  0.0640014  0.0000128 -0.0483483
10562  0.0364012  0.0000137 -0.0493800
10563  0.0654561  8.73e-006 -0.0483492
10564  0.0669104  5.55e-006 -0.0483499
10565  0.0380559  5.85e-006 -0.0493809
10566  0.0372287  9.29e-006 -0.0493806
10567  0.0683644  3.16e-006 -0.0483503
10568  0.0388827  3.42e-006 -0.0493811
10569  0.0698183  1.36e-006 -0.0483506
10570  0.0397093  1.61e-006 -0.0493814
10571  0.0712722 -3.19e-008 -0.0483508
10572  0.0727260 -1.05e-006 -0.0483508
10573  0.0413625 -1.13e-006 -0.0493815
10574  0.0405359  4.25e-008 -0.0493816
10575  0.0741798 -1.70e-006 -0.0483508
10576  0.0421889 -1.72e-006 -0.0493814
10577  0.0756336 -2.13e-006 -0.0483508
10578  0.0430154 -2.09e-006 -0.0493815
10579  0.0770875 -2.47e-006 -0.0483507
10580  0.0785414 -2.69e-006 -0.0483505
10581  0.0446687 -2.90e-006 -0.0493813
10582  0.0438420 -2.56e-006 -0.0493815
10583  0.0799954 -2.75e-006 -0.0483504
10584  0.0454953 -2.86e-006 -0.0493812
10585  0.0814494 -2.76e-006 -0.0483502
10586  0.0463220 -2.77e-006 -0.0493812
10587  0.0829036 -2.82e-006 -0.0483501
10588  0.0843578 -2.86e-006 -0.0483499
10589  0.0479759 -3.09e-006 -0.0493810
10590  0.0471489 -2.94e-006 -0.0493812
10591  0.0858121 -2.81e-006 -0.0483497
10592  0.0488028 -2.93e-006 -0.0493808
10593  0.0872664 -2.77e-006 -0.0483495
10594  0.0496298 -2.78e-006 -0.0493808
10595  0.0887209 -2.81e-006 -0.0483494
10596  0.0901754 -2.86e-006 -0.0483492
10597  0.0512844 -3.11e-006 -0.0493806
10598  0.0504570 -2.94e-006 -0.0493808
10599  0.0916300 -2.82e-006 -0.0483490
10600  0.0521116 -2.93e-006 -0.0493804
10601  0.0930846 -2.76e-006 -0.0483489
10602  0.0529389 -2.75e-006 -0.0493804
10603  0.0945394 -2.76e-006 -0.0483487
10604  0.0959942 -2.70e-006 -0.0483485
10605  0.0545941 -2.94e-006 -0.0493802
10606  0.0537665 -2.87e-006 -0.0493804
10607  0.0974491 -2.47e-006 -0.0483484
10608  0.0554217 -2.55e-006 -0.0493800
10609  0.0989040 -2.13e-006 -0.0483483
10610  0.0562493 -2.06e-006 -0.0493801
10611  0.1003590 -1.71e-006 -0.0483483
10612  0.1018140 -1.06e-006 -0.0483482
10613  0.0579049 -1.19e-006 -0.0493800
10614  0.0570771 -1.74e-006 -0.0493802
10615  0.1032690 -3.24e-008 -0.0483482
10616  0.0587326  4.07e-008 -0.0493799
10617  0.1047239  1.37e-006 -0.0483484
10618  0.0595602  1.65e-006 -0.0493801
10619  0.1061788  3.15e-006 -0.0483487
10620  0.1076336  5.52e-006 -0.0483491
10621  0.0612153  5.75e-006 -0.0493805
10622  0.0603878  3.39e-006 -0.0493804
10623  0.1090881  8.73e-006 -0.0483497
10624  0.0620424  9.28e-006 -0.0493808
10625  0.1105422  0.0000128 -0.0483507
10626  0.0628690  0.0000137 -0.0493815
10627  0.1119960  0.0000179 -0.0483519
10628  0.1134491  0.0000243 -0.0483536
10629  0.0645210  0.0000255 -0.0493831
10630  0.0636954  0.0000189 -0.0493823
10631  0.1149013  0.0000323 -0.0483557
10632  0.0653455  0.0000340 -0.0493843
10633  0.1163525  0.0000421 -0.0483585
10634  0.0661689  0.0000445 -0.0493860
10635  0.1178024  0.0000539 -0.0483620
10636  0.1192506  0.0000681 -0.0483664
10637  0.0678110  0.0000715 -0.0493907
10638  0.0669909  0.0000567 -0.0493882
10639  0.1206966  0.0000853 -0.0483718
10640  0.0686286  0.0000896 -0.0493938
10641  0.1221399  0.0001055 -0.0483786
10642  0.0694432  0.0001110 -0.0493979
10643  0.1235801  0.0001290 -0.0483869
10644  0.1250165  0.0001564 -0.0483968
10645  0.0710616  0.0001641 -0.0494087
10646  0.0702546  0.0001355 -0.0494029
10647  0.1264482  0.0001879 -0.0484087
10648  0.0718634  0.0001973 -0.0494157
10649  0.1278744  0.0002237 -0.0484229
10650  0.0726591  0.0002351 -0.0494245
10651  0.1292942  0.0002637 -0.0484398
10652  0.1307067  0.0003080 -0.0484595
10653  0.0742288  0.0003234 -0.0494469
10654  0.0734481  0.0002770 -0.0494349
10655  0.1321106  0.0003563 -0.0484824
10656  0.0749999  0.0003745 -0.0494611
10657  0.1335048  0.0004078 -0.0485091
10658  0.0757604  0.0004291 -0.0494781
10659  0.1348884  0.0004613 -0.0485397
10660  0.1362601  0.0005153 -0.0485743
10661  0.0772448  0.0005429 -0.0495208
10662  0.0765092  0.0004856 -0.0494980
10663  0.1376189  0.0005673 -0.0486134
10664  0.0779660  0.0005988 -0.0495470
10665  0.1389643  0.0006140 -0.0486570
10666  0.0786720  0.0006495 -0.0495776
10667  0.1402960  0.0006507 -0.0487050
10668  0.1416141  0.0006717 -0.0487569
10669  0.0800378  0.0007144 -0.0496511
10670  0.0793627  0.0006899 -0.0496123
10671  0.1429195  0.0006696 -0.0488118
10672  0.0806981  0.0007156 -0.0496942
10673  0.1442142  0.0006348 -0.0488686
10674  0.0813456  0.0006830 -0.0497417
10675  0.1455017  0.0005555 -0.0489248
10676  0.1467866  0.0004175 -0.0489768
10677  0.0826184  0.0004626 -0.0498439
10678  0.0819840  0.0006037 -0.0497923
10679  0.1480756  0.0002041 -0.0490192
10680  0.0832560  0.0002418 -0.0498934
10681  0.1493779 -0.0001044 -0.0490447
10682  0.0839073 -0.0000811 -0.0499360
10683  0.1507047 -0.0005304 -0.0490422
10684  0.1520703 -0.0010985 -0.0489971
10685  0.0853064 -0.0011389 -0.0499620
10686  0.0845855 -0.0005322 -0.0499630
10687  0.1534904 -0.0018353 -0.0488862
10688  0.0860941 -0.0019367 -0.0499173
10689  0.1549150 -0.0027584 -0.0487331
10690  0.1564205 -0.0038666 -0.0483382
10691  0.1580267 -0.0052468 -0.0479341
10692  0.1596607 -0.0068337 -0.0471941
10693  0.1614906 -0.0086305 -0.0462317
10694  0.0187359 -0.0019592 -0.0503728
10695  0.0185954 -0.0011314 -0.0503431
10696  0.0185250 -0.0004997 -0.0502976
10697  0.0184979 -0.0000363 -0.0502383
10698  0.0184988  0.0002894 -0.0501784
10699  0.0185112  0.0005093 -0.0501234
10700  0.0185239  0.0006480 -0.0500742
10701  0.0185302  0.0007236 -0.0500308
10702  0.0185253  0.0007508 -0.0499943
10703  0.0185053  0.0007443 -0.0499653
10704  0.0184678  0.0007163 -0.0499418
10705  0.0184130  0.0006727 -0.0499216
10706  0.0183419  0.0006180 -0.0499052
10707  0.0182544  0.0005583 -0.0498933
10708  0.0181508  0.0004993 -0.0498839
10709  0.0180332  0.0004412 -0.0498753
10710  0.0179037  0.0003841 -0.0498683
10711  0.0177628  0.0003307 -0.0498639
10712  0.0176114  0.0002837 -0.0498605
10713  0.0174514  0.0002412 -0.0498566
10714  0.0172847  0.0002019 -0.0498535
10715  0.0171116  0.0001672 -0.0498520
10716  0.0169326  0.0001386 -0.0498510
10717  0.0167491  0.0001141 -0.0498491
10718  0.0165626  0.0000917 -0.0498475
10719  0.0163730  0.0000725 -0.0498473
10720  0.0161804  0.0000580 -0.0498472
10721  0.0159857  0.0000461 -0.0498462
10722  0.0157901  0.0000349 -0.0498452
10723  0.0155932  0.0000255 -0.0498455
10724  0.0153948  0.0000194 -0.0498458
10725  0.0151956  0.0000146 -0.0498451
10726  0.0149965  9.55e-006 -0.0498444
10727  0.0147969  5.35e-006 -0.0498449
10728  0.0145966  3.52e-006 -0.0498453
10729  0.0143960  2.23e-006 -0.0498448
10730  0.0141959  1.00e-007 -0.0498443
10731  0.0139957 -1.73e-006 -0.0498447
10732  0.0137950 -1.74e-006 -0.0498452
10733  0.0135942 -1.61e-006 -0.0498448
10734  0.0133941 -2.56e-006 -0.0498443
10735  0.0131940 -3.49e-006 -0.0498448
10736  0.0129934 -2.91e-006 -0.0498453
10737  0.0127930 -2.36e-006 -0.0498449
10738  0.0125931 -2.96e-006 -0.0498444
10739  0.0123933 -3.64e-006 -0.0498449
10740  0.0121931 -2.98e-006 -0.0498454
10741  0.0119929 -2.41e-006 -0.0498450
10742  0.0117934 -2.96e-006 -0.0498446
10743  0.0115939 -3.60e-006 -0.0498450
10744  0.0113940 -2.98e-006 -0.0498454
10745  0.0111943 -2.43e-006 -0.0498451
10746  0.0109950 -2.88e-006 -0.0498447
10747  0.0107958 -3.36e-006 -0.0498451
10748  0.0105963 -2.58e-006 -0.0498455
10749  0.0103968 -1.75e-006 -0.0498451
10750  0.0101978 -1.71e-006 -0.0498448
10751  0.0099988 -1.50e-006 -0.0498451
10752  0.0097994  9.19e-008 -0.0498455
10753  0.0095999  2.02e-006 -0.0498451
10754  0.0094007  3.57e-006 -0.0498447
10755  0.0092013  5.68e-006 -0.0498449
10756  0.0090012  9.57e-006 -0.0498452
10757  0.0088008  0.0000144 -0.0498447
10758  0.0086001  0.0000195 -0.0498442
10759  0.0083988  0.0000259 -0.0498442
10760  0.0081961  0.0000349 -0.0498442
10761  0.0079921  0.0000458 -0.0498435
10762  0.0077869  0.0000582 -0.0498427
10763  0.0075797  0.0000732 -0.0498423
10764  0.0073698  0.0000919 -0.0498418
10765  0.0071567  0.0001139 -0.0498407
10766  0.0069403  0.0001390 -0.0498394
10767  0.0067194  0.0001682 -0.0498384
10768  0.0064928  0.0002025 -0.0498374
10769  0.0062599  0.0002415 -0.0498358
10770  0.0060198  0.0002847 -0.0498341
10771  0.0057710  0.0003327 -0.0498330
10772  0.0055119  0.0003859 -0.0498321
10773  0.0052414  0.0004430 -0.0498312
10774  0.0049582  0.0005025 -0.0498312
10775  0.0046606  0.0005632 -0.0498327
10776  0.0043471  0.0006234 -0.0498360
10777  0.0040166  0.0006792 -0.0498414
10778  0.0036685  0.0007255 -0.0498503
10779  0.0033021  0.0007568 -0.0498641
10780  0.0029176  0.0007655 -0.0498838
10781  0.0025167  0.0007410 -0.0499107
10782  0.0021024  0.0006697 -0.0499465
10783  0.0016796  0.0005355 -0.0499930
10784  0.0012555  0.0003185 -0.0500508
10785  0.0008412 -6.59e-006 -0.0501194
10786  0.0004522 -0.0004708 -0.0501966
10787  0.0001081 -0.0011091 -0.0502778
10788 -0.0001649 -0.0019613 -0.0503500
10789 -0.0003347 -0.0030743 -0.0503906
10790 -0.0003496 -0.0044885 -0.0503881
10791  0.1633264 -0.0106712 -0.0449873
10792  0.0154475 -0.0404752 -0.0334793
10793  0.0138431 -0.0367523 -0.0312739
10794  0.0102473 -0.0330800 -0.0302010
10795  0.0104178 -0.0348186 -0.0248327
10796  0.0099445 -0.0330858 -0.0195502
10797  0.0127642 -0.0368046 -0.0180281
10798  0.0082749 -0.0302723 -0.0144717
10799  0.0133243 -0.0406763 -0.0150518
10800  0.0066827 -0.0273636 -0.0104344
10801  0.0051013 -0.0241690 -0.0071767
10802  0.0035312 -0.0207945 -0.0045954
10803  0.0020749 -0.0173970 -0.0026595
10804  0.0008328 -0.0141833 -0.0013063
10805  0.0008179 -0.0150467 -0.0001883
10806  0.0005551 -0.0156023  0.0010836
10807 -0.0033505 -0.0129291 -0.0058751
10808  0.0001207  0.0001196 -0.0001275
10809  0.0000374  0.0000596 -0.0000510
10810  4.57e-006  4.40e-006 -0.0000106
10811  0.0000615  0.0000373 -0.0000518
10812  0.0001206  0.0001193  0.0001272
10813  0.0000615  0.0000373  0.0000517
10814  4.63e-006  4.41e-006  0.0000106
10815  0.0000373  0.0000591  0.0000508